*SPEF "ieee 1481-1999"
*DESIGN "rng_top"
*DATE "23:02:54 Thursday March 12, 2026"
*VENDOR "The OpenROAD Project"
*PROGRAM "OpenROAD"
*VERSION "edf00dff99f6c40d67a30c0e22a8191c5d2ed9d6"
*DESIGN_FLOW "NAME_SCOPE LOCAL" "PIN_CAP NONE"
*DIVIDER /
*DELIMITER :
*BUS_DELIMITER []
*T_UNIT 1 NS
*C_UNIT 1 PF
*R_UNIT 1 OHM
*L_UNIT 1 HENRY

*NAME_MAP
*3 clk_i
*4 num_to_send_o[0]
*5 num_to_send_o[1]
*6 num_to_send_o[2]
*7 req_num_i
*8 rst_i
*9 wr_i
*10 _000_
*11 _001_
*12 _002_
*13 _003_
*14 _004_
*15 _005_
*16 _006_
*17 _007_
*18 _008_
*19 _009_
*20 _010_
*21 _011_
*22 _012_
*23 _013_
*24 _014_
*25 _015_
*26 _016_
*27 _017_
*28 _018_
*29 _019_
*30 _020_
*31 _021_
*32 _022_
*33 _023_
*34 _024_
*35 _025_
*36 _026_
*37 _027_
*38 _028_
*39 _029_
*40 _030_
*41 _031_
*42 _032_
*43 _033_
*44 _034_
*45 _035_
*46 _036_
*47 _037_
*48 _038_
*49 _039_
*50 _040_
*51 _041_
*52 _042_
*53 _043_
*54 _044_
*55 _045_
*56 _046_
*57 _047_
*58 _048_
*59 _049_
*60 _050_
*61 _051_
*62 _052_
*63 _053_
*64 _054_
*65 _055_
*66 _056_
*67 _057_
*68 _058_
*69 _059_
*70 _060_
*71 _061_
*72 _062_
*73 _063_
*74 _064_
*75 _065_
*76 _066_
*77 _067_
*78 _068_
*79 _069_
*80 _070_
*81 _071_
*82 _072_
*83 _073_
*84 _074_
*85 _075_
*86 _076_
*87 _077_
*88 _078_
*89 _079_
*90 _080_
*91 clknet_0_clk_i
*92 clknet_2_0__leaf_clk_i
*93 clknet_2_1__leaf_clk_i
*94 clknet_2_2__leaf_clk_i
*95 clknet_2_3__leaf_clk_i
*96 net1
*97 net10
*98 net11
*99 net12
*100 net13
*101 net14
*102 net15
*103 net16
*104 net17
*105 net18
*106 net19
*107 net2
*108 net20
*109 net21
*110 net22
*111 net23
*112 net24
*113 net25
*114 net26
*115 net27
*116 net28
*117 net29
*118 net3
*119 net30
*120 net31
*121 net32
*122 net33
*123 net34
*124 net35
*125 net36
*126 net37
*127 net38
*128 net39
*129 net4
*130 net40
*131 net41
*132 net42
*133 net43
*134 net44
*135 net45
*136 net46
*137 net47
*138 net48
*139 net49
*140 net5
*141 net50
*142 net51
*143 net52
*144 net53
*145 net54
*146 net55
*147 net6
*148 net7
*149 net8
*150 net9
*151 num_i_bar\[0\]
*152 num_i_bar\[1\]
*153 num_i_bar\[2\]
*154 req_num_again
*155 rng_rd\.cache\[0\]
*156 rng_rd\.cache\[1\]
*157 rng_rd\.cache\[2\]
*158 rng_rd\.ram_1\[0\]
*159 rng_rd\.ram_1\[1\]
*160 rng_rd\.ram_1\[2\]
*161 rng_rd\.ram_2\[0\]
*162 rng_rd\.ram_2\[1\]
*163 rng_rd\.ram_2\[2\]
*164 rng_rd\.ram_3\[0\]
*165 rng_rd\.ram_3\[1\]
*166 rng_rd\.ram_3\[2\]
*167 rng_rd\.ram_4\[0\]
*168 rng_rd\.ram_4\[1\]
*169 rng_rd\.ram_4\[2\]
*170 rng_rd\.ram_5\[0\]
*171 rng_rd\.ram_5\[1\]
*172 rng_rd\.ram_5\[2\]
*173 rng_rd\.ram_6\[0\]
*174 rng_rd\.ram_6\[1\]
*175 rng_rd\.ram_6\[2\]
*176 rng_rd\.ram_7\[0\]
*177 rng_rd\.ram_7\[1\]
*178 rng_rd\.ram_7\[2\]
*179 rng_rd\.wr_ff1
*180 rng_rd\.wr_ff2
*181 rng_rd\.wr_ff2_d
*182 rng_rd\.wr_pulse
*183 FILLER_0_109
*184 FILLER_0_111
*185 FILLER_0_113
*186 FILLER_0_15
*187 FILLER_0_27
*188 FILLER_0_3
*189 FILLER_0_37
*190 FILLER_0_41
*191 FILLER_0_51
*192 FILLER_0_55
*193 FILLER_0_65
*194 FILLER_0_77
*195 FILLER_0_81
*196 FILLER_0_83
*197 FILLER_0_85
*198 FILLER_0_97
*199 FILLER_10_101
*200 FILLER_10_123
*201 FILLER_10_29
*202 FILLER_10_33
*203 FILLER_10_35
*204 FILLER_10_47
*205 FILLER_10_53
*206 FILLER_10_55
*207 FILLER_10_65
*208 FILLER_10_7
*209 FILLER_10_83
*210 FILLER_10_85
*211 FILLER_10_97
*212 FILLER_11_103
*213 FILLER_11_122
*214 FILLER_11_124
*215 FILLER_11_3
*216 FILLER_11_40
*217 FILLER_11_5
*218 FILLER_11_52
*219 FILLER_11_57
*220 FILLER_11_89
*221 FILLER_11_93
*222 FILLER_11_99
*223 FILLER_12_110
*224 FILLER_12_114
*225 FILLER_12_116
*226 FILLER_12_15
*227 FILLER_12_25
*228 FILLER_12_27
*229 FILLER_12_29
*230 FILLER_12_3
*231 FILLER_12_33
*232 FILLER_12_83
*233 FILLER_12_85
*234 FILLER_13_101
*235 FILLER_13_122
*236 FILLER_13_124
*237 FILLER_13_13
*238 FILLER_13_25
*239 FILLER_13_3
*240 FILLER_13_33
*241 FILLER_13_35
*242 FILLER_13_7
*243 FILLER_13_9
*244 FILLER_13_97
*245 FILLER_14_102
*246 FILLER_14_123
*247 FILLER_14_23
*248 FILLER_14_27
*249 FILLER_14_49
*250 FILLER_15_15
*251 FILLER_15_17
*252 FILLER_15_3
*253 FILLER_15_44
*254 FILLER_15_57
*255 FILLER_16_120
*256 FILLER_16_124
*257 FILLER_16_3
*258 FILLER_16_46
*259 FILLER_16_56
*260 FILLER_16_85
*261 FILLER_17_101
*262 FILLER_17_109
*263 FILLER_17_111
*264 FILLER_17_113
*265 FILLER_17_47
*266 FILLER_17_55
*267 FILLER_17_57
*268 FILLER_17_66
*269 FILLER_17_77
*270 FILLER_18_109
*271 FILLER_18_121
*272 FILLER_18_26
*273 FILLER_18_49
*274 FILLER_18_51
*275 FILLER_18_72
*276 FILLER_18_85
*277 FILLER_18_97
*278 FILLER_19_106
*279 FILLER_19_110
*280 FILLER_19_113
*281 FILLER_19_3
*282 FILLER_19_50
*283 FILLER_19_54
*284 FILLER_19_57
*285 FILLER_19_61
*286 FILLER_19_82
*287 FILLER_19_94
*288 FILLER_1_101
*289 FILLER_1_109
*290 FILLER_1_111
*291 FILLER_1_113
*292 FILLER_1_32
*293 FILLER_1_77
*294 FILLER_1_89
*295 FILLER_20_109
*296 FILLER_20_121
*297 FILLER_20_24
*298 FILLER_20_3
*299 FILLER_20_37
*300 FILLER_20_41
*301 FILLER_20_63
*302 FILLER_20_65
*303 FILLER_20_74
*304 FILLER_20_82
*305 FILLER_20_85
*306 FILLER_20_97
*307 FILLER_21_105
*308 FILLER_21_109
*309 FILLER_21_111
*310 FILLER_21_113
*311 FILLER_21_15
*312 FILLER_21_3
*313 FILLER_21_36
*314 FILLER_21_44
*315 FILLER_21_46
*316 FILLER_21_55
*317 FILLER_21_57
*318 FILLER_21_61
*319 FILLER_21_69
*320 FILLER_21_81
*321 FILLER_21_93
*322 FILLER_22_109
*323 FILLER_22_111
*324 FILLER_22_113
*325 FILLER_22_15
*326 FILLER_22_27
*327 FILLER_22_29
*328 FILLER_22_3
*329 FILLER_22_41
*330 FILLER_22_53
*331 FILLER_22_55
*332 FILLER_22_57
*333 FILLER_22_69
*334 FILLER_22_81
*335 FILLER_22_83
*336 FILLER_22_85
*337 FILLER_22_97
*338 FILLER_2_105
*339 FILLER_2_117
*340 FILLER_2_121
*341 FILLER_2_29
*342 FILLER_2_3
*343 FILLER_2_59
*344 FILLER_2_63
*345 FILLER_2_7
*346 FILLER_3_107
*347 FILLER_3_111
*348 FILLER_3_113
*349 FILLER_3_18
*350 FILLER_3_3
*351 FILLER_3_39
*352 FILLER_3_49
*353 FILLER_3_57
*354 FILLER_3_68
*355 FILLER_3_7
*356 FILLER_4_113
*357 FILLER_4_20
*358 FILLER_4_3
*359 FILLER_4_46
*360 FILLER_4_58
*361 FILLER_4_85
*362 FILLER_4_87
*363 FILLER_5_106
*364 FILLER_5_110
*365 FILLER_5_113
*366 FILLER_5_41
*367 FILLER_5_45
*368 FILLER_5_47
*369 FILLER_5_55
*370 FILLER_5_57
*371 FILLER_5_67
*372 FILLER_5_94
*373 FILLER_5_98
*374 FILLER_6_121
*375 FILLER_6_26
*376 FILLER_6_49
*377 FILLER_6_53
*378 FILLER_6_58
*379 FILLER_6_60
*380 FILLER_6_7
*381 FILLER_6_81
*382 FILLER_6_83
*383 FILLER_6_9
*384 FILLER_6_97
*385 FILLER_7_102
*386 FILLER_7_110
*387 FILLER_7_122
*388 FILLER_7_124
*389 FILLER_7_22
*390 FILLER_7_49
*391 FILLER_7_7
*392 FILLER_7_73
*393 FILLER_7_77
*394 FILLER_8_113
*395 FILLER_8_12
*396 FILLER_8_24
*397 FILLER_8_29
*398 FILLER_8_3
*399 FILLER_8_42
*400 FILLER_8_72
*401 FILLER_9_110
*402 FILLER_9_113
*403 FILLER_9_23
*404 FILLER_9_27
*405 FILLER_9_84
*406 FILLER_9_86
*407 PHY_EDGE_ROW_0_Left_23
*408 PHY_EDGE_ROW_0_Right_0
*409 PHY_EDGE_ROW_10_Left_33
*410 PHY_EDGE_ROW_10_Right_10
*411 PHY_EDGE_ROW_11_Left_34
*412 PHY_EDGE_ROW_11_Right_11
*413 PHY_EDGE_ROW_12_Left_35
*414 PHY_EDGE_ROW_12_Right_12
*415 PHY_EDGE_ROW_13_Left_36
*416 PHY_EDGE_ROW_13_Right_13
*417 PHY_EDGE_ROW_14_Left_37
*418 PHY_EDGE_ROW_14_Right_14
*419 PHY_EDGE_ROW_15_Left_38
*420 PHY_EDGE_ROW_15_Right_15
*421 PHY_EDGE_ROW_16_Left_39
*422 PHY_EDGE_ROW_16_Right_16
*423 PHY_EDGE_ROW_17_Left_40
*424 PHY_EDGE_ROW_17_Right_17
*425 PHY_EDGE_ROW_18_Left_41
*426 PHY_EDGE_ROW_18_Right_18
*427 PHY_EDGE_ROW_19_Left_42
*428 PHY_EDGE_ROW_19_Right_19
*429 PHY_EDGE_ROW_1_Left_24
*430 PHY_EDGE_ROW_1_Right_1
*431 PHY_EDGE_ROW_20_Left_43
*432 PHY_EDGE_ROW_20_Right_20
*433 PHY_EDGE_ROW_21_Left_44
*434 PHY_EDGE_ROW_21_Right_21
*435 PHY_EDGE_ROW_22_Left_45
*436 PHY_EDGE_ROW_22_Right_22
*437 PHY_EDGE_ROW_2_Left_25
*438 PHY_EDGE_ROW_2_Right_2
*439 PHY_EDGE_ROW_3_Left_26
*440 PHY_EDGE_ROW_3_Right_3
*441 PHY_EDGE_ROW_4_Left_27
*442 PHY_EDGE_ROW_4_Right_4
*443 PHY_EDGE_ROW_5_Left_28
*444 PHY_EDGE_ROW_5_Right_5
*445 PHY_EDGE_ROW_6_Left_29
*446 PHY_EDGE_ROW_6_Right_6
*447 PHY_EDGE_ROW_7_Left_30
*448 PHY_EDGE_ROW_7_Right_7
*449 PHY_EDGE_ROW_8_Left_31
*450 PHY_EDGE_ROW_8_Right_8
*451 PHY_EDGE_ROW_9_Left_32
*452 PHY_EDGE_ROW_9_Right_9
*453 TAP_TAPCELL_ROW_0_46
*454 TAP_TAPCELL_ROW_0_47
*455 TAP_TAPCELL_ROW_0_48
*456 TAP_TAPCELL_ROW_0_49
*457 TAP_TAPCELL_ROW_10_68
*458 TAP_TAPCELL_ROW_10_69
*459 TAP_TAPCELL_ROW_11_70
*460 TAP_TAPCELL_ROW_11_71
*461 TAP_TAPCELL_ROW_12_72
*462 TAP_TAPCELL_ROW_12_73
*463 TAP_TAPCELL_ROW_13_74
*464 TAP_TAPCELL_ROW_13_75
*465 TAP_TAPCELL_ROW_14_76
*466 TAP_TAPCELL_ROW_14_77
*467 TAP_TAPCELL_ROW_15_78
*468 TAP_TAPCELL_ROW_15_79
*469 TAP_TAPCELL_ROW_16_80
*470 TAP_TAPCELL_ROW_16_81
*471 TAP_TAPCELL_ROW_17_82
*472 TAP_TAPCELL_ROW_17_83
*473 TAP_TAPCELL_ROW_18_84
*474 TAP_TAPCELL_ROW_18_85
*475 TAP_TAPCELL_ROW_19_86
*476 TAP_TAPCELL_ROW_19_87
*477 TAP_TAPCELL_ROW_1_50
*478 TAP_TAPCELL_ROW_1_51
*479 TAP_TAPCELL_ROW_20_88
*480 TAP_TAPCELL_ROW_20_89
*481 TAP_TAPCELL_ROW_21_90
*482 TAP_TAPCELL_ROW_21_91
*483 TAP_TAPCELL_ROW_22_92
*484 TAP_TAPCELL_ROW_22_93
*485 TAP_TAPCELL_ROW_22_94
*486 TAP_TAPCELL_ROW_22_95
*487 TAP_TAPCELL_ROW_2_52
*488 TAP_TAPCELL_ROW_2_53
*489 TAP_TAPCELL_ROW_3_54
*490 TAP_TAPCELL_ROW_3_55
*491 TAP_TAPCELL_ROW_4_56
*492 TAP_TAPCELL_ROW_4_57
*493 TAP_TAPCELL_ROW_5_58
*494 TAP_TAPCELL_ROW_5_59
*495 TAP_TAPCELL_ROW_6_60
*496 TAP_TAPCELL_ROW_6_61
*497 TAP_TAPCELL_ROW_7_62
*498 TAP_TAPCELL_ROW_7_63
*499 TAP_TAPCELL_ROW_8_64
*500 TAP_TAPCELL_ROW_8_65
*501 TAP_TAPCELL_ROW_9_66
*502 TAP_TAPCELL_ROW_9_67
*503 _081_
*504 _082_
*505 _083_
*506 _084_
*507 _085_
*508 _086_
*509 _087_
*510 _088_
*511 _089_
*512 _090_
*513 _091_
*514 _092_
*515 _093_
*516 _094_
*517 _095_
*518 _096_
*519 _097_
*520 _098_
*521 _099_
*522 _100_
*523 _101_
*524 _102_
*525 _103_
*526 _104_
*527 _105_
*528 _106_
*529 _107_
*530 _108_
*531 _109_
*532 _110_
*533 _111_
*534 _112_
*535 _113_
*536 _114_
*537 _115_
*538 _116_
*539 _117_
*540 _118_
*541 _119_
*542 _120_
*543 _121_
*544 _122_
*545 _123_
*546 _124_
*547 _125_
*548 _126_
*549 _127_
*550 _128_
*551 _129_
*552 _130_
*553 _131_
*554 _132_
*555 _133_
*556 _134_
*557 _135_
*558 _136_
*559 _137_
*560 _138_
*561 _139_
*562 _140_
*563 _141_
*564 _142_
*565 _143_
*566 _144_
*567 _145_
*568 _146_
*569 _147_
*570 _148_
*571 _149_
*572 _150_
*573 _151_
*574 _152_
*575 _153_
*576 _154_
*577 _155_
*578 _156_
*579 _157_
*580 _158_
*581 _159_
*582 _160_
*583 _161_
*584 _162_
*585 _163_
*586 _164_
*587 _165_
*588 _166_
*589 _167_
*590 _168_
*591 _169_
*592 _170_
*593 _171_
*594 _172_
*595 _173_
*596 _174_
*597 _175_
*598 _176_
*599 _177_
*600 _178_
*601 _179_
*602 _180_
*603 _181_
*604 _182_
*605 _183_
*606 _184_
*607 _185_
*608 _186_
*609 _187_
*610 _188_
*611 _189_
*612 _190_
*613 _191_
*614 _192_
*615 _193_
*616 _194_
*617 _195_
*618 _196_
*619 clkbuf_0_clk_i
*620 clkbuf_2_0__f_clk_i
*621 clkbuf_2_1__f_clk_i
*622 clkbuf_2_2__f_clk_i
*623 clkbuf_2_3__f_clk_i
*624 clkload0
*625 clkload1
*626 clkload2
*627 fanout10
*628 fanout11
*629 fanout12
*630 fanout13
*631 fanout14
*632 fanout15
*633 fanout16
*634 fanout7
*635 fanout8
*636 fanout9
*637 hold1
*638 hold10
*639 hold11
*640 hold12
*641 hold13
*642 hold14
*643 hold15
*644 hold16
*645 hold17
*646 hold18
*647 hold19
*648 hold2
*649 hold20
*650 hold21
*651 hold22
*652 hold23
*653 hold24
*654 hold25
*655 hold26
*656 hold27
*657 hold28
*658 hold29
*659 hold3
*660 hold30
*661 hold31
*662 hold32
*663 hold33
*664 hold34
*665 hold35
*666 hold36
*667 hold37
*668 hold38
*669 hold39
*670 hold4
*671 hold5
*672 hold6
*673 hold7
*674 hold8
*675 hold9
*676 input1
*677 input2
*678 input3
*679 output4
*680 output5
*681 output6

*PORTS
clk_i I
num_to_send_o[0] O
num_to_send_o[1] O
num_to_send_o[2] O
req_num_i I
rst_i I
wr_i I

*D_NET *3 0.0065114
*CONN
*P clk_i I
*I *619:A I *D sky130_fd_sc_hd__clkbuf_16
*CAP
1 clk_i 0.00282391
2 *619:A 0.00282391
3 *619:A *510:B 0
4 *619:A *549:A_N 0
5 *619:A *553:A1 0
6 *619:A *581:A0 0
7 *619:A *615:D 4.25809e-05
8 *619:A *615:RESET_B 7.7674e-05
9 *619:A *637:A 0.000163437
10 *619:A *670:A 0
11 *619:A *678:A 3.45861e-05
12 *619:A *102:8 0.000106542
13 *619:A *102:10 0.000157381
14 *619:A *102:14 8.15939e-05
15 *619:A *102:71 0.000160741
16 *619:A *102:87 3.90513e-05
*RES
1 clk_i *619:A 39.3024 
*END

*D_NET *4 0.00112348
*CONN
*P num_to_send_o[0] O
*I *679:X O *D sky130_fd_sc_hd__buf_2
*CAP
1 num_to_send_o[0] 0.000325046
2 *679:X 0.000325046
3 num_to_send_o[0] num_to_send_o[1] 2.25951e-05
4 num_to_send_o[0] num_to_send_o[2] 0
5 num_to_send_o[0] *537:A 7.51838e-05
6 num_to_send_o[0] *604:CLK 0.000129868
7 num_to_send_o[0] *607:D 5.56943e-05
8 num_to_send_o[0] *92:97 0.000190051
*RES
1 *679:X num_to_send_o[0] 21.8378 
*END

*D_NET *5 0.000739532
*CONN
*P num_to_send_o[1] O
*I *680:X O *D sky130_fd_sc_hd__buf_2
*CAP
1 num_to_send_o[1] 0.000342499
2 *680:X 0.000342499
3 num_to_send_o[1] num_to_send_o[2] 3.19385e-05
4 num_to_send_o[0] num_to_send_o[1] 2.25951e-05
*RES
1 *680:X num_to_send_o[1] 20.891 
*END

*D_NET *6 0.000523462
*CONN
*P num_to_send_o[2] O
*I *681:X O *D sky130_fd_sc_hd__buf_2
*CAP
1 num_to_send_o[2] 0.000235453
2 *681:X 0.000235453
3 num_to_send_o[2] *92:31 2.06178e-05
4 num_to_send_o[0] num_to_send_o[2] 0
5 num_to_send_o[1] num_to_send_o[2] 3.19385e-05
*RES
1 *681:X num_to_send_o[2] 18.1949 
*END

*D_NET *7 0.000694696
*CONN
*P req_num_i I
*I *676:A I *D sky130_fd_sc_hd__buf_1
*CAP
1 req_num_i 0.00033656
2 *676:A 0.00033656
3 *676:A *678:A 2.15768e-05
4 *676:A *56:8 0
*RES
1 req_num_i *676:A 21.391 
*END

*D_NET *8 0.000413372
*CONN
*P rst_i I
*I *677:A I *D sky130_fd_sc_hd__buf_1
*CAP
1 rst_i 0.000206686
2 *677:A 0.000206686
*RES
1 rst_i *677:A 18.1229 
*END

*D_NET *9 0.000526477
*CONN
*P wr_i I
*I *678:A I *D sky130_fd_sc_hd__buf_1
*CAP
1 wr_i 0.000235157
2 *678:A 0.000235157
3 *678:A *578:B 0
4 *619:A *678:A 3.45861e-05
5 *676:A *678:A 2.15768e-05
*RES
1 wr_i *678:A 20.2447 
*END

*D_NET *10 0.000541081
*CONN
*I *614:D I *D sky130_fd_sc_hd__dfrtp_1
*I *548:Y O *D sky130_fd_sc_hd__inv_2
*CAP
1 *614:D 0.00027054
2 *548:Y 0.00027054
*RES
1 *548:Y *614:D 31.1179 
*END

*D_NET *11 0.000835116
*CONN
*I *618:D I *D sky130_fd_sc_hd__dfrtp_1
*I *549:X O *D sky130_fd_sc_hd__and2b_1
*CAP
1 *618:D 0.000227268
2 *549:X 0.000227268
3 *618:D *549:B 7.83659e-05
4 *618:D *610:D 0.000226021
5 *618:D *618:CLK 7.61932e-05
*RES
1 *549:X *618:D 32.725 
*END

*D_NET *12 0.000838017
*CONN
*I *584:D I *D sky130_fd_sc_hd__dfrtp_1
*I *550:X O *D sky130_fd_sc_hd__mux2_1
*CAP
1 *584:D 0.00035157
2 *550:X 0.00035157
3 *584:D *94:51 5.71124e-05
4 *584:D *103:42 7.77652e-05
5 *584:D *154:12 0
*RES
1 *550:X *584:D 33.6357 
*END

*D_NET *13 0.000445281
*CONN
*I *585:D I *D sky130_fd_sc_hd__dfrtp_1
*I *551:X O *D sky130_fd_sc_hd__mux2_1
*CAP
1 *585:D 0.000121496
2 *551:X 0.000121496
3 *585:D *551:A0 9.90367e-05
4 *585:D *94:27 0
5 *585:D *154:12 0.000103253
*RES
1 *551:X *585:D 29.8857 
*END

*D_NET *14 0.000294734
*CONN
*I *586:D I *D sky130_fd_sc_hd__dfrtp_2
*I *552:X O *D sky130_fd_sc_hd__mux2_1
*CAP
1 *586:D 9.73048e-05
2 *552:X 9.73048e-05
3 *586:D *552:A0 0.000100124
*RES
1 *552:X *586:D 20.7964 
*END

*D_NET *15 0.000548768
*CONN
*I *638:A I *D sky130_fd_sc_hd__dlygate4sd3_1
*I *553:X O *D sky130_fd_sc_hd__mux2_1
*CAP
1 *638:A 0.000177498
2 *553:X 0.000177498
3 *638:A *553:S 0.000140471
4 *638:A *587:D 5.33005e-05
*RES
1 *553:X *638:A 22.3321 
*END

*D_NET *16 0.000840168
*CONN
*I *672:A I *D sky130_fd_sc_hd__dlygate4sd3_1
*I *554:X O *D sky130_fd_sc_hd__mux2_1
*CAP
1 *672:A 0.000327726
2 *554:X 0.000327726
3 *672:A *588:D 0
4 *672:A *588:RESET_B 0.000101545
5 *672:A *150:12 0
6 *672:A *157:42 7.77751e-05
7 *672:A *174:19 5.39629e-06
*RES
1 *554:X *672:A 33.5643 
*END

*D_NET *17 0.00111131
*CONN
*I *674:A I *D sky130_fd_sc_hd__dlygate4sd3_1
*I *555:X O *D sky130_fd_sc_hd__mux2_1
*CAP
1 *674:A 0.000360748
2 *555:X 0.000360748
3 *674:A *511:B 0.000273269
4 *674:A *512:B 9.08751e-05
5 *674:A *513:B2 0
6 *674:A *178:8 2.56694e-05
*RES
1 *555:X *674:A 34.2607 
*END

*D_NET *18 0.00186864
*CONN
*I *590:D I *D sky130_fd_sc_hd__dfrtp_1
*I *556:X O *D sky130_fd_sc_hd__mux2_1
*CAP
1 *590:D 0.000699588
2 *556:X 0.000699588
3 *590:D *556:S 0.000139913
4 *590:D *170:10 0.000329553
*RES
1 *556:X *590:D 30.3679 
*END

*D_NET *19 0.000698557
*CONN
*I *658:A I *D sky130_fd_sc_hd__dlygate4sd3_1
*I *557:X O *D sky130_fd_sc_hd__mux2_1
*CAP
1 *658:A 0.000107683
2 *557:X 0.000107683
3 *658:A *514:A 0.000166305
4 *658:A *524:A1 0.000316887
*RES
1 *557:X *658:A 31.6714 
*END

*D_NET *20 0.0011867
*CONN
*I *592:D I *D sky130_fd_sc_hd__dfrtp_1
*I *558:X O *D sky130_fd_sc_hd__mux2_1
*CAP
1 *592:D 0.000304153
2 *558:X 0.000304153
3 *592:D *558:S 0.00040279
4 *592:D *617:RESET_B 4.57352e-05
5 *592:D *168:25 0.000129868
*RES
1 *558:X *592:D 33.0643 
*END

*D_NET *21 0.000580248
*CONN
*I *594:D I *D sky130_fd_sc_hd__dfrtp_1
*I *559:X O *D sky130_fd_sc_hd__mux2_1
*CAP
1 *594:D 0.000108961
2 *559:X 0.000108961
3 *594:D *534:A 0.000100831
4 *594:D *594:CLK 7.77751e-05
5 *594:D *100:85 0.00018372
6 *594:D *155:14 0
*RES
1 *559:X *594:D 30.7071 
*END

*D_NET *22 0.000384786
*CONN
*I *595:D I *D sky130_fd_sc_hd__dfrtp_1
*I *560:X O *D sky130_fd_sc_hd__mux2_1
*CAP
1 *595:D 0.000151678
2 *560:X 0.000151678
3 *595:D *560:A0 3.80953e-06
4 *595:D *595:RESET_B 0
5 *595:D *596:CLK 3.18676e-05
6 *595:D *93:81 4.57538e-05
*RES
1 *560:X *595:D 30.1893 
*END

*D_NET *23 0.000408133
*CONN
*I *596:D I *D sky130_fd_sc_hd__dfrtp_1
*I *561:X O *D sky130_fd_sc_hd__mux2_1
*CAP
1 *596:D 0.000138286
2 *561:X 0.000138286
3 *596:D *561:A1 9.90367e-05
4 *596:D *595:RESET_B 4.1331e-06
5 *596:D *93:77 0
6 *596:D *101:10 2.83916e-05
*RES
1 *561:X *596:D 29.8857 
*END

*D_NET *24 0.00121209
*CONN
*I *597:D I *D sky130_fd_sc_hd__dfrtp_1
*I *562:X O *D sky130_fd_sc_hd__mux2_1
*CAP
1 *597:D 0.000350805
2 *562:X 0.000350805
3 *597:D *540:A 2.44318e-05
4 *597:D *562:A1 0.000140933
5 *597:D *565:A0 6.86693e-05
6 *597:D *155:14 0.000174905
7 *597:D *161:10 0.000101545
*RES
1 *562:X *597:D 33.2964 
*END

*D_NET *25 0.000589557
*CONN
*I *598:D I *D sky130_fd_sc_hd__dfrtp_1
*I *563:X O *D sky130_fd_sc_hd__mux2_1
*CAP
1 *598:D 0.000185328
2 *563:X 0.000185328
3 *598:D *563:A1 1.40306e-05
4 *598:D *598:CLK 5.5782e-05
5 *598:D *598:RESET_B 5.24274e-05
6 *598:D *664:A 1.00375e-05
7 *598:D *101:53 8.66228e-05
8 *598:D *162:12 0
*RES
1 *563:X *598:D 31.9036 
*END

*D_NET *26 0.000762348
*CONN
*I *646:A I *D sky130_fd_sc_hd__dlygate4sd3_1
*I *564:X O *D sky130_fd_sc_hd__mux2_1
*CAP
1 *646:A 0.000204216
2 *564:X 0.000204216
3 *646:A *560:A1 0.000126639
4 *646:A *564:A0 0.000101545
5 *646:A *165:10 0
6 *646:A *166:10 0.000125731
*RES
1 *564:X *646:A 31.4214 
*END

*D_NET *27 0.000897687
*CONN
*I *643:A I *D sky130_fd_sc_hd__dlygate4sd3_1
*I *565:X O *D sky130_fd_sc_hd__mux2_1
*CAP
1 *643:A 9.68167e-05
2 *565:X 9.68167e-05
3 *643:A *528:B 0.000225989
4 *643:A *529:A 0.000121254
5 *643:A *92:12 0.000224341
6 *643:A *97:12 9.11048e-06
7 *643:A *148:35 0.000123359
*RES
1 *565:X *643:A 31.4214 
*END

*D_NET *28 0.000650953
*CONN
*I *601:D I *D sky130_fd_sc_hd__dfrtp_1
*I *566:X O *D sky130_fd_sc_hd__mux2_1
*CAP
1 *601:D 0.000229201
2 *566:X 0.000229201
3 *601:D *601:CLK 5.79582e-06
4 *601:D *605:RESET_B 3.44143e-05
5 *601:D *665:A 0.00015234
6 *601:D *148:97 0
7 *601:D *160:32 0
*RES
1 *566:X *601:D 31.9036 
*END

*D_NET *29 0.00142818
*CONN
*I *665:A I *D sky130_fd_sc_hd__dlygate4sd3_1
*I *567:X O *D sky130_fd_sc_hd__mux2_1
*CAP
1 *665:A 0.000428289
2 *567:X 0.000428289
3 *665:A *567:A1 0.000103127
4 *665:A *567:S 0
5 *665:A *601:CLK 8.84979e-05
6 *665:A *602:CLK 4.25176e-05
7 *665:A *92:59 0.000185118
8 *665:A *148:97 0
9 *665:A *160:14 0
10 *601:D *665:A 0.00015234
*RES
1 *567:X *665:A 36.1536 
*END

*D_NET *30 0.00108074
*CONN
*I *655:A I *D sky130_fd_sc_hd__dlygate4sd3_1
*I *568:X O *D sky130_fd_sc_hd__mux2_1
*CAP
1 *655:A 0.000336611
2 *568:X 0.000336611
3 *655:A *99:117 0.000407515
*RES
1 *568:X *655:A 25.3143 
*END

*D_NET *31 0.00073856
*CONN
*I *605:D I *D sky130_fd_sc_hd__dfrtp_1
*I *569:X O *D sky130_fd_sc_hd__mux2_1
*CAP
1 *605:D 0.000308839
2 *569:X 0.000308839
3 *605:D *572:A0 2.89114e-05
4 *605:D *100:27 4.1331e-06
5 *605:D *100:47 3.15645e-05
6 *605:D *147:14 3.34295e-05
7 *605:D *147:25 2.28428e-05
*RES
1 *569:X *605:D 31.9393 
*END

*D_NET *32 0.00116101
*CONN
*I *606:D I *D sky130_fd_sc_hd__dfrtp_1
*I *570:X O *D sky130_fd_sc_hd__mux2_1
*CAP
1 *606:D 0.000452132
2 *570:X 0.000452132
3 *606:D *609:D 0
4 *606:D *609:RESET_B 0.000178976
5 *606:D *92:59 7.77652e-05
6 *606:D *147:14 0
*RES
1 *570:X *606:D 34.1179 
*END

*D_NET *33 0.000558637
*CONN
*I *607:D I *D sky130_fd_sc_hd__dfrtp_1
*I *571:X O *D sky130_fd_sc_hd__mux2_1
*CAP
1 *607:D 0.000124074
2 *571:X 0.000124074
3 *607:D *537:A 3.51442e-05
4 *607:D *537:B 7.38748e-05
5 *607:D *604:CLK 2.78729e-05
6 *607:D *679:A 0.000117903
7 num_to_send_o[0] *607:D 5.56943e-05
*RES
1 *571:X *607:D 31.3679 
*END

*D_NET *34 0.000461152
*CONN
*I *608:D I *D sky130_fd_sc_hd__dfrtp_1
*I *572:X O *D sky130_fd_sc_hd__mux2_1
*CAP
1 *608:D 0.000230576
2 *572:X 0.000230576
3 *608:D *92:33 0
4 *608:D *148:37 0
*RES
1 *572:X *608:D 31.4214 
*END

*D_NET *35 0.000715499
*CONN
*I *609:D I *D sky130_fd_sc_hd__dfrtp_1
*I *573:X O *D sky130_fd_sc_hd__mux2_1
*CAP
1 *609:D 0.000250271
2 *573:X 0.000250271
3 *609:D *605:CLK 1.15281e-05
4 *609:D *609:CLK 0.00011191
5 *609:D *92:46 2.40379e-05
6 *609:D *92:52 6.74815e-05
7 *606:D *609:D 0
*RES
1 *573:X *609:D 32.725 
*END

*D_NET *36 0.000266507
*CONN
*I *611:D I *D sky130_fd_sc_hd__dfrtp_1
*I *576:X O *D sky130_fd_sc_hd__and2_1
*CAP
1 *611:D 9.21086e-05
2 *576:X 9.21086e-05
3 *611:D *578:B 0
4 *611:D *611:CLK 2.89016e-05
5 *611:D *58:12 5.33882e-05
*RES
1 *576:X *611:D 29.475 
*END

*D_NET *37 0.000406002
*CONN
*I *612:D I *D sky130_fd_sc_hd__dfrtp_1
*I *579:Y O *D sky130_fd_sc_hd__nor2_1
*CAP
1 *612:D 0.000152521
2 *579:Y 0.000152521
3 *612:D *579:A 0.00010096
4 *612:D *152:10 0
*RES
1 *579:Y *612:D 29.8857 
*END

*D_NET *38 0.000625449
*CONN
*I *613:D I *D sky130_fd_sc_hd__dfrtp_1
*I *580:X O *D sky130_fd_sc_hd__xor2_1
*CAP
1 *613:D 0.000309821
2 *580:X 0.000309821
3 *613:D *552:S 5.80706e-06
4 *613:D *613:CLK 0
5 *613:D *613:RESET_B 0
6 *613:D *103:56 0
7 *613:D *152:10 0
8 *613:D *152:18 0
*RES
1 *580:X *613:D 32.5821 
*END

*D_NET *39 0.00141137
*CONN
*I *615:D I *D sky130_fd_sc_hd__dfrtp_1
*I *581:X O *D sky130_fd_sc_hd__mux2_1
*CAP
1 *615:D 0.000560109
2 *581:X 0.000560109
3 *615:D *581:A0 0.000125731
4 *615:D *615:RESET_B 2.51837e-05
5 *615:D *173:8 9.7659e-05
6 *619:A *615:D 4.25809e-05
*RES
1 *581:X *615:D 37.5821 
*END

*D_NET *40 0.000461979
*CONN
*I *641:A I *D sky130_fd_sc_hd__dlygate4sd3_1
*I *582:X O *D sky130_fd_sc_hd__mux2_1
*CAP
1 *641:A 0.000140595
2 *582:X 0.000140595
3 *641:A *546:A1 0.000127446
4 *641:A *589:CLK 4.72917e-05
5 *641:A *95:51 6.05161e-06
6 *641:A *150:12 0
*RES
1 *582:X *641:A 30.1893 
*END

*D_NET *41 0.00020911
*CONN
*I *650:A I *D sky130_fd_sc_hd__dlygate4sd3_1
*I *583:X O *D sky130_fd_sc_hd__mux2_1
*CAP
1 *650:A 6.41421e-05
2 *583:X 6.41421e-05
3 *650:A *583:S 8.08256e-05
*RES
1 *583:X *650:A 19.975 
*END

*D_NET *42 0.000789643
*CONN
*I *536:B1 I *D sky130_fd_sc_hd__a221o_1
*I *534:Y O *D sky130_fd_sc_hd__nand2_1
*CAP
1 *536:B1 9.172e-05
2 *534:Y 9.172e-05
3 *536:B1 *536:B2 1.28809e-05
4 *536:B1 *536:C1 0.000140933
5 *536:B1 *620:A 9.73868e-05
6 *536:B1 *47:12 0.000355002
7 *536:B1 *156:24 0
8 *536:B1 *156:28 0
*RES
1 *534:Y *536:B1 22.4393 
*END

*D_NET *43 0.00114342
*CONN
*I *536:B2 I *D sky130_fd_sc_hd__a221o_1
*I *535:X O *D sky130_fd_sc_hd__or2_1
*CAP
1 *536:B2 0.000169729
2 *535:X 0.000169729
3 *536:B2 *620:A 1.35999e-05
4 *536:B2 *97:68 0.00041782
5 *536:B2 *148:21 0.000317082
6 *536:B2 *156:24 4.25809e-05
7 *536:B1 *536:B2 1.28809e-05
*RES
1 *535:X *536:B2 33.1045 
*END

*D_NET *44 0.00340974
*CONN
*I *546:C1 I *D sky130_fd_sc_hd__o2111a_1
*I *536:X O *D sky130_fd_sc_hd__a221o_1
*CAP
1 *546:C1 0.000982252
2 *536:X 0.000982252
3 *546:C1 *521:A 0.000267807
4 *546:C1 *544:A2 5.62934e-05
5 *546:C1 *546:D1 5.33005e-05
6 *546:C1 *547:D 0.000148911
7 *546:C1 *556:A1 0
8 *546:C1 *594:CLK 7.252e-05
9 *546:C1 *634:A 0.000197977
10 *546:C1 *636:A 0.000123288
11 *546:C1 *47:12 0.000230475
12 *546:C1 *93:10 4.46186e-06
13 *546:C1 *93:25 7.05982e-05
14 *546:C1 *93:34 9.9784e-05
15 *546:C1 *97:98 4.78056e-05
16 *546:C1 *150:24 7.20161e-05
*RES
1 *536:X *546:C1 46.8143 
*END

*D_NET *45 0.000870209
*CONN
*I *538:C1 I *D sky130_fd_sc_hd__a221oi_1
*I *537:X O *D sky130_fd_sc_hd__xor2_1
*CAP
1 *538:C1 0.000338989
2 *537:X 0.000338989
3 *538:C1 *537:A 1.00375e-05
4 *538:C1 *537:B 5.80706e-06
5 *538:C1 *538:B2 0.000147474
6 *538:C1 *680:A 0
7 *538:C1 *92:29 2.89114e-05
8 *538:C1 *92:31 0
9 *538:C1 *92:97 0
10 *538:C1 *148:37 0
*RES
1 *537:X *538:C1 33.4214 
*END

*D_NET *46 0.000734833
*CONN
*I *539:C1 I *D sky130_fd_sc_hd__o221a_1
*I *538:Y O *D sky130_fd_sc_hd__a221oi_1
*CAP
1 *539:C1 0.000118784
2 *538:Y 0.000118784
3 *539:C1 *538:A2 3.6759e-05
4 *539:C1 *538:B1 0.000139907
5 *539:C1 *140:14 1.32552e-05
6 *539:C1 *147:40 0.000307343
*RES
1 *538:Y *539:C1 22.3232 
*END

*D_NET *47 0.00513763
*CONN
*I *547:A_N I *D sky130_fd_sc_hd__and4b_1
*I *539:X O *D sky130_fd_sc_hd__o221a_1
*CAP
1 *547:A_N 0
2 *539:X 0.00159417
3 *47:12 0.00159417
4 *47:12 *521:A 0
5 *47:12 *534:B 9.7659e-05
6 *47:12 *540:B 0
7 *47:12 *544:A2 5.30637e-06
8 *47:12 *556:A1 6.09572e-05
9 *47:12 *620:A 0.000207411
10 *47:12 *652:A 4.48206e-05
11 *47:12 *60:12 0.000614445
12 *47:12 *91:10 0
13 *47:12 *97:98 3.93986e-05
14 *47:12 *156:24 0.000271352
15 *47:12 *156:28 2.24763e-05
16 *536:B1 *47:12 0.000355002
17 *546:C1 *47:12 0.000230475
*RES
1 *539:X *47:12 49.8 
2 *47:12 *547:A_N 9.3 
*END

*D_NET *48 0.00156555
*CONN
*I *544:C1 I *D sky130_fd_sc_hd__a211o_1
*I *540:X O *D sky130_fd_sc_hd__xor2_1
*CAP
1 *544:C1 0.000442137
2 *540:X 0.000442137
3 *544:C1 *520:A 4.62969e-05
4 *544:C1 *544:A2 0.000144773
5 *544:C1 *544:B1 0.000142856
6 *544:C1 *546:D1 0
7 *544:C1 *93:10 4.15914e-05
8 *544:C1 *93:25 3.92757e-05
9 *544:C1 *97:98 0.000266486
*RES
1 *540:X *544:C1 35.1357 
*END

*D_NET *49 0.000606091
*CONN
*I *544:A1 I *D sky130_fd_sc_hd__a211o_1
*I *541:Y O *D sky130_fd_sc_hd__nand2_1
*CAP
1 *544:A1 0.000244464
2 *541:Y 0.000244464
3 *544:A1 *541:B 7.77652e-05
4 *544:A1 *93:10 0
5 *544:A1 *149:39 3.93986e-05
*RES
1 *541:Y *544:A1 31.0107 
*END

*D_NET *50 0.00139639
*CONN
*I *544:A2 I *D sky130_fd_sc_hd__a211o_1
*I *542:X O *D sky130_fd_sc_hd__or2_1
*CAP
1 *544:A2 0.000174613
2 *542:X 0.000174613
3 *544:A2 *544:B1 7.43355e-05
4 *544:A2 *546:D1 5.17614e-05
5 *544:A2 *592:CLK 1.21289e-05
6 *544:A2 *156:28 0.000702563
7 *544:C1 *544:A2 0.000144773
8 *546:C1 *544:A2 5.62934e-05
9 *47:12 *544:A2 5.30637e-06
*RES
1 *542:X *544:A2 25.725 
*END

*D_NET *51 0.00062314
*CONN
*I *544:B1 I *D sky130_fd_sc_hd__a211o_1
*I *543:X O *D sky130_fd_sc_hd__xor2_1
*CAP
1 *544:B1 6.72985e-05
2 *543:X 6.72985e-05
3 *544:B1 *592:CLK 0.000271352
4 *544:A2 *544:B1 7.43355e-05
5 *544:C1 *544:B1 0.000142856
*RES
1 *543:X *544:B1 21.6179 
*END

*D_NET *52 0.00351957
*CONN
*I *546:D1 I *D sky130_fd_sc_hd__o2111a_1
*I *544:X O *D sky130_fd_sc_hd__a211o_1
*CAP
1 *546:D1 0.00089121
2 *544:X 0.00089121
3 *546:D1 *518:A2 3.25247e-05
4 *546:D1 *524:A2 0.000287842
5 *546:D1 *524:B1 0
6 *546:D1 *524:B2 0.000319144
7 *546:D1 *545:A3 0.000148189
8 *546:D1 *546:B1 0.000307336
9 *546:D1 *547:C 1.24368e-05
10 *546:D1 *557:S 5.28778e-05
11 *546:D1 *582:A1 0
12 *546:D1 *592:CLK 0.000184745
13 *546:D1 *594:CLK 0
14 *546:D1 *634:A 0
15 *546:D1 *87:20 0.000117388
16 *546:D1 *93:25 0
17 *546:D1 *93:34 0
18 *546:D1 *150:24 8.02593e-05
19 *546:D1 *156:28 3.14078e-05
20 *546:D1 *171:10 5.7936e-05
21 *544:A2 *546:D1 5.17614e-05
22 *544:C1 *546:D1 0
23 *546:C1 *546:D1 5.33005e-05
*RES
1 *544:X *546:D1 48.3679 
*END

*D_NET *53 0.000520158
*CONN
*I *547:B I *D sky130_fd_sc_hd__and4b_1
*I *545:X O *D sky130_fd_sc_hd__o311a_1
*CAP
1 *547:B 4.35391e-05
2 *545:X 4.35391e-05
3 *547:B *515:A 2.28598e-05
4 *547:B *545:A1 0.000226507
5 *547:B *150:43 0.000183713
*RES
1 *545:X *547:B 20.7786 
*END

*D_NET *54 0.000419183
*CONN
*I *547:C I *D sky130_fd_sc_hd__and4b_1
*I *546:X O *D sky130_fd_sc_hd__o2111a_1
*CAP
1 *547:C 0.000164194
2 *546:X 0.000164194
3 *547:C *547:D 7.83587e-05
4 *547:C *556:A1 0
5 *546:D1 *547:C 1.24368e-05
*RES
1 *546:X *547:C 29.9929 
*END

*D_NET *55 0.00285833
*CONN
*I *636:A I *D sky130_fd_sc_hd__buf_2
*I *547:X O *D sky130_fd_sc_hd__and4b_1
*CAP
1 *636:A 0.000551165
2 *547:X 0.000551165
3 *636:A *546:A1 0.000494045
4 *636:A *547:D 0.000430439
5 *636:A *553:S 0.000148903
6 *636:A *588:D 0
7 *636:A *150:12 3.69047e-06
8 *636:A *150:24 0.000149904
9 *636:A *157:42 0.000405733
10 *546:C1 *636:A 0.000123288
*RES
1 *547:X *636:A 45.5107 
*END

*D_NET *56 0.00099228
*CONN
*I *578:B I *D sky130_fd_sc_hd__and2b_1
*I *576:A I *D sky130_fd_sc_hd__and2_1
*I *574:Y O *D sky130_fd_sc_hd__o21ai_1
*CAP
1 *578:B 0.000304473
2 *576:A 0
3 *574:Y 7.27817e-05
4 *56:8 0.000377254
5 *578:B *576:B 5.80706e-06
6 *578:B *579:A 1.74352e-05
7 *578:B *579:B 2.89114e-05
8 *578:B *58:12 0
9 *578:B *151:20 0
10 *56:8 *576:B 8.06427e-05
11 *56:8 *96:10 0.000104974
12 *611:D *578:B 0
13 *676:A *56:8 0
14 *678:A *578:B 0
*RES
1 *574:Y *56:8 15.7464 
2 *56:8 *576:A 13.8 
3 *56:8 *578:B 19.1214 
*END

*D_NET *57 0.000265074
*CONN
*I *576:B I *D sky130_fd_sc_hd__and2_1
*I *575:X O *D sky130_fd_sc_hd__or3_1
*CAP
1 *576:B 6.18831e-05
2 *575:X 6.18831e-05
3 *576:B *151:20 5.48581e-05
4 *578:B *576:B 5.80706e-06
5 *56:8 *576:B 8.06427e-05
*RES
1 *575:X *576:B 29.5464 
*END

*D_NET *58 0.0016258
*CONN
*I *580:B I *D sky130_fd_sc_hd__xor2_1
*I *579:A I *D sky130_fd_sc_hd__nor2_1
*I *577:X O *D sky130_fd_sc_hd__o211a_1
*CAP
1 *580:B 4.51766e-05
2 *579:A 0.000219781
3 *577:X 0.000273639
4 *58:12 0.000538598
5 *579:A *578:A_N 6.05161e-06
6 *579:A *579:B 7.48444e-05
7 *580:B *578:A_N 5.03772e-05
8 *58:12 *577:A1 2.84494e-05
9 *58:12 *577:A2 5.33005e-05
10 *58:12 *151:20 7.90803e-05
11 *58:12 *152:18 8.47155e-05
12 *578:B *579:A 1.74352e-05
13 *578:B *58:12 0
14 *611:D *58:12 5.33882e-05
15 *612:D *579:A 0.00010096
*RES
1 *577:X *58:12 24.1214 
2 *58:12 *579:A 13.9964 
3 *58:12 *580:B 10.2464 
*END

*D_NET *59 0.000155572
*CONN
*I *579:B I *D sky130_fd_sc_hd__nor2_1
*I *578:X O *D sky130_fd_sc_hd__and2b_1
*CAP
1 *579:B 2.59079e-05
2 *578:X 2.59079e-05
3 *578:B *579:B 2.89114e-05
4 *579:A *579:B 7.48444e-05
*RES
1 *578:X *579:B 19.5643 
*END

*D_NET *60 0.00234159
*CONN
*I *539:A2 I *D sky130_fd_sc_hd__o221a_1
*I *538:A2 I *D sky130_fd_sc_hd__a221oi_1
*I *503:Y O *D sky130_fd_sc_hd__inv_2
*CAP
1 *539:A2 0
2 *538:A2 0.000139217
3 *503:Y 0.000321228
4 *60:12 0.000460446
5 *538:A2 *140:14 0.000300158
6 *538:A2 *147:40 1.65169e-05
7 *60:12 *530:C1 0.000150625
8 *60:12 *539:A1 5.52302e-05
9 *60:12 *620:A 0.00023668
10 *60:12 *140:14 1.02821e-05
11 *60:12 *148:91 0
12 *539:C1 *538:A2 3.6759e-05
13 *47:12 *60:12 0.000614445
*RES
1 *503:Y *60:12 27.7643 
2 *60:12 *538:A2 13.05 
3 *60:12 *539:A2 9.3 
*END

*D_NET *61 0.00133411
*CONN
*I *539:B2 I *D sky130_fd_sc_hd__o221a_1
*I *538:B2 I *D sky130_fd_sc_hd__a221oi_1
*I *504:Y O *D sky130_fd_sc_hd__inv_2
*CAP
1 *539:B2 7.73167e-05
2 *538:B2 0.000405476
3 *504:Y 0
4 *61:4 0.000482793
5 *538:B2 *573:A1 3.32631e-05
6 *538:B2 *680:A 9.69522e-05
7 *539:B2 *573:A1 3.25078e-05
8 *539:B2 *100:59 0
9 *539:B2 *147:40 5.83233e-05
10 *538:C1 *538:B2 0.000147474
*RES
1 *504:Y *61:4 9.3 
2 *61:4 *538:B2 24.0679 
3 *61:4 *539:B2 19.9429 
*END

*D_NET *62 0.000837836
*CONN
*I *545:A1 I *D sky130_fd_sc_hd__o311a_1
*I *505:X O *D sky130_fd_sc_hd__xor2_1
*CAP
1 *545:A1 0.000211146
2 *505:X 0.000211146
3 *545:A1 *515:A 3.48705e-05
4 *545:A1 *547:D 2.524e-05
5 *545:A1 *150:43 0.000128926
6 *547:B *545:A1 0.000226507
*RES
1 *505:X *545:A1 23.6714 
*END

*D_NET *63 0.00198059
*CONN
*I *545:A2 I *D sky130_fd_sc_hd__o311a_1
*I *506:X O *D sky130_fd_sc_hd__xor2_1
*CAP
1 *545:A2 0.000397527
2 *506:X 0.000397527
3 *545:A2 *506:A 0
4 *545:A2 *515:A 2.47724e-05
5 *545:A2 *516:B 0.000334331
6 *545:A2 *518:A2 0.000223564
7 *545:A2 *545:B1 0.000180004
8 *545:A2 *583:S 0.000255055
9 *545:A2 *98:92 9.11365e-06
10 *545:A2 *149:20 9.60939e-05
11 *545:A2 *171:16 6.25993e-05
*RES
1 *506:X *545:A2 38.2071 
*END

*D_NET *64 0.00106605
*CONN
*I *545:A3 I *D sky130_fd_sc_hd__o311a_1
*I *507:X O *D sky130_fd_sc_hd__xor2_1
*CAP
1 *545:A3 0.000347375
2 *507:X 0.000347375
3 *545:A3 *518:A2 0
4 *545:A3 *546:A1 3.93893e-05
5 *545:A3 *582:A1 0
6 *545:A3 *98:88 0.00018372
7 *545:A3 *150:24 0
8 *546:D1 *545:A3 0.000148189
*RES
1 *507:X *545:A3 33.4393 
*END

*D_NET *65 0.000567795
*CONN
*I *513:A1 I *D sky130_fd_sc_hd__a22o_1
*I *508:X O *D sky130_fd_sc_hd__or2_1
*CAP
1 *513:A1 0.000205775
2 *508:X 0.000205775
3 *513:A1 *513:A2 0.000106498
4 *513:A1 *554:S 3.57163e-05
5 *513:A1 *98:120 1.40306e-05
*RES
1 *508:X *513:A1 31.9036 
*END

*D_NET *66 0.00123402
*CONN
*I *513:A2 I *D sky130_fd_sc_hd__a22o_1
*I *509:Y O *D sky130_fd_sc_hd__nand2_1
*CAP
1 *513:A2 0.000291541
2 *509:Y 0.000291541
3 *513:A2 *506:A 1.02504e-05
4 *513:A2 *509:A 1.58163e-05
5 *513:A2 *509:B 1.15281e-05
6 *513:A2 *513:B1 5.71472e-05
7 *513:A2 *555:S 0.000144773
8 *513:A2 *98:120 0
9 *513:A2 *157:44 0.000304929
10 *513:A1 *513:A2 0.000106498
*RES
1 *509:Y *513:A2 34.5107 
*END

*D_NET *67 0.00209811
*CONN
*I *546:A1 I *D sky130_fd_sc_hd__o2111a_1
*I *510:X O *D sky130_fd_sc_hd__xor2_1
*CAP
1 *546:A1 0.000691964
2 *510:X 0.000691964
3 *546:A1 *150:12 0
4 *546:A1 *150:24 1.02504e-05
5 *546:A1 *157:42 4.3049e-05
6 *545:A3 *546:A1 3.93893e-05
7 *636:A *546:A1 0.000494045
8 *641:A *546:A1 0.000127446
*RES
1 *510:X *546:A1 41.5464 
*END

*D_NET *68 0.000309316
*CONN
*I *513:B1 I *D sky130_fd_sc_hd__a22o_1
*I *511:Y O *D sky130_fd_sc_hd__nand2_1
*CAP
1 *513:B1 9.41391e-05
2 *511:Y 9.41391e-05
3 *513:B1 *513:B2 5.17614e-05
4 *513:B1 *555:S 1.21289e-05
5 *513:A2 *513:B1 5.71472e-05
*RES
1 *511:Y *513:B1 20.3679 
*END

*D_NET *69 0.00152325
*CONN
*I *513:B2 I *D sky130_fd_sc_hd__a22o_1
*I *512:X O *D sky130_fd_sc_hd__or2_1
*CAP
1 *513:B2 0.000477096
2 *512:X 0.000477096
3 *513:B2 *506:A 0
4 *513:B2 *511:B 0.000104673
5 *513:B2 *512:B 0
6 *513:B2 *555:A0 1.76135e-05
7 *513:B2 *555:S 0.000327505
8 *513:B2 *589:D 6.75007e-05
9 *513:B2 *589:RESET_B 0
10 *513:B2 *673:A 0
11 *513:B2 *157:44 0
12 *513:B1 *513:B2 5.17614e-05
13 *674:A *513:B2 0
*RES
1 *512:X *513:B2 38.1357 
*END

*D_NET *70 0.00218801
*CONN
*I *546:A2 I *D sky130_fd_sc_hd__o2111a_1
*I *513:X O *D sky130_fd_sc_hd__a22o_1
*CAP
1 *546:A2 0.000724429
2 *513:X 0.000724429
3 *546:A2 *506:A 0
4 *546:A2 *517:A 6.28241e-05
5 *546:A2 *518:B1 1.74795e-05
6 *546:A2 *98:92 3.92854e-05
7 *546:A2 *150:24 0.000356028
8 *546:A2 *150:97 0.00026353
*RES
1 *513:X *546:A2 37.3857 
*END

*D_NET *71 0.00199064
*CONN
*I *518:B1 I *D sky130_fd_sc_hd__a211o_1
*I *514:X O *D sky130_fd_sc_hd__xor2_1
*CAP
1 *518:B1 0.000540527
2 *514:X 0.000540527
3 *518:B1 *514:A 9.90431e-05
4 *518:B1 *516:B 0.000146474
5 *518:B1 *517:A 0.00018372
6 *518:B1 *518:A1 0.000375798
7 *518:B1 *524:A1 0
8 *518:B1 *545:B1 0
9 *518:B1 *591:D 2.89114e-05
10 *518:B1 *617:D 0
11 *518:B1 *617:RESET_B 0
12 *518:B1 *635:A 3.99614e-06
13 *518:B1 *149:20 0
14 *518:B1 *150:97 5.41609e-05
15 *546:A2 *518:B1 1.74795e-05
*RES
1 *514:X *518:B1 39.9036 
*END

*D_NET *72 0.000674074
*CONN
*I *518:C1 I *D sky130_fd_sc_hd__a211o_1
*I *515:X O *D sky130_fd_sc_hd__xor2_1
*CAP
1 *518:C1 0.000166159
2 *515:X 0.000166159
3 *518:C1 *515:A 0.000149904
4 *518:C1 *517:A 4.1331e-06
5 *518:C1 *555:S 4.78056e-05
6 *518:C1 *98:88 0.000139913
7 *518:C1 *149:10 0
*RES
1 *515:X *518:C1 30.9036 
*END

*D_NET *73 0.00107503
*CONN
*I *518:A1 I *D sky130_fd_sc_hd__a211o_1
*I *516:Y O *D sky130_fd_sc_hd__nand2_1
*CAP
1 *518:A1 0.000338855
2 *516:Y 0.000338855
3 *518:A1 *150:97 2.15245e-05
4 *518:B1 *518:A1 0.000375798
*RES
1 *516:Y *518:A1 23.5643 
*END

*D_NET *74 0.000818952
*CONN
*I *518:A2 I *D sky130_fd_sc_hd__a211o_1
*I *517:X O *D sky130_fd_sc_hd__or2_1
*CAP
1 *518:A2 0.000217355
2 *517:X 0.000217355
3 *518:A2 *582:A1 0.000128154
4 *545:A2 *518:A2 0.000223564
5 *545:A3 *518:A2 0
6 *546:D1 *518:A2 3.25247e-05
*RES
1 *517:X *518:A2 31.4214 
*END

*D_NET *75 0.000831975
*CONN
*I *546:B1 I *D sky130_fd_sc_hd__o2111a_1
*I *518:X O *D sky130_fd_sc_hd__a211o_1
*CAP
1 *546:B1 0.000256555
2 *518:X 0.000256555
3 *546:B1 *150:24 1.15281e-05
4 *546:D1 *546:B1 0.000307336
*RES
1 *518:X *546:B1 22.0107 
*END

*D_NET *76 0.00120512
*CONN
*I *524:A1 I *D sky130_fd_sc_hd__a221o_1
*I *519:X O *D sky130_fd_sc_hd__or2_1
*CAP
1 *524:A1 0.0003563
2 *519:X 0.0003563
3 *524:A1 *514:A 0.00014873
4 *524:A1 *524:A2 2.32093e-05
5 *524:A1 *524:B1 3.69047e-06
6 *524:A1 *591:D 0
7 *524:A1 *617:RESET_B 0
8 *524:A1 *149:20 0
9 *518:B1 *524:A1 0
10 *658:A *524:A1 0.000316887
*RES
1 *519:X *524:A1 34.8679 
*END

*D_NET *77 0.001325
*CONN
*I *524:A2 I *D sky130_fd_sc_hd__a221o_1
*I *520:Y O *D sky130_fd_sc_hd__nand2_1
*CAP
1 *524:A2 0.00045362
2 *520:Y 0.00045362
3 *524:A2 *524:B1 8.70733e-05
4 *524:A2 *524:B2 3.82227e-06
5 *524:A2 *524:C1 1.58163e-05
6 *524:A2 *594:CLK 0
7 *524:A2 *93:34 0
8 *524:A1 *524:A2 2.32093e-05
9 *546:D1 *524:A2 0.000287842
*RES
1 *520:Y *524:A2 35.1402 
*END

*D_NET *78 0.000279861
*CONN
*I *524:C1 I *D sky130_fd_sc_hd__a221o_1
*I *521:X O *D sky130_fd_sc_hd__xor2_1
*CAP
1 *524:C1 0.000132022
2 *521:X 0.000132022
3 *524:C1 *521:A 0
4 *524:C1 *521:B 0
5 *524:C1 *524:B1 0
6 *524:A2 *524:C1 1.58163e-05
*RES
1 *521:X *524:C1 20.7964 
*END

*D_NET *79 0.00141278
*CONN
*I *524:B1 I *D sky130_fd_sc_hd__a221o_1
*I *522:X O *D sky130_fd_sc_hd__or2_1
*CAP
1 *524:B1 0.000332975
2 *522:X 0.000332975
3 *524:B1 *524:B2 4.75428e-05
4 *524:B1 *557:A0 7.83659e-05
5 *524:B1 *557:S 0.00012501
6 *524:B1 *592:CLK 5.71472e-05
7 *524:B1 *617:CLK 0.000146474
8 *524:B1 *149:20 0.000129733
9 *524:B1 *149:24 7.17932e-05
10 *524:A1 *524:B1 3.69047e-06
11 *524:A2 *524:B1 8.70733e-05
12 *524:C1 *524:B1 0
13 *546:D1 *524:B1 0
*RES
1 *522:X *524:B1 35.6 
*END

*D_NET *80 0.00131734
*CONN
*I *524:B2 I *D sky130_fd_sc_hd__a221o_1
*I *523:Y O *D sky130_fd_sc_hd__nand2_1
*CAP
1 *524:B2 0.000298027
2 *523:Y 0.000298027
3 *524:B2 *520:A 0.00010096
4 *524:B2 *520:B 5.52302e-05
5 *524:B2 *523:B 2.07382e-05
6 *524:B2 *617:CLK 2.49484e-05
7 *524:B2 *171:10 0.000148903
8 *524:A2 *524:B2 3.82227e-06
9 *524:B1 *524:B2 4.75428e-05
10 *546:D1 *524:B2 0.000319144
*RES
1 *523:Y *524:B2 34.283 
*END

*D_NET *81 0.00138313
*CONN
*I *545:B1 I *D sky130_fd_sc_hd__o311a_1
*I *524:X O *D sky130_fd_sc_hd__a221o_1
*CAP
1 *545:B1 0.000299327
2 *524:X 0.000299327
3 *545:B1 *515:A 6.42095e-05
4 *545:B1 *149:20 0.000317602
5 *545:B1 *171:16 0.00022266
6 *518:B1 *545:B1 0
7 *545:A2 *545:B1 0.000180004
*RES
1 *524:X *545:B1 35.5107 
*END

*D_NET *82 0.0021834
*CONN
*I *530:C1 I *D sky130_fd_sc_hd__a221o_1
*I *525:X O *D sky130_fd_sc_hd__xor2_1
*CAP
1 *530:C1 0.000720411
2 *525:X 0.000720411
3 *530:C1 *525:B 2.82217e-05
4 *530:C1 *530:B1 0.000454826
5 *530:C1 *530:B2 1.39983e-05
6 *530:C1 *565:A1 0
7 *530:C1 *569:A1 0
8 *530:C1 *597:CLK 0
9 *530:C1 *600:D 0
10 *530:C1 *92:8 0
11 *530:C1 *98:42 5.49489e-05
12 *530:C1 *100:75 2.16394e-05
13 *530:C1 *148:35 0
14 *530:C1 *148:91 0
15 *530:C1 *158:12 1.83203e-05
16 *530:C1 *160:32 0
17 *60:12 *530:C1 0.000150625
*RES
1 *525:X *530:C1 41.475 
*END

*D_NET *83 0.000999676
*CONN
*I *530:A1 I *D sky130_fd_sc_hd__a221o_1
*I *526:X O *D sky130_fd_sc_hd__or2_1
*CAP
1 *530:A1 0.000379445
2 *526:X 0.000379445
3 *530:A1 *526:B 5.9232e-05
4 *530:A1 *530:A2 0.000123155
5 *530:A1 *530:B2 1.24368e-05
6 *530:A1 *87:20 1.79279e-05
7 *530:A1 *158:12 2.8035e-05
*RES
1 *526:X *530:A1 24.2071 
*END

*D_NET *84 0.000374667
*CONN
*I *530:A2 I *D sky130_fd_sc_hd__a221o_1
*I *527:Y O *D sky130_fd_sc_hd__nand2_1
*CAP
1 *530:A2 4.83923e-05
2 *527:Y 4.83923e-05
3 *530:A2 *530:B2 1.17091e-05
4 *530:A2 *158:12 0.000143018
5 *530:A1 *530:A2 0.000123155
*RES
1 *527:Y *530:A2 20.7161 
*END

*D_NET *85 0.00132344
*CONN
*I *530:B1 I *D sky130_fd_sc_hd__a221o_1
*I *528:X O *D sky130_fd_sc_hd__or2_1
*CAP
1 *530:B1 0.000210946
2 *528:X 0.000210946
3 *530:B1 *530:B2 0.000389854
4 *530:B1 *597:CLK 0
5 *530:B1 *627:A 0
6 *530:B1 *92:12 5.68713e-05
7 *530:C1 *530:B1 0.000454826
*RES
1 *528:X *530:B1 34.3321 
*END

*D_NET *86 0.00185493
*CONN
*I *530:B2 I *D sky130_fd_sc_hd__a221o_1
*I *529:Y O *D sky130_fd_sc_hd__nand2_1
*CAP
1 *530:B2 0.000566056
2 *529:Y 0.000566056
3 *530:B2 *565:A0 0.000136676
4 *530:B2 *565:A1 8.55416e-05
5 *530:B2 *565:S 9.7413e-06
6 *530:B2 *158:12 6.2862e-05
7 *530:A1 *530:B2 1.24368e-05
8 *530:A2 *530:B2 1.17091e-05
9 *530:B1 *530:B2 0.000389854
10 *530:C1 *530:B2 1.39983e-05
*RES
1 *529:Y *530:B2 38.5464 
*END

*D_NET *87 0.00387359
*CONN
*I *545:C1 I *D sky130_fd_sc_hd__o311a_1
*I *530:X O *D sky130_fd_sc_hd__a221o_1
*CAP
1 *545:C1 0
2 *530:X 0.00140603
3 *87:20 0.00140603
4 *87:20 *526:B 3.14078e-05
5 *87:20 *559:A0 9.59205e-05
6 *87:20 *559:S 2.89016e-05
7 *87:20 *582:A1 3.05164e-05
8 *87:20 *634:A 5.52302e-05
9 *87:20 *148:6 0.000370109
10 *87:20 *158:12 0.000138606
11 *87:20 *171:10 0.000175519
12 *530:A1 *87:20 1.79279e-05
13 *546:D1 *87:20 0.000117388
*RES
1 *530:X *87:20 41.7821 
2 *87:20 *545:C1 9.3 
*END

*D_NET *88 0.000430035
*CONN
*I *536:A1 I *D sky130_fd_sc_hd__a221o_1
*I *531:X O *D sky130_fd_sc_hd__or2_1
*CAP
1 *536:A1 0.000128229
2 *531:X 0.000128229
3 *536:A1 *531:B 5.71472e-05
4 *536:A1 *536:A2 0.000100831
5 *536:A1 *97:68 0
6 *536:A1 *97:72 1.56e-05
*RES
1 *531:X *536:A1 29.8857 
*END

*D_NET *89 0.000368426
*CONN
*I *536:A2 I *D sky130_fd_sc_hd__a221o_1
*I *532:Y O *D sky130_fd_sc_hd__nand2_1
*CAP
1 *536:A2 6.00406e-05
2 *532:Y 6.00406e-05
3 *536:A2 *620:A 7.13226e-06
4 *536:A2 *621:A 7.83587e-05
5 *536:A2 *91:10 4.73656e-05
6 *536:A2 *156:24 1.46576e-05
7 *536:A1 *536:A2 0.000100831
*RES
1 *532:Y *536:A2 29.3902 
*END

*D_NET *90 0.00086281
*CONN
*I *536:C1 I *D sky130_fd_sc_hd__a221o_1
*I *533:X O *D sky130_fd_sc_hd__xor2_1
*CAP
1 *536:C1 0.000254024
2 *533:X 0.000254024
3 *536:C1 *534:A 1.02504e-05
4 *536:C1 *620:A 0.000140933
5 *536:C1 *97:68 6.26466e-05
6 *536:C1 *101:66 0
7 *536:C1 *163:25 0
8 *536:B1 *536:C1 0.000140933
*RES
1 *533:X *536:C1 33.2786 
*END

*D_NET *91 0.00984166
*CONN
*I *622:A I *D sky130_fd_sc_hd__clkbuf_16
*I *623:A I *D sky130_fd_sc_hd__clkbuf_16
*I *620:A I *D sky130_fd_sc_hd__clkbuf_16
*I *621:A I *D sky130_fd_sc_hd__clkbuf_16
*I *619:X O *D sky130_fd_sc_hd__clkbuf_16
*CAP
1 *622:A 0.00031538
2 *623:A 6.47017e-05
3 *620:A 0.000916889
4 *621:A 0.000139323
5 *619:X 5.54804e-05
6 *91:36 0.000656636
7 *91:10 0.00168279
8 *91:8 0.00095861
9 *620:A *534:B 0.000185643
10 *620:A *156:24 2.35926e-05
11 *621:A *541:B 9.90431e-05
12 *621:A *542:B 5.10822e-05
13 *621:A *97:68 0
14 *621:A *97:85 4.72818e-05
15 *622:A *510:A 0.000243627
16 *622:A *510:B 0.000184745
17 *622:A *670:A 0
18 *622:A *98:75 0.000400145
19 *622:A *157:42 0.00083311
20 *623:A *103:32 0.00014285
21 *91:10 *510:A 0.00012401
22 *91:10 *540:B 0.000103275
23 *91:10 *542:B 1.76135e-05
24 *91:10 *543:B 0
25 *91:10 *556:A1 0
26 *91:10 *156:16 0.000445981
27 *91:10 *156:24 0.000115072
28 *91:36 *510:A 0.000794358
29 *91:36 *510:B 0
30 *91:36 *587:D 0.000175512
31 *91:36 *156:16 0.000236041
32 *536:A2 *620:A 7.13226e-06
33 *536:A2 *621:A 7.83587e-05
34 *536:A2 *91:10 4.73656e-05
35 *536:B1 *620:A 9.73868e-05
36 *536:B2 *620:A 1.35999e-05
37 *536:C1 *620:A 0.000140933
38 *47:12 *620:A 0.000207411
39 *47:12 *91:10 0
40 *60:12 *620:A 0.00023668
*RES
1 *619:X *91:8 14.3357 
2 *91:8 *91:10 14.6964 
3 *91:10 *621:A 16.9071 
4 *91:10 *620:A 30.0857 
5 *91:8 *91:36 10.1429 
6 *91:36 *623:A 15.1571 
7 *91:36 *622:A 25.7107 
*END

*D_NET *92 0.0109318
*CONN
*I *597:CLK I *D sky130_fd_sc_hd__dfrtp_1
*I *600:CLK I *D sky130_fd_sc_hd__dfrtp_1
*I *604:CLK I *D sky130_fd_sc_hd__dfrtp_1
*I *607:CLK I *D sky130_fd_sc_hd__dfrtp_1
*I *608:CLK I *D sky130_fd_sc_hd__dfrtp_1
*I *605:CLK I *D sky130_fd_sc_hd__dfrtp_1
*I *602:CLK I *D sky130_fd_sc_hd__dfrtp_1
*I *601:CLK I *D sky130_fd_sc_hd__dfrtp_1
*I *606:CLK I *D sky130_fd_sc_hd__dfrtp_1
*I *609:CLK I *D sky130_fd_sc_hd__dfrtp_1
*I *624:A I *D sky130_fd_sc_hd__clkbuf_4
*I *620:X O *D sky130_fd_sc_hd__clkbuf_16
*CAP
1 *597:CLK 0.000140998
2 *600:CLK 9.24501e-05
3 *604:CLK 0.00024463
4 *607:CLK 0
5 *608:CLK 0
6 *605:CLK 0.000216391
7 *602:CLK 7.34778e-05
8 *601:CLK 0.00012192
9 *606:CLK 0
10 *609:CLK 0.000235324
11 *624:A 2.5843e-05
12 *620:X 0.000119563
13 *92:97 0.00038011
14 *92:59 0.000830046
15 *92:52 0.000749175
16 *92:46 0.000476328
17 *92:33 0.000637727
18 *92:31 0.000643051
19 *92:29 0.00122913
20 *92:23 0.000848734
21 *92:12 0.000419249
22 *92:8 0.000605279
23 *597:CLK *565:A0 4.10796e-05
24 *597:CLK *627:A 3.006e-05
25 *600:CLK *529:B 3.34366e-05
26 *600:CLK *565:A1 7.85767e-05
27 *600:CLK *600:D 1.18554e-05
28 *600:CLK *100:59 7.35981e-05
29 *601:CLK *160:14 0
30 *601:CLK *160:32 0
31 *602:CLK *602:D 2.59355e-05
32 *604:CLK *679:A 5.33005e-05
33 *605:CLK *573:A0 0.000229969
34 *605:CLK *573:A1 0.00018066
35 *624:A *97:16 5.71472e-05
36 *92:8 *528:A 2.16394e-05
37 *92:8 *627:A 1.00399e-05
38 *92:8 *148:91 5.85008e-05
39 *92:12 *528:B 0.000152836
40 *92:12 *600:D 5.52238e-05
41 *92:12 *97:16 0.000170385
42 *92:12 *148:35 1.34548e-05
43 *92:23 *529:B 0.000126446
44 *92:23 *100:59 4.57445e-05
45 *92:52 *573:S 0
46 *92:59 *606:RESET_B 2.51837e-05
47 *92:59 *160:8 5.41494e-05
48 *92:97 *537:A 0
49 num_to_send_o[0] *604:CLK 0.000129868
50 num_to_send_o[0] *92:97 0.000190051
51 num_to_send_o[2] *92:31 2.06178e-05
52 *530:B1 *597:CLK 0
53 *530:B1 *92:12 5.68713e-05
54 *530:C1 *597:CLK 0
55 *530:C1 *92:8 0
56 *538:C1 *92:29 2.89114e-05
57 *538:C1 *92:31 0
58 *538:C1 *92:97 0
59 *601:D *601:CLK 5.79582e-06
60 *606:D *92:59 7.77652e-05
61 *607:D *604:CLK 2.78729e-05
62 *608:D *92:33 0
63 *609:D *605:CLK 1.15281e-05
64 *609:D *609:CLK 0.00011191
65 *609:D *92:46 2.40379e-05
66 *609:D *92:52 6.74815e-05
67 *643:A *92:12 0.000224341
68 *665:A *601:CLK 8.84979e-05
69 *665:A *602:CLK 4.25176e-05
70 *665:A *92:59 0.000185118
*RES
1 *620:X *92:8 16.05 
2 *92:8 *92:12 11.6071 
3 *92:12 *624:A 9.83571 
4 *92:12 *92:23 6.14286 
5 *92:23 *92:29 19.3929 
6 *92:29 *92:31 6.80357 
7 *92:31 *92:33 4.67857 
8 *92:33 *609:CLK 19.0857 
9 *92:33 *92:46 6.67857 
10 *92:46 *92:52 11.8571 
11 *92:52 *606:CLK 9.3 
12 *92:52 *92:59 11.625 
13 *92:59 *601:CLK 20.8536 
14 *92:59 *602:CLK 10.6571 
15 *92:46 *605:CLK 14.4964 
16 *92:31 *608:CLK 13.8 
17 *92:29 *92:97 3.16071 
18 *92:97 *607:CLK 13.8 
19 *92:97 *604:CLK 18.5321 
20 *92:23 *600:CLK 16.6571 
21 *92:8 *597:CLK 16.5321 
*END

*D_NET *93 0.0111831
*CONN
*I *596:CLK I *D sky130_fd_sc_hd__dfrtp_1
*I *595:CLK I *D sky130_fd_sc_hd__dfrtp_1
*I *599:CLK I *D sky130_fd_sc_hd__dfrtp_1
*I *598:CLK I *D sky130_fd_sc_hd__dfrtp_1
*I *594:CLK I *D sky130_fd_sc_hd__dfrtp_1
*I *591:CLK I *D sky130_fd_sc_hd__dfrtp_1
*I *617:CLK I *D sky130_fd_sc_hd__dfrtp_1
*I *625:A I *D sky130_fd_sc_hd__clkinv_2
*I *592:CLK I *D sky130_fd_sc_hd__dfrtp_1
*I *621:X O *D sky130_fd_sc_hd__clkbuf_16
*CAP
1 *596:CLK 3.39709e-05
2 *595:CLK 0
3 *599:CLK 0
4 *598:CLK 0.000221927
5 *594:CLK 0.000674242
6 *591:CLK 0.000195324
7 *617:CLK 0.000497559
8 *625:A 0
9 *592:CLK 0.000515098
10 *621:X 0
11 *93:85 0.000542041
12 *93:81 0.000436191
13 *93:77 0.00040977
14 *93:38 0.000849581
15 *93:34 0.000944708
16 *93:25 0.00021229
17 *93:10 0.00102346
18 *93:4 0.000669564
19 *591:CLK *557:A0 0.000189852
20 *591:CLK *657:A 0.000319267
21 *592:CLK *519:A 7.20729e-05
22 *592:CLK *101:118 3.69047e-06
23 *592:CLK *156:28 2.15245e-05
24 *594:CLK *521:A 2.28598e-05
25 *594:CLK *521:B 0.00010946
26 *594:CLK *594:RESET_B 6.72353e-05
27 *594:CLK *100:85 2.24079e-05
28 *596:CLK *560:A0 3.67257e-05
29 *598:CLK *601:RESET_B 0
30 *598:CLK *664:A 0
31 *598:CLK *101:31 9.60939e-05
32 *598:CLK *162:12 6.97972e-05
33 *598:CLK *163:8 9.16074e-05
34 *617:CLK *149:20 8.08376e-05
35 *617:CLK *171:10 0.000320024
36 *93:10 *541:B 8.55687e-05
37 *93:10 *543:B 0
38 *93:10 *97:85 0
39 *93:10 *97:98 0
40 *93:38 *591:RESET_B 0.000390225
41 *93:38 *657:A 2.14658e-05
42 *93:38 *171:6 9.15291e-05
43 *93:77 *543:B 0
44 *93:77 *595:RESET_B 0
45 *93:77 *101:10 0
46 *93:77 *149:39 0
47 *93:77 *149:47 0
48 *93:81 *595:RESET_B 0
49 *93:81 *166:10 0
50 *93:85 *599:RESET_B 2.81497e-05
51 *93:85 *101:23 0.00025243
52 *93:85 *101:31 0.000125436
53 *93:85 *166:10 0.000202891
54 *524:A2 *594:CLK 0
55 *524:A2 *93:34 0
56 *524:B1 *592:CLK 5.71472e-05
57 *524:B1 *617:CLK 0.000146474
58 *524:B2 *617:CLK 2.49484e-05
59 *544:A1 *93:10 0
60 *544:A2 *592:CLK 1.21289e-05
61 *544:B1 *592:CLK 0.000271352
62 *544:C1 *93:10 4.15914e-05
63 *544:C1 *93:25 3.92757e-05
64 *546:C1 *594:CLK 7.252e-05
65 *546:C1 *93:10 4.46186e-06
66 *546:C1 *93:25 7.05982e-05
67 *546:C1 *93:34 9.9784e-05
68 *546:D1 *592:CLK 0.000184745
69 *546:D1 *594:CLK 0
70 *546:D1 *93:25 0
71 *546:D1 *93:34 0
72 *594:D *594:CLK 7.77751e-05
73 *595:D *596:CLK 3.18676e-05
74 *595:D *93:81 4.57538e-05
75 *596:D *93:77 0
76 *598:D *598:CLK 5.5782e-05
*RES
1 *621:X *93:4 9.3 
2 *93:4 *93:10 10.75 
3 *93:10 *592:CLK 23.4071 
4 *93:10 *93:25 1.94643 
5 *93:25 *625:A 13.8 
6 *93:25 *93:34 2.55357 
7 *93:34 *93:38 8.73214 
8 *93:38 *617:CLK 28.4429 
9 *93:38 *591:CLK 15.175 
10 *93:34 *594:CLK 25.8714 
11 *93:4 *93:77 8.875 
12 *93:77 *93:81 6.75 
13 *93:81 *93:85 9.17857 
14 *93:85 *598:CLK 23.55 
15 *93:85 *599:CLK 9.3 
16 *93:81 *595:CLK 9.3 
17 *93:77 *596:CLK 14.7464 
*END

*D_NET *94 0.00971922
*CONN
*I *593:CLK I *D sky130_fd_sc_hd__dfrtp_1
*I *603:CLK I *D sky130_fd_sc_hd__dfrtp_1
*I *613:CLK I *D sky130_fd_sc_hd__dfrtp_1
*I *612:CLK I *D sky130_fd_sc_hd__dfrtp_1
*I *586:CLK I *D sky130_fd_sc_hd__dfrtp_2
*I *585:CLK I *D sky130_fd_sc_hd__dfrtp_1
*I *590:CLK I *D sky130_fd_sc_hd__dfrtp_1
*I *615:CLK I *D sky130_fd_sc_hd__dfrtp_1
*I *584:CLK I *D sky130_fd_sc_hd__dfrtp_1
*I *614:CLK I *D sky130_fd_sc_hd__dfrtp_1
*I *611:CLK I *D sky130_fd_sc_hd__dfrtp_1
*I *622:X O *D sky130_fd_sc_hd__clkbuf_16
*CAP
1 *593:CLK 0
2 *603:CLK 0.000353141
3 *613:CLK 0.000169308
4 *612:CLK 0.00027952
5 *586:CLK 0
6 *585:CLK 3.72704e-05
7 *590:CLK 9.80206e-05
8 *615:CLK 0.000226342
9 *584:CLK 0
10 *614:CLK 0.000363296
11 *611:CLK 0.000197351
12 *622:X 0.000242367
13 *94:105 0.000723017
14 *94:103 0.000790855
15 *94:92 0.000315125
16 *94:51 0.00055085
17 *94:40 0.000446263
18 *94:31 0.000680122
19 *94:27 0.000466082
20 *94:16 0.000741002
21 *94:14 0.000605856
22 *603:CLK *659:A 9.83388e-05
23 *611:CLK *118:8 0.000261178
24 *612:CLK *152:10 1.92905e-05
25 *94:14 *666:A 1.21258e-05
26 *94:14 *98:75 1.28239e-05
27 *94:14 *118:18 7.03295e-05
28 *94:14 *118:24 9.76123e-05
29 *94:16 *611:RESET_B 0.000133233
30 *94:16 *118:8 0.000102207
31 *94:16 *118:18 0.000120587
32 *94:27 *551:A1 0
33 *94:27 *577:A1 1.27784e-05
34 *94:27 *98:10 8.15095e-05
35 *94:27 *98:16 0.000142797
36 *94:27 *98:75 0.00012401
37 *94:27 *103:42 0
38 *94:27 *118:18 0
39 *94:27 *152:18 0.000200413
40 *94:27 *154:12 0
41 *94:31 *98:16 0.000202842
42 *94:31 *154:12 0
43 *94:40 *614:RESET_B 0.000248036
44 *94:51 *614:RESET_B 7.87768e-05
45 *94:92 *103:56 0
46 *94:103 *659:A 0
47 *94:103 *103:56 0
48 *94:105 *612:RESET_B 0.000178527
49 *94:105 *106:14 8.55687e-05
50 *94:105 *152:10 6.4433e-05
51 *584:D *94:51 5.71124e-05
52 *585:D *94:27 0
53 *611:D *611:CLK 2.89016e-05
54 *613:D *613:CLK 0
*RES
1 *622:X *94:14 22.55 
2 *94:14 *94:16 5.05357 
3 *94:16 *611:CLK 13.9429 
4 *94:16 *94:27 11.9107 
5 *94:27 *94:31 7.05357 
6 *94:31 *614:CLK 15.175 
7 *94:31 *94:40 5.05357 
8 *94:40 *584:CLK 9.3 
9 *94:40 *94:51 8.82143 
10 *94:51 *615:CLK 18.2107 
11 *94:51 *590:CLK 15.1571 
12 *94:27 *585:CLK 14.3357 
13 *94:14 *94:92 7.05357 
14 *94:92 *586:CLK 13.8 
15 *94:92 *94:103 7.05357 
16 *94:103 *94:105 5.875 
17 *94:105 *612:CLK 13.9429 
18 *94:105 *613:CLK 21.0857 
19 *94:103 *603:CLK 15.175 
20 *94:14 *593:CLK 9.3 
*END

*D_NET *95 0.0078074
*CONN
*I *588:CLK I *D sky130_fd_sc_hd__dfrtp_1
*I *616:CLK I *D sky130_fd_sc_hd__dfrtp_1
*I *589:CLK I *D sky130_fd_sc_hd__dfrtp_1
*I *626:A I *D sky130_fd_sc_hd__clkinvlp_4
*I *587:CLK I *D sky130_fd_sc_hd__dfrtp_1
*I *618:CLK I *D sky130_fd_sc_hd__dfrtp_1
*I *610:CLK I *D sky130_fd_sc_hd__dfrtp_1
*I *623:X O *D sky130_fd_sc_hd__clkbuf_16
*CAP
1 *588:CLK 0.000171542
2 *616:CLK 0.000642413
3 *589:CLK 0.000237641
4 *626:A 0
5 *587:CLK 0.000238483
6 *618:CLK 0.000349509
7 *610:CLK 0
8 *623:X 0
9 *95:51 0.000376025
10 *95:40 0.000484128
11 *95:36 0.000820188
12 *95:30 0.000280298
13 *95:10 0.000818391
14 *95:4 0.000507123
15 *587:CLK *656:A 5.33005e-05
16 *588:CLK *103:30 0.000209238
17 *589:CLK *553:S 0.000358971
18 *589:CLK *554:S 0.000212153
19 *589:CLK *582:A0 0.000188777
20 *589:CLK *588:RESET_B 0.000190858
21 *589:CLK *149:117 0.00025338
22 *616:CLK *553:S 9.51514e-06
23 *616:CLK *616:RESET_B 4.70821e-05
24 *616:CLK *174:19 6.87355e-05
25 *618:CLK *610:D 0
26 *618:CLK *618:RESET_B 0
27 *95:10 *510:A 4.94362e-05
28 *95:10 *549:A_N 0
29 *95:10 *618:RESET_B 0
30 *95:10 *98:75 3.34672e-05
31 *95:10 *103:30 5.74499e-06
32 *95:10 *103:32 8.3722e-05
33 *95:36 *547:D 0.000148911
34 *95:36 *616:RESET_B 0.000115474
35 *95:36 *618:RESET_B 3.34366e-05
36 *95:36 *103:30 2.59355e-05
37 *95:40 *507:B 0.000148903
38 *95:40 *547:D 0.000266092
39 *95:40 *616:RESET_B 3.34366e-05
40 *95:40 *98:75 3.28534e-05
41 *95:51 *553:S 0.0001827
42 *618:D *618:CLK 7.61932e-05
43 *641:A *589:CLK 4.72917e-05
44 *641:A *95:51 6.05161e-06
*RES
1 *623:X *95:4 9.3 
2 *95:4 *95:10 11.875 
3 *95:10 *610:CLK 13.8 
4 *95:10 *618:CLK 19.8714 
5 *95:4 *95:30 0.732143 
6 *95:30 *95:36 6.98214 
7 *95:36 *95:40 7.96429 
8 *95:40 *587:CLK 13.1393 
9 *95:40 *95:51 2.58929 
10 *95:51 *626:A 9.3 
11 *95:51 *589:CLK 18.1929 
12 *95:36 *616:CLK 21.6393 
13 *95:30 *588:CLK 13.1214 
*END

*D_NET *96 0.00167409
*CONN
*I *577:A2 I *D sky130_fd_sc_hd__o211a_1
*I *574:A2 I *D sky130_fd_sc_hd__o21ai_1
*I *575:C I *D sky130_fd_sc_hd__or3_1
*I *676:X O *D sky130_fd_sc_hd__buf_1
*CAP
1 *577:A2 0.000286362
2 *574:A2 0
3 *575:C 0.000182988
4 *676:X 0
5 *96:10 0.000250439
6 *96:4 0.000353813
7 *575:C *574:A1 0.000113356
8 *575:C *574:B1 0.000186662
9 *575:C *575:B 1.33343e-05
10 *577:A2 *639:A 3.57366e-05
11 *577:A2 *151:20 9.31209e-05
12 *56:8 *96:10 0.000104974
13 *58:12 *577:A2 5.33005e-05
*RES
1 *676:X *96:4 9.3 
2 *96:4 *96:10 10.3393 
3 *96:10 *575:C 13.4607 
4 *96:10 *574:A2 9.3 
5 *96:4 *577:A2 14.3893 
*END

*D_NET *97 0.0133554
*CONN
*I *531:A I *D sky130_fd_sc_hd__or2_1
*I *523:A I *D sky130_fd_sc_hd__nand2_1
*I *514:A I *D sky130_fd_sc_hd__xor2_1
*I *522:A I *D sky130_fd_sc_hd__or2_1
*I *543:A I *D sky130_fd_sc_hd__xor2_1
*I *532:A I *D sky130_fd_sc_hd__nand2_1
*I *528:A I *D sky130_fd_sc_hd__or2_1
*I *529:A I *D sky130_fd_sc_hd__nand2_1
*I *504:A I *D sky130_fd_sc_hd__inv_2
*I *573:A1 I *D sky130_fd_sc_hd__mux2_1
*I *627:X O *D sky130_fd_sc_hd__buf_2
*CAP
1 *531:A 0
2 *523:A 2.73339e-05
3 *514:A 0.000468608
4 *522:A 5.93801e-05
5 *543:A 0
6 *532:A 1.24159e-05
7 *528:A 6.69557e-05
8 *529:A 6.87235e-05
9 *504:A 0
10 *573:A1 0.000462707
11 *627:X 0
12 *97:104 0.000883
13 *97:98 0.000567864
14 *97:85 0.000483771
15 *97:72 0.00043697
16 *97:68 0.000779736
17 *97:16 0.00067149
18 *97:12 0.000631753
19 *97:6 0.000539568
20 *97:4 0.000771801
21 *514:A *514:B 5.52238e-05
22 *514:A *523:B 1.52978e-05
23 *514:A *149:20 0.000389861
24 *514:A *149:24 6.73939e-05
25 *522:A *523:B 7.252e-05
26 *522:A *149:24 0.000113277
27 *522:A *149:39 1.25366e-05
28 *522:A *169:18 5.80706e-06
29 *523:A *520:A 5.71472e-05
30 *523:A *523:B 6.10501e-05
31 *529:A *529:B 1.18451e-05
32 *529:A *600:D 0.000125731
33 *529:A *148:35 2.30245e-05
34 *532:A *531:B 5.7661e-06
35 *573:A1 *572:A1 0.000221163
36 *573:A1 *573:S 5.75118e-05
37 *573:A1 *98:16 0.000409889
38 *573:A1 *100:59 0
39 *573:A1 *147:14 2.37761e-05
40 *573:A1 *147:25 0.00050705
41 *573:A1 *147:40 7.29667e-05
42 *97:6 *148:35 0.000182881
43 *97:12 *528:B 4.42845e-05
44 *97:12 *529:B 9.69119e-06
45 *97:12 *148:35 0.000377516
46 *97:12 *160:32 2.19684e-05
47 *97:16 *528:B 0.000140933
48 *97:68 *534:A 0
49 *97:68 *542:B 0
50 *97:68 *148:21 0.000177361
51 *97:68 *148:35 5.52238e-05
52 *97:68 *163:25 4.1331e-06
53 *97:72 *531:B 8.17614e-05
54 *97:85 *541:B 0.000313235
55 *97:85 *543:B 0.000195555
56 *97:98 *520:A 9.05645e-05
57 *97:98 *543:B 2.48938e-05
58 *97:104 *520:A 9.22103e-06
59 *97:104 *523:B 0.000448179
60 *518:B1 *514:A 9.90431e-05
61 *524:A1 *514:A 0.00014873
62 *536:A1 *97:68 0
63 *536:A1 *97:72 1.56e-05
64 *536:B2 *97:68 0.00041782
65 *536:C1 *97:68 6.26466e-05
66 *538:B2 *573:A1 3.32631e-05
67 *539:B2 *573:A1 3.25078e-05
68 *544:C1 *97:98 0.000266486
69 *546:C1 *97:98 4.78056e-05
70 *605:CLK *573:A1 0.00018066
71 *621:A *97:68 0
72 *621:A *97:85 4.72818e-05
73 *624:A *97:16 5.71472e-05
74 *643:A *529:A 0.000121254
75 *643:A *97:12 9.11048e-06
76 *658:A *514:A 0.000166305
77 *47:12 *97:98 3.93986e-05
78 *92:8 *528:A 2.16394e-05
79 *92:12 *97:16 0.000170385
80 *93:10 *97:85 0
81 *93:10 *97:98 0
*RES
1 *627:X *97:4 9.3 
2 *97:4 *97:6 1.76786 
3 *97:6 *97:12 9.76786 
4 *97:12 *97:16 9.14286 
5 *97:16 *573:A1 32.1214 
6 *97:16 *504:A 9.3 
7 *97:12 *529:A 16.05 
8 *97:6 *528:A 19.3357 
9 *97:4 *97:68 19.3571 
10 *97:68 *97:72 2.60714 
11 *97:72 *532:A 9.72857 
12 *97:72 *97:85 11.2857 
13 *97:85 *543:A 13.8 
14 *97:85 *97:98 9.75 
15 *97:98 *97:104 9.57143 
16 *97:104 *522:A 15.7464 
17 *97:104 *514:A 25.1571 
18 *97:98 *523:A 10.5679 
19 *97:68 *531:A 9.3 
*END

*D_NET *98 0.0178297
*CONN
*I *508:A I *D sky130_fd_sc_hd__or2_1
*I *509:A I *D sky130_fd_sc_hd__nand2_1
*I *516:A I *D sky130_fd_sc_hd__nand2_1
*I *517:A I *D sky130_fd_sc_hd__or2_1
*I *507:A I *D sky130_fd_sc_hd__xor2_1
*I *551:A0 I *D sky130_fd_sc_hd__mux2_1
*I *533:A I *D sky130_fd_sc_hd__xor2_1
*I *503:A I *D sky130_fd_sc_hd__inv_2
*I *525:A I *D sky130_fd_sc_hd__xor2_1
*I *572:A1 I *D sky130_fd_sc_hd__mux2_1
*I *628:X O *D sky130_fd_sc_hd__clkbuf_4
*CAP
1 *508:A 0
2 *509:A 7.99622e-05
3 *516:A 0
4 *517:A 0.000157366
5 *507:A 3.62004e-05
6 *551:A0 0.000128708
7 *533:A 0.000256967
8 *503:A 0
9 *525:A 0
10 *572:A1 9.62063e-05
11 *628:X 2.00276e-05
12 *98:120 0.000453169
13 *98:92 0.000249573
14 *98:88 0.000925847
15 *98:77 0.000565147
16 *98:75 0.00188087
17 *98:42 0.000415299
18 *98:35 0.000504594
19 *98:16 0.00155429
20 *98:10 0.0012893
21 *98:8 0.00188115
22 *507:A *515:B 5.7661e-06
23 *507:A *556:S 0
24 *509:A *509:B 5.52238e-05
25 *509:A *554:A0 2.44318e-05
26 *517:A *515:A 0
27 *517:A *149:10 0.000121573
28 *517:A *149:20 4.8466e-05
29 *551:A0 *628:A 0.000271352
30 *551:A0 *154:12 5.74499e-06
31 *572:A1 *572:A0 5.33005e-05
32 *572:A1 *573:S 5.41794e-05
33 *572:A1 *148:37 0.000177948
34 *98:8 *154:12 5.52238e-05
35 *98:16 *548:A 0.000141245
36 *98:16 *668:A 0
37 *98:16 *100:59 0
38 *98:16 *129:36 0
39 *98:16 *148:37 0.000603613
40 *98:16 *148:65 0.000333666
41 *98:35 *608:RESET_B 0.000140541
42 *98:35 *140:47 0.000318467
43 *98:42 *525:B 4.43915e-05
44 *98:75 *507:B 8.79776e-05
45 *98:75 *510:A 2.28598e-05
46 *98:75 *510:B 0.000354105
47 *98:75 *547:D 0
48 *98:75 *551:A1 9.60939e-05
49 *98:75 *556:A1 1.19402e-05
50 *98:75 *577:A1 5.33882e-05
51 *98:75 *616:RESET_B 8.15939e-05
52 *98:75 *618:RESET_B 8.56716e-05
53 *98:75 *639:A 0.000139907
54 *98:75 *656:A 0.000177948
55 *98:75 *133:10 0
56 *98:75 *151:12 0.000101149
57 *98:75 *151:20 0
58 *98:75 *157:42 3.14078e-05
59 *98:77 *515:B 3.48705e-05
60 *98:77 *170:10 2.89114e-05
61 *98:88 *515:B 0.000222899
62 *98:88 *555:S 0.000225616
63 *98:92 *506:A 0
64 *98:92 *516:B 4.46186e-06
65 *98:92 *149:10 2.19778e-05
66 *98:92 *149:113 4.25716e-05
67 *98:120 *506:A 0
68 *98:120 *554:A0 0.000230482
69 *98:120 *554:S 0.000153054
70 *98:120 *588:RESET_B 0
71 *98:120 *640:A 0.000148189
72 *98:120 *149:113 5.48106e-05
73 *98:120 *157:44 0
74 *513:A1 *98:120 1.40306e-05
75 *513:A2 *509:A 1.58163e-05
76 *513:A2 *98:120 0
77 *518:B1 *517:A 0.00018372
78 *518:C1 *517:A 4.1331e-06
79 *518:C1 *98:88 0.000139913
80 *530:C1 *98:42 5.49489e-05
81 *545:A2 *98:92 9.11365e-06
82 *545:A3 *98:88 0.00018372
83 *546:A2 *517:A 6.28241e-05
84 *546:A2 *98:92 3.92854e-05
85 *573:A1 *572:A1 0.000221163
86 *573:A1 *98:16 0.000409889
87 *585:D *551:A0 9.90367e-05
88 *622:A *98:75 0.000400145
89 *94:14 *98:75 1.28239e-05
90 *94:27 *98:10 8.15095e-05
91 *94:27 *98:16 0.000142797
92 *94:27 *98:75 0.00012401
93 *94:31 *98:16 0.000202842
94 *95:10 *98:75 3.34672e-05
95 *95:40 *98:75 3.28534e-05
*RES
1 *628:X *98:8 14.3357 
2 *98:8 *98:10 1.03571 
3 *98:10 *98:16 27.1964 
4 *98:16 *572:A1 17.1929 
5 *98:16 *98:35 11.75 
6 *98:35 *525:A 9.3 
7 *98:35 *98:42 3 
8 *98:42 *503:A 9.3 
9 *98:42 *533:A 13.5321 
10 *98:10 *551:A0 16.8 
11 *98:8 *98:75 48.9286 
12 *98:75 *98:77 1.35714 
13 *98:77 *507:A 10.0321 
14 *98:77 *98:88 14.0714 
15 *98:88 *98:92 6.75 
16 *98:92 *517:A 22.3179 
17 *98:92 *516:A 9.3 
18 *98:88 *98:120 13.2321 
19 *98:120 *509:A 11.0857 
20 *98:120 *508:A 9.3 
*END

*D_NET *99 0.0169563
*CONN
*I *550:A0 I *D sky130_fd_sc_hd__mux2_1
*I *571:A1 I *D sky130_fd_sc_hd__mux2_1
*I *537:B I *D sky130_fd_sc_hd__xor2_1
*I *515:A I *D sky130_fd_sc_hd__xor2_1
*I *521:A I *D sky130_fd_sc_hd__xor2_1
*I *505:A I *D sky130_fd_sc_hd__xor2_1
*I *510:A I *D sky130_fd_sc_hd__xor2_1
*I *534:A I *D sky130_fd_sc_hd__nand2_1
*I *526:A I *D sky130_fd_sc_hd__or2_1
*I *527:A I *D sky130_fd_sc_hd__nand2_1
*I *629:X O *D sky130_fd_sc_hd__clkbuf_4
*CAP
1 *550:A0 0.000326991
2 *571:A1 0
3 *537:B 0.000375068
4 *515:A 0.000683865
5 *521:A 0.000197371
6 *505:A 0
7 *510:A 0.000546222
8 *534:A 0.000626871
9 *526:A 6.28637e-05
10 *527:A 0.000104672
11 *629:X 0
12 *99:117 0.000833597
13 *99:75 0.00117538
14 *99:55 0.000581701
15 *99:53 0.000671896
16 *99:40 0.00118656
17 *99:27 0.000497085
18 *99:14 0.000529863
19 *99:8 0.00122316
20 *99:6 0.000883246
21 *510:A *510:B 0.000140933
22 *510:A *556:A1 0.000133447
23 *510:A *133:10 4.15914e-05
24 *510:A *157:42 0.000183726
25 *515:A *555:S 1.69115e-05
26 *515:A *582:A1 0.000219469
27 *515:A *149:20 0.00010061
28 *515:A *149:113 0
29 *515:A *150:43 9.41642e-05
30 *515:A *171:10 9.69119e-06
31 *515:A *171:16 0.000140933
32 *521:A *521:B 4.62096e-05
33 *521:A *652:A 6.65398e-05
34 *526:A *155:14 0.000150611
35 *527:A *565:S 0.000143373
36 *534:A *559:A1 0
37 *534:A *562:A0 0
38 *534:A *562:A1 6.04069e-05
39 *534:A *101:66 0
40 *534:A *119:10 4.03318e-05
41 *534:A *148:19 0
42 *534:A *155:14 0
43 *534:A *156:16 0
44 *537:B *537:A 0.000252623
45 *537:B *679:A 0.000126439
46 *537:B *148:37 0
47 *537:B *148:65 0
48 *550:A0 *550:A1 0.000184522
49 *550:A0 *628:A 2.16315e-05
50 *550:A0 *103:42 6.95619e-05
51 *550:A0 *156:16 3.11417e-05
52 *99:8 *156:16 9.23828e-06
53 *99:14 *571:S 4.24382e-05
54 *99:14 *654:A 0
55 *99:27 *571:S 1.07719e-05
56 *99:27 *150:45 5.12966e-05
57 *99:40 *150:45 9.03141e-05
58 *99:53 *505:B 4.35452e-05
59 *99:53 *150:43 1.15281e-05
60 *99:53 *150:45 4.9773e-05
61 *99:53 *173:14 5.76121e-05
62 *99:55 *505:B 3.57366e-05
63 *99:55 *150:43 2.34059e-05
64 *99:75 *150:43 0.000351269
65 *99:117 *568:A0 0.000171313
66 *99:117 *568:S 7.48091e-05
67 *99:117 *571:S 0.000732146
68 *517:A *515:A 0
69 *518:C1 *515:A 0.000149904
70 *524:C1 *521:A 0
71 *536:C1 *534:A 1.02504e-05
72 *538:C1 *537:B 5.80706e-06
73 *545:A1 *515:A 3.48705e-05
74 *545:A2 *515:A 2.47724e-05
75 *545:B1 *515:A 6.42095e-05
76 *546:C1 *521:A 0.000267807
77 *547:B *515:A 2.28598e-05
78 *594:CLK *521:A 2.28598e-05
79 *594:D *534:A 0.000100831
80 *607:D *537:B 7.38748e-05
81 *622:A *510:A 0.000243627
82 *655:A *99:117 0.000407515
83 *47:12 *521:A 0
84 *91:10 *510:A 0.00012401
85 *91:36 *510:A 0.000794358
86 *95:10 *510:A 4.94362e-05
87 *97:68 *534:A 0
88 *98:75 *510:A 2.28598e-05
*RES
1 *629:X *99:6 13.8 
2 *99:6 *99:8 9.23214 
3 *99:8 *99:14 7.30357 
4 *99:14 *527:A 20.2464 
5 *99:14 *99:27 2.58929 
6 *99:27 *526:A 20.2464 
7 *99:27 *99:40 3 
8 *99:40 *534:A 29.9607 
9 *99:40 *99:53 4.64286 
10 *99:53 *99:55 1.03571 
11 *99:55 *510:A 34.7643 
12 *99:55 *505:A 9.3 
13 *99:53 *99:75 4.23214 
14 *99:75 *521:A 23.0321 
15 *99:75 *515:A 30.0679 
16 *99:8 *99:117 18.0714 
17 *99:117 *537:B 26.7643 
18 *99:117 *571:A1 9.3 
19 *99:6 *550:A0 19.05 
*END

*D_NET *100 0.0102616
*CONN
*I *602:RESET_B I *D sky130_fd_sc_hd__dfrtp_1
*I *601:RESET_B I *D sky130_fd_sc_hd__dfrtp_1
*I *597:RESET_B I *D sky130_fd_sc_hd__dfrtp_1
*I *594:RESET_B I *D sky130_fd_sc_hd__dfrtp_1
*I *600:RESET_B I *D sky130_fd_sc_hd__dfrtp_1
*I *604:RESET_B I *D sky130_fd_sc_hd__dfrtp_1
*I *608:RESET_B I *D sky130_fd_sc_hd__dfrtp_1
*I *606:RESET_B I *D sky130_fd_sc_hd__dfrtp_1
*I *609:RESET_B I *D sky130_fd_sc_hd__dfrtp_1
*I *605:RESET_B I *D sky130_fd_sc_hd__dfrtp_1
*I *630:X O *D sky130_fd_sc_hd__clkbuf_4
*CAP
1 *602:RESET_B 0
2 *601:RESET_B 0.000100562
3 *597:RESET_B 0.000163812
4 *594:RESET_B 9.75734e-05
5 *600:RESET_B 3.57086e-05
6 *604:RESET_B 2.80259e-05
7 *608:RESET_B 0.000137453
8 *606:RESET_B 2.80259e-05
9 *609:RESET_B 0.000190875
10 *605:RESET_B 0.000653291
11 *630:X 0.000105283
12 *100:109 0.000202684
13 *100:85 0.000822458
14 *100:75 0.00126423
15 *100:59 0.00127156
16 *100:47 0.000948755
17 *100:27 0.000393749
18 *100:25 0.000473406
19 *100:6 0.000797355
20 *597:RESET_B *559:A1 0.000246064
21 *597:RESET_B *562:A0 5.66157e-05
22 *597:RESET_B *591:RESET_B 9.50011e-06
23 *597:RESET_B *124:8 2.59355e-05
24 *597:RESET_B *148:19 0.000291
25 *600:RESET_B *607:RESET_B 1.10841e-05
26 *601:RESET_B *567:S 2.60456e-06
27 *601:RESET_B *148:97 8.66874e-05
28 *601:RESET_B *162:12 0
29 *604:RESET_B *604:D 2.51837e-05
30 *605:RESET_B *566:A0 6.38152e-05
31 *605:RESET_B *160:32 1.97381e-05
32 *609:RESET_B *570:A1 8.07313e-05
33 *609:RESET_B *147:14 2.89114e-05
34 *609:RESET_B *160:14 0
35 *609:RESET_B *160:32 0
36 *100:6 *566:A0 6.62898e-05
37 *100:6 *630:A 3.18676e-05
38 *100:27 *147:14 0
39 *100:27 *160:32 0
40 *100:47 *572:A0 8.16036e-05
41 *100:47 *140:8 2.66026e-05
42 *100:47 *147:25 0
43 *100:47 *160:32 0
44 *100:59 *529:B 0
45 *100:59 *539:A1 1.97381e-05
46 *100:59 *565:A1 0
47 *100:59 *129:36 3.5707e-05
48 *100:59 *140:8 3.06406e-05
49 *100:59 *147:40 0
50 *100:59 *160:32 0
51 *100:75 *565:A1 0
52 *100:75 *604:D 0.000170464
53 *100:75 *607:RESET_B 3.43089e-05
54 *100:75 *158:12 4.53295e-05
55 *100:85 *607:RESET_B 8.0786e-06
56 *100:85 *642:A 5.41609e-05
57 *100:85 *161:6 6.09773e-05
58 *100:109 *148:97 0.000103993
59 *100:109 *162:12 0
60 *530:C1 *100:75 2.16394e-05
61 *539:B2 *100:59 0
62 *573:A1 *100:59 0
63 *594:CLK *594:RESET_B 6.72353e-05
64 *594:CLK *100:85 2.24079e-05
65 *594:D *100:85 0.00018372
66 *598:CLK *601:RESET_B 0
67 *600:CLK *100:59 7.35981e-05
68 *601:D *605:RESET_B 3.44143e-05
69 *605:D *100:27 4.1331e-06
70 *605:D *100:47 3.15645e-05
71 *606:D *609:RESET_B 0.000178976
72 *92:23 *100:59 4.57445e-05
73 *92:59 *606:RESET_B 2.51837e-05
74 *98:16 *100:59 0
75 *98:35 *608:RESET_B 0.000140541
*RES
1 *630:X *100:6 11.4786 
2 *100:6 *605:RESET_B 19.0357 
3 *605:RESET_B *100:25 5.38393 
4 *100:25 *100:27 3.46429 
5 *100:27 *609:RESET_B 8.66964 
6 *100:27 *606:RESET_B 4.97321 
7 *100:25 *100:47 4.98214 
8 *100:47 *608:RESET_B 7.02679 
9 *100:47 *100:59 15.8571 
10 *100:59 *604:RESET_B 0.473214 
11 *100:59 *100:75 18.8036 
12 *100:75 *600:RESET_B 0.901786 
13 *100:75 *100:85 7.10714 
14 *100:85 *594:RESET_B 1.72321 
15 *100:85 *597:RESET_B 13.6518 
16 *100:6 *100:109 7.05357 
17 *100:109 *601:RESET_B 7.10714 
18 *100:109 *602:RESET_B 4.5 
*END

*D_NET *101 0.0165314
*CONN
*I *592:RESET_B I *D sky130_fd_sc_hd__dfrtp_1
*I *617:RESET_B I *D sky130_fd_sc_hd__dfrtp_1
*I *596:RESET_B I *D sky130_fd_sc_hd__dfrtp_1
*I *599:RESET_B I *D sky130_fd_sc_hd__dfrtp_1
*I *607:RESET_B I *D sky130_fd_sc_hd__dfrtp_1
*I *591:RESET_B I *D sky130_fd_sc_hd__dfrtp_1
*I *630:A I *D sky130_fd_sc_hd__clkbuf_4
*I *598:RESET_B I *D sky130_fd_sc_hd__dfrtp_1
*I *595:RESET_B I *D sky130_fd_sc_hd__dfrtp_1
*I *631:X O *D sky130_fd_sc_hd__clkbuf_4
*CAP
1 *592:RESET_B 5.55852e-05
2 *617:RESET_B 0.000673166
3 *596:RESET_B 3.44528e-05
4 *599:RESET_B 1.51886e-05
5 *607:RESET_B 0.00124336
6 *591:RESET_B 0.00119834
7 *630:A 4.9536e-05
8 *598:RESET_B 0.000180385
9 *595:RESET_B 0.000802009
10 *631:X 0
11 *101:118 0.00103061
12 *101:66 0.00294855
13 *101:53 0.000972011
14 *101:31 0.000849018
15 *101:23 0.000872963
16 *101:10 0.000730818
17 *101:4 0.000800984
18 *591:RESET_B *565:A0 5.03772e-05
19 *591:RESET_B *647:A 1.92905e-05
20 *591:RESET_B *124:8 6.86792e-05
21 *591:RESET_B *164:8 7.31177e-05
22 *596:RESET_B *560:A0 9.23759e-05
23 *598:RESET_B *664:A 7.6644e-05
24 *598:RESET_B *163:21 2.24646e-05
25 *607:RESET_B *642:A 4.08637e-05
26 *607:RESET_B *119:10 0.000215817
27 *607:RESET_B *129:8 2.23758e-05
28 *607:RESET_B *161:6 0.00018077
29 *607:RESET_B *161:10 9.0573e-05
30 *617:RESET_B *558:A0 0
31 *617:RESET_B *583:A0 0
32 *617:RESET_B *591:D 0
33 *617:RESET_B *168:25 6.92148e-06
34 *630:A *566:A0 5.52238e-05
35 *630:A *148:93 0
36 *630:A *162:12 1.65558e-05
37 *101:10 *560:A0 0
38 *101:10 *149:39 6.75007e-05
39 *101:10 *169:18 4.35048e-05
40 *101:31 *163:8 5.33005e-05
41 *101:53 *563:A1 0.000228558
42 *101:53 *566:A0 0.000225616
43 *101:53 *138:12 9.25014e-06
44 *101:53 *162:12 0
45 *101:53 *163:21 0.000262147
46 *101:53 *163:25 1.17921e-05
47 *101:66 *533:B 0.000202842
48 *101:66 *534:B 0.000242927
49 *101:66 *562:A1 9.24299e-05
50 *101:66 *119:10 2.49484e-05
51 *101:66 *148:91 0
52 *101:66 *148:93 0
53 *101:66 *161:10 0.000224592
54 *101:66 *162:12 4.35048e-05
55 *101:118 *519:A 1.76135e-05
56 *101:118 *168:25 8.36642e-05
57 *101:118 *169:18 0
58 *518:B1 *617:RESET_B 0
59 *524:A1 *617:RESET_B 0
60 *534:A *101:66 0
61 *536:C1 *101:66 0
62 *592:CLK *101:118 3.69047e-06
63 *592:D *617:RESET_B 4.57352e-05
64 *595:D *595:RESET_B 0
65 *596:D *595:RESET_B 4.1331e-06
66 *596:D *101:10 2.83916e-05
67 *597:RESET_B *591:RESET_B 9.50011e-06
68 *598:CLK *101:31 9.60939e-05
69 *598:D *598:RESET_B 5.24274e-05
70 *598:D *101:53 8.66228e-05
71 *600:RESET_B *607:RESET_B 1.10841e-05
72 *93:38 *591:RESET_B 0.000390225
73 *93:77 *595:RESET_B 0
74 *93:77 *101:10 0
75 *93:81 *595:RESET_B 0
76 *93:85 *599:RESET_B 2.81497e-05
77 *93:85 *101:23 0.00025243
78 *93:85 *101:31 0.000125436
79 *100:6 *630:A 3.18676e-05
80 *100:75 *607:RESET_B 3.43089e-05
81 *100:85 *607:RESET_B 8.0786e-06
*RES
1 *631:X *101:4 9.3 
2 *101:4 *101:10 11.6786 
3 *101:10 *595:RESET_B 7.96429 
4 *595:RESET_B *101:23 9.65179 
5 *101:23 *101:31 8.875 
6 *101:31 *598:RESET_B 7.6875 
7 *101:31 *101:53 17 
8 *101:53 *630:A 15.0679 
9 *101:53 *101:66 12.2679 
10 *101:66 *591:RESET_B 20.9196 
11 *101:66 *607:RESET_B 21.4554 
12 *101:23 *599:RESET_B 0.901786 
13 *101:10 *596:RESET_B 5.38393 
14 *101:4 *101:118 14.4464 
15 *101:118 *617:RESET_B 20.5446 
16 *101:118 *592:RESET_B 0.883929 
*END

*D_NET *102 0.00787313
*CONN
*I *603:RESET_B I *D sky130_fd_sc_hd__dfrtp_1
*I *586:RESET_B I *D sky130_fd_sc_hd__dfrtp_2
*I *610:RESET_B I *D sky130_fd_sc_hd__dfrtp_1
*I *593:RESET_B I *D sky130_fd_sc_hd__dfrtp_1
*I *585:RESET_B I *D sky130_fd_sc_hd__dfrtp_1
*I *587:RESET_B I *D sky130_fd_sc_hd__dfrtp_1
*I *614:RESET_B I *D sky130_fd_sc_hd__dfrtp_1
*I *584:RESET_B I *D sky130_fd_sc_hd__dfrtp_1
*I *590:RESET_B I *D sky130_fd_sc_hd__dfrtp_1
*I *615:RESET_B I *D sky130_fd_sc_hd__dfrtp_1
*I *632:X O *D sky130_fd_sc_hd__clkbuf_4
*CAP
1 *603:RESET_B 6.96515e-05
2 *586:RESET_B 0.000183301
3 *610:RESET_B 6.7916e-05
4 *593:RESET_B 0.000182246
5 *585:RESET_B 0.000532418
6 *587:RESET_B 3.01601e-05
7 *614:RESET_B 0.000814329
8 *584:RESET_B 1.32646e-05
9 *590:RESET_B 0
10 *615:RESET_B 0.000123372
11 *632:X 0
12 *102:87 0.000384489
13 *102:73 0.000250162
14 *102:71 0.000325976
15 *102:33 0.000995807
16 *102:31 0.000198374
17 *102:14 0.000219422
18 *102:10 0.000210126
19 *102:8 0.000752508
20 *102:6 0.000300452
21 *585:RESET_B *510:B 0.00014285
22 *585:RESET_B *629:A 0.000172416
23 *585:RESET_B *156:16 5.76608e-05
24 *586:RESET_B *552:A0 3.75946e-05
25 *593:RESET_B *637:A 6.81335e-05
26 *593:RESET_B *670:A 6.05161e-06
27 *603:RESET_B *637:A 0.00012709
28 *610:RESET_B *637:A 1.92905e-05
29 *610:RESET_B *670:A 8.78994e-05
30 *615:RESET_B *581:A0 0
31 *615:RESET_B *155:14 0.000133797
32 *102:8 *627:A 0
33 *102:10 *627:A 0
34 *102:10 *629:A 3.50931e-05
35 *102:10 *176:12 7.8327e-05
36 *102:14 *629:A 9.69119e-06
37 *102:14 *155:14 4.16021e-05
38 *102:33 *155:8 5.33005e-05
39 *102:71 *627:A 0
40 *102:71 *157:17 0
41 *102:87 *637:A 0.000173377
42 *102:87 *157:17 0
43 *615:D *615:RESET_B 2.51837e-05
44 *619:A *615:RESET_B 7.7674e-05
45 *619:A *102:8 0.000106542
46 *619:A *102:10 0.000157381
47 *619:A *102:14 8.15939e-05
48 *619:A *102:71 0.000160741
49 *619:A *102:87 3.90513e-05
50 *94:40 *614:RESET_B 0.000248036
51 *94:51 *614:RESET_B 7.87768e-05
*RES
1 *632:X *102:6 13.8 
2 *102:6 *102:8 2.55357 
3 *102:8 *102:10 3.76786 
4 *102:10 *102:14 2.48214 
5 *102:14 *615:RESET_B 8.13393 
6 *102:14 *590:RESET_B 4.5 
7 *102:10 *102:31 4.5 
8 *102:31 *102:33 2.58929 
9 *102:33 *584:RESET_B 0.473214 
10 *102:33 *614:RESET_B 12.1339 
11 *102:31 *587:RESET_B 0.473214 
12 *102:8 *585:RESET_B 12.5089 
13 *102:6 *102:71 4.07143 
14 *102:71 *102:73 4.5 
15 *102:73 *593:RESET_B 3.34821 
16 *102:73 *610:RESET_B 1.70536 
17 *102:71 *102:87 3.16071 
18 *102:87 *586:RESET_B 7.4375 
19 *102:87 *603:RESET_B 6.14286 
*END

*D_NET *103 0.0116122
*CONN
*I *618:RESET_B I *D sky130_fd_sc_hd__dfrtp_1
*I *616:RESET_B I *D sky130_fd_sc_hd__dfrtp_1
*I *632:A I *D sky130_fd_sc_hd__clkbuf_4
*I *613:RESET_B I *D sky130_fd_sc_hd__dfrtp_1
*I *612:RESET_B I *D sky130_fd_sc_hd__dfrtp_1
*I *611:RESET_B I *D sky130_fd_sc_hd__dfrtp_1
*I *588:RESET_B I *D sky130_fd_sc_hd__dfrtp_1
*I *589:RESET_B I *D sky130_fd_sc_hd__dfrtp_1
*I *633:X O *D sky130_fd_sc_hd__buf_2
*CAP
1 *618:RESET_B 0.00033966
2 *616:RESET_B 0.000116253
3 *632:A 0
4 *613:RESET_B 0.000207404
5 *612:RESET_B 3.56797e-05
6 *611:RESET_B 4.67532e-05
7 *588:RESET_B 0.00115061
8 *589:RESET_B 0.00107015
9 *633:X 0.000421991
10 *103:82 0.000455913
11 *103:56 0.000563196
12 *103:42 0.00106302
13 *103:32 0.00129188
14 *103:30 0.00109817
15 *588:RESET_B *589:D 0.000114517
16 *588:RESET_B *616:D 0
17 *588:RESET_B *640:A 0
18 *588:RESET_B *149:113 4.02462e-05
19 *588:RESET_B *150:12 0
20 *589:RESET_B *509:B 3.69047e-06
21 *589:RESET_B *589:D 6.75007e-05
22 *589:RESET_B *157:44 0.000103285
23 *611:RESET_B *118:18 5.33005e-05
24 *612:RESET_B *152:10 9.62151e-05
25 *616:RESET_B *553:S 2.95595e-05
26 *618:RESET_B *547:D 0.00027124
27 *618:RESET_B *610:D 0
28 *103:42 *550:A1 0.000184522
29 *103:42 *550:S 0.00013017
30 *103:42 *551:A1 0.000125724
31 *103:42 *551:S 0.000275936
32 *103:42 *628:A 6.63404e-05
33 *103:42 *666:A 0.000230431
34 *103:42 *118:18 3.17148e-05
35 *103:42 *118:24 0
36 *103:42 *151:12 0.000103267
37 *103:42 *154:12 7.80714e-06
38 *103:56 *552:S 6.69071e-05
39 *103:56 *106:14 7.6644e-05
40 *103:56 *118:18 5.68254e-05
41 *513:B2 *589:RESET_B 0
42 *550:A0 *103:42 6.95619e-05
43 *584:D *103:42 7.77652e-05
44 *588:CLK *103:30 0.000209238
45 *589:CLK *588:RESET_B 0.000190858
46 *613:D *613:RESET_B 0
47 *613:D *103:56 0
48 *616:CLK *616:RESET_B 4.70821e-05
49 *618:CLK *618:RESET_B 0
50 *623:A *103:32 0.00014285
51 *672:A *588:RESET_B 0.000101545
52 *94:16 *611:RESET_B 0.000133233
53 *94:27 *103:42 0
54 *94:92 *103:56 0
55 *94:103 *103:56 0
56 *94:105 *612:RESET_B 0.000178527
57 *95:10 *618:RESET_B 0
58 *95:10 *103:30 5.74499e-06
59 *95:10 *103:32 8.3722e-05
60 *95:36 *616:RESET_B 0.000115474
61 *95:36 *618:RESET_B 3.34366e-05
62 *95:36 *103:30 2.59355e-05
63 *95:40 *616:RESET_B 3.34366e-05
64 *98:75 *616:RESET_B 8.15939e-05
65 *98:75 *618:RESET_B 8.56716e-05
66 *98:120 *588:RESET_B 0
*RES
1 *633:X *589:RESET_B 25.4964 
2 *589:RESET_B *588:RESET_B 20.6161 
3 *588:RESET_B *103:30 8.29464 
4 *103:30 *103:32 10.3929 
5 *103:32 *103:42 20.9464 
6 *103:42 *611:RESET_B 5.79464 
7 *103:42 *103:56 5.64286 
8 *103:56 *612:RESET_B 6.20536 
9 *103:56 *613:RESET_B 8.32143 
10 *103:32 *632:A 9.3 
11 *103:30 *103:82 4.5 
12 *103:82 *616:RESET_B 7.33036 
13 *103:82 *618:RESET_B 12.875 
*END

*D_NET *104 0.00030133
*CONN
*I *603:D I *D sky130_fd_sc_hd__dfrtp_1
*I *637:X O *D sky130_fd_sc_hd__dlygate4sd3_1
*CAP
1 *603:D 0.000150665
2 *637:X 0.000150665
3 *603:D *637:A 0
4 *603:D *659:A 0
*RES
1 *637:X *603:D 29.7786 
*END

*D_NET *105 0.00148255
*CONN
*I *549:B I *D sky130_fd_sc_hd__and2b_1
*I *610:D I *D sky130_fd_sc_hd__dfrtp_1
*I *648:X O *D sky130_fd_sc_hd__dlygate4sd3_1
*CAP
1 *549:B 5.80638e-05
2 *610:D 0.000297718
3 *648:X 0.000233298
4 *105:8 0.00058908
5 *549:B *549:A_N 0
6 *610:D *549:A_N 0
7 *618:CLK *610:D 0
8 *618:D *549:B 7.83659e-05
9 *618:D *610:D 0.000226021
10 *618:RESET_B *610:D 0
*RES
1 *648:X *105:8 16.3893 
2 *105:8 *610:D 19.925 
3 *105:8 *549:B 15.1393 
*END

*D_NET *106 0.0012052
*CONN
*I *552:A1 I *D sky130_fd_sc_hd__mux2_1
*I *580:A I *D sky130_fd_sc_hd__xor2_1
*I *659:X O *D sky130_fd_sc_hd__dlygate4sd3_1
*CAP
1 *552:A1 0
2 *580:A 0.000251142
3 *659:X 0.000264525
4 *106:14 0.000515667
5 *580:A *552:A0 1.00733e-05
6 *106:14 *552:A0 1.58213e-06
7 *94:105 *106:14 8.55687e-05
8 *103:56 *106:14 7.6644e-05
*RES
1 *659:X *106:14 22.05 
2 *106:14 *580:A 13.4429 
3 *106:14 *552:A1 9.3 
*END

*D_NET *107 0.00527856
*CONN
*I *633:A I *D sky130_fd_sc_hd__buf_2
*I *631:A I *D sky130_fd_sc_hd__clkbuf_4
*I *677:X O *D sky130_fd_sc_hd__buf_1
*CAP
1 *633:A 0.00104049
2 *631:A 0.000492408
3 *677:X 0.00041339
4 *107:12 0.00194629
5 *633:A *512:B 0.000276809
6 *633:A *558:A1 0
7 *633:A *583:A1 7.80714e-06
8 *633:A *649:A 0.000128161
9 *633:A *673:A 0.000226021
10 *633:A *172:8 0.000119708
11 *633:A *172:19 7.36267e-05
12 *633:A *175:23 0.000450576
13 *633:A *178:8 0.000103267
14 *107:12 *558:A1 0
*RES
1 *677:X *107:12 21.2643 
2 *107:12 *631:A 21.7286 
3 *107:12 *633:A 38.7464 
*END

*D_NET *108 0.00124264
*CONN
*I *549:A_N I *D sky130_fd_sc_hd__and2b_1
*I *670:X O *D sky130_fd_sc_hd__dlygate4sd3_1
*CAP
1 *549:A_N 0.000570839
2 *670:X 0.000570839
3 *549:A_N *637:A 0
4 *549:A_N *670:A 0
5 *549:A_N *157:42 0.00010096
6 *549:B *549:A_N 0
7 *610:D *549:A_N 0
8 *619:A *549:A_N 0
9 *95:10 *549:A_N 0
*RES
1 *670:X *549:A_N 37.475 
*END

*D_NET *109 0.000931012
*CONN
*I *554:A0 I *D sky130_fd_sc_hd__mux2_1
*I *671:X O *D sky130_fd_sc_hd__dlygate4sd3_1
*CAP
1 *554:A0 0.000287496
2 *671:X 0.000287496
3 *554:A0 *554:A1 2.27416e-05
4 *554:A0 *177:12 7.83659e-05
5 *509:A *554:A0 2.44318e-05
6 *98:120 *554:A0 0.000230482
*RES
1 *671:X *554:A0 32.0464 
*END

*D_NET *110 0.000520455
*CONN
*I *588:D I *D sky130_fd_sc_hd__dfrtp_1
*I *672:X O *D sky130_fd_sc_hd__dlygate4sd3_1
*CAP
1 *588:D 0.000141459
2 *672:X 0.000141459
3 *588:D *150:12 0.000183377
4 *588:D *157:42 5.41609e-05
5 *636:A *588:D 0
6 *672:A *588:D 0
*RES
1 *672:X *588:D 30.9036 
*END

*D_NET *111 0.000240369
*CONN
*I *555:A0 I *D sky130_fd_sc_hd__mux2_1
*I *673:X O *D sky130_fd_sc_hd__dlygate4sd3_1
*CAP
1 *555:A0 0.000111378
2 *673:X 0.000111378
3 *555:A0 *506:A 0
4 *555:A0 *555:A1 0
5 *513:B2 *555:A0 1.76135e-05
*RES
1 *673:X *555:A0 29.5464 
*END

*D_NET *112 0.000678435
*CONN
*I *589:D I *D sky130_fd_sc_hd__dfrtp_1
*I *674:X O *D sky130_fd_sc_hd__dlygate4sd3_1
*CAP
1 *589:D 0.000214458
2 *674:X 0.000214458
3 *513:B2 *589:D 6.75007e-05
4 *588:RESET_B *589:D 0.000114517
5 *589:RESET_B *589:D 6.75007e-05
*RES
1 *674:X *589:D 32.2429 
*END

*D_NET *113 0.000563858
*CONN
*I *553:A0 I *D sky130_fd_sc_hd__mux2_1
*I *675:X O *D sky130_fd_sc_hd__dlygate4sd3_1
*CAP
1 *553:A0 5.24479e-05
2 *675:X 5.24479e-05
3 *553:A0 *510:B 0.000320024
4 *553:A0 *553:S 5.17614e-05
5 *553:A0 *156:16 8.71761e-05
*RES
1 *675:X *553:A0 21.6 
*END

*D_NET *114 0.000568198
*CONN
*I *587:D I *D sky130_fd_sc_hd__dfrtp_1
*I *638:X O *D sky130_fd_sc_hd__dlygate4sd3_1
*CAP
1 *587:D 7.89693e-05
2 *638:X 7.89693e-05
3 *587:D *553:A1 0
4 *587:D *553:S 5.33005e-05
5 *587:D *156:16 0.000128146
6 *638:A *587:D 5.33005e-05
7 *91:36 *587:D 0.000175512
*RES
1 *638:X *587:D 30.3857 
*END

*D_NET *115 0.000548601
*CONN
*I *551:A1 I *D sky130_fd_sc_hd__mux2_1
*I *639:X O *D sky130_fd_sc_hd__dlygate4sd3_1
*CAP
1 *551:A1 0.000147538
2 *639:X 0.000147538
3 *551:A1 *154:12 3.17067e-05
4 *94:27 *551:A1 0
5 *98:75 *551:A1 9.60939e-05
6 *103:42 *551:A1 0.000125724
*RES
1 *639:X *551:A1 30.1893 
*END

*D_NET *116 0.000416637
*CONN
*I *582:A0 I *D sky130_fd_sc_hd__mux2_1
*I *640:X O *D sky130_fd_sc_hd__dlygate4sd3_1
*CAP
1 *582:A0 0.00011393
2 *640:X 0.00011393
3 *589:CLK *582:A0 0.000188777
*RES
1 *640:X *582:A0 20.7786 
*END

*D_NET *117 0.000871055
*CONN
*I *616:D I *D sky130_fd_sc_hd__dfrtp_1
*I *641:X O *D sky130_fd_sc_hd__dlygate4sd3_1
*CAP
1 *616:D 0.000287575
2 *641:X 0.000287575
3 *616:D *515:B 9.60939e-05
4 *616:D *582:A1 7.83659e-05
5 *616:D *149:113 0
6 *616:D *150:12 0.000121446
7 *588:RESET_B *616:D 0
*RES
1 *641:X *616:D 32.6179 
*END

*D_NET *118 0.00420643
*CONN
*I *552:S I *D sky130_fd_sc_hd__mux2_1
*I *593:D I *D sky130_fd_sc_hd__dfrtp_1
*I *550:S I *D sky130_fd_sc_hd__mux2_1
*I *551:S I *D sky130_fd_sc_hd__mux2_1
*I *678:X O *D sky130_fd_sc_hd__buf_1
*CAP
1 *552:S 6.80436e-05
2 *593:D 0
3 *550:S 2.02876e-05
4 *551:S 3.3369e-05
5 *678:X 0.000495126
6 *118:24 0.000306724
7 *118:18 0.000483999
8 *118:8 0.0007941
9 *550:S *628:A 0.000141734
10 *551:S *628:A 0.000274288
11 *552:S *152:18 0
12 *118:18 *666:A 0.000316184
13 *118:18 *152:18 0
14 *118:24 *151:12 0
15 *611:CLK *118:8 0.000261178
16 *611:RESET_B *118:18 5.33005e-05
17 *613:D *552:S 5.80706e-06
18 *94:14 *118:18 7.03295e-05
19 *94:14 *118:24 9.76123e-05
20 *94:16 *118:8 0.000102207
21 *94:16 *118:18 0.000120587
22 *94:27 *118:18 0
23 *103:42 *550:S 0.00013017
24 *103:42 *551:S 0.000275936
25 *103:42 *118:18 3.17148e-05
26 *103:42 *118:24 0
27 *103:56 *552:S 6.69071e-05
28 *103:56 *118:18 5.68254e-05
*RES
1 *678:X *118:8 20.4964 
2 *118:8 *118:18 10.7321 
3 *118:18 *118:24 13.375 
4 *118:24 *551:S 11.8893 
5 *118:24 *550:S 10.6571 
6 *118:18 *593:D 9.3 
7 *118:8 *552:S 15.4429 
*END

*D_NET *119 0.00315009
*CONN
*I *565:A0 I *D sky130_fd_sc_hd__mux2_1
*I *562:A1 I *D sky130_fd_sc_hd__mux2_1
*I *642:X O *D sky130_fd_sc_hd__dlygate4sd3_1
*CAP
1 *565:A0 0.000412147
2 *562:A1 0.000192596
3 *642:X 0.000268482
4 *119:10 0.000873225
5 *562:A1 *540:A 0.000360894
6 *565:A0 *565:A1 2.84026e-05
7 *565:A0 *565:S 9.83442e-05
8 *119:10 *642:A 4.43256e-05
9 *530:B2 *565:A0 0.000136676
10 *534:A *562:A1 6.04069e-05
11 *534:A *119:10 4.03318e-05
12 *591:RESET_B *565:A0 5.03772e-05
13 *597:CLK *565:A0 4.10796e-05
14 *597:D *562:A1 0.000140933
15 *597:D *565:A0 6.86693e-05
16 *607:RESET_B *119:10 0.000215817
17 *101:66 *562:A1 9.24299e-05
18 *101:66 *119:10 2.49484e-05
*RES
1 *642:X *119:10 18.0321 
2 *119:10 *562:A1 19.4607 
3 *119:10 *565:A0 21.4607 
*END

*D_NET *120 0.000803211
*CONN
*I *600:D I *D sky130_fd_sc_hd__dfrtp_1
*I *643:X O *D sky130_fd_sc_hd__dlygate4sd3_1
*CAP
1 *600:D 0.000191298
2 *643:X 0.000191298
3 *600:D *529:B 6.74911e-05
4 *600:D *565:A1 0.000149554
5 *600:D *148:35 1.07593e-05
6 *529:A *600:D 0.000125731
7 *530:C1 *600:D 0
8 *600:CLK *600:D 1.18554e-05
9 *92:12 *600:D 5.52238e-05
*RES
1 *643:X *600:D 32.2071 
*END

*D_NET *121 0.00112903
*CONN
*I *566:A1 I *D sky130_fd_sc_hd__mux2_1
*I *569:A0 I *D sky130_fd_sc_hd__mux2_1
*I *644:X O *D sky130_fd_sc_hd__dlygate4sd3_1
*CAP
1 *566:A1 6.65045e-05
2 *569:A0 0.000257931
3 *644:X 0
4 *121:4 0.000324435
5 *566:A1 *148:93 4.93196e-05
6 *566:A1 *159:8 0
7 *569:A0 *569:A1 3.08664e-05
8 *569:A0 *569:S 0.000399972
*RES
1 *644:X *121:4 9.3 
2 *121:4 *569:A0 14.3536 
3 *121:4 *566:A1 19.6393 
*END

*D_NET *122 0.0016553
*CONN
*I *561:A1 I *D sky130_fd_sc_hd__mux2_1
*I *564:A0 I *D sky130_fd_sc_hd__mux2_1
*I *645:X O *D sky130_fd_sc_hd__dlygate4sd3_1
*CAP
1 *561:A1 0.000178491
2 *564:A0 0.000340509
3 *645:X 0
4 *122:4 0.000519
5 *561:A1 *561:A0 5.52238e-05
6 *561:A1 *561:S 1.69961e-05
7 *561:A1 *149:47 0.000198352
8 *564:A0 *645:A 5.52302e-05
9 *564:A0 *149:47 7.77751e-05
10 *564:A0 *165:10 0
11 *564:A0 *166:10 1.3142e-05
12 *596:D *561:A1 9.90367e-05
13 *646:A *564:A0 0.000101545
*RES
1 *645:X *122:4 9.3 
2 *122:4 *564:A0 24.175 
3 *122:4 *561:A1 13.5321 
*END

*D_NET *123 0.000806793
*CONN
*I *599:D I *D sky130_fd_sc_hd__dfrtp_1
*I *646:X O *D sky130_fd_sc_hd__dlygate4sd3_1
*CAP
1 *599:D 0.000279065
2 *646:X 0.000279065
3 *599:D *564:A1 1.0562e-05
4 *599:D *662:A 1.92905e-05
5 *599:D *163:21 0
6 *599:D *163:25 3.31397e-05
7 *599:D *165:10 0.00018567
*RES
1 *646:X *599:D 32.8143 
*END

*D_NET *124 0.00116185
*CONN
*I *559:A1 I *D sky130_fd_sc_hd__mux2_1
*I *562:A0 I *D sky130_fd_sc_hd__mux2_1
*I *647:X O *D sky130_fd_sc_hd__dlygate4sd3_1
*CAP
1 *559:A1 0.000174593
2 *562:A0 8.43108e-05
3 *647:X 5.38841e-05
4 *124:8 0.000312788
5 *559:A1 *148:19 3.48235e-05
6 *562:A0 *148:19 4.89264e-05
7 *124:8 *164:8 5.52302e-05
8 *534:A *559:A1 0
9 *534:A *562:A0 0
10 *591:RESET_B *124:8 6.86792e-05
11 *597:RESET_B *559:A1 0.000246064
12 *597:RESET_B *562:A0 5.66157e-05
13 *597:RESET_B *124:8 2.59355e-05
*RES
1 *647:X *124:8 15.1571 
2 *124:8 *562:A0 15.7464 
3 *124:8 *559:A1 17.8714 
*END

*D_NET *125 0.000511005
*CONN
*I *583:A0 I *D sky130_fd_sc_hd__mux2_1
*I *649:X O *D sky130_fd_sc_hd__dlygate4sd3_1
*CAP
1 *583:A0 0.000191092
2 *649:X 0.000191092
3 *583:A0 *583:A1 0.000128822
4 *617:RESET_B *583:A0 0
*RES
1 *649:X *583:A0 31.975 
*END

*D_NET *126 0.000363114
*CONN
*I *617:D I *D sky130_fd_sc_hd__dfrtp_1
*I *650:X O *D sky130_fd_sc_hd__dlygate4sd3_1
*CAP
1 *617:D 0.000176262
2 *650:X 0.000176262
3 *617:D *583:S 1.05901e-05
4 *518:B1 *617:D 0
*RES
1 *650:X *617:D 30.1893 
*END

*D_NET *127 0.00172028
*CONN
*I *563:A1 I *D sky130_fd_sc_hd__mux2_1
*I *566:A0 I *D sky130_fd_sc_hd__mux2_1
*I *651:X O *D sky130_fd_sc_hd__dlygate4sd3_1
*CAP
1 *563:A1 0.000150919
2 *566:A0 0.00025836
3 *651:X 7.07112e-05
4 *127:10 0.00047999
5 *563:A1 *560:A1 5.33005e-05
6 *563:A1 *564:A1 3.34478e-06
7 *127:10 *138:12 0
8 *127:10 *162:12 5.01213e-05
9 *598:D *563:A1 1.40306e-05
10 *605:RESET_B *566:A0 6.38152e-05
11 *630:A *566:A0 5.52238e-05
12 *100:6 *566:A0 6.62898e-05
13 *101:53 *563:A1 0.000228558
14 *101:53 *566:A0 0.000225616
*RES
1 *651:X *127:10 19.6393 
2 *127:10 *566:A0 14.7643 
3 *127:10 *563:A1 12.7286 
*END

*D_NET *128 0.00198333
*CONN
*I *556:A1 I *D sky130_fd_sc_hd__mux2_1
*I *559:A0 I *D sky130_fd_sc_hd__mux2_1
*I *652:X O *D sky130_fd_sc_hd__dlygate4sd3_1
*CAP
1 *556:A1 0.000418686
2 *559:A0 0.0002356
3 *652:X 0
4 *128:4 0.000654286
5 *556:A1 *547:D 0
6 *556:A1 *148:6 4.88637e-05
7 *559:A0 *559:S 5.52238e-05
8 *559:A0 *148:6 0.000268409
9 *510:A *556:A1 0.000133447
10 *546:C1 *556:A1 0
11 *547:C *556:A1 0
12 *47:12 *556:A1 6.09572e-05
13 *87:20 *559:A0 9.59205e-05
14 *91:10 *556:A1 0
15 *98:75 *556:A1 1.19402e-05
*RES
1 *652:X *128:4 9.3 
2 *128:4 *559:A0 14.2821 
3 *128:4 *556:A1 25.7464 
*END

*D_NET *129 0.00351686
*CONN
*I *668:A I *D sky130_fd_sc_hd__dlygate4sd3_1
*I *568:A1 I *D sky130_fd_sc_hd__mux2_1
*I *679:A I *D sky130_fd_sc_hd__buf_2
*I *537:A I *D sky130_fd_sc_hd__xor2_1
*I *607:Q O *D sky130_fd_sc_hd__dfrtp_1
*CAP
1 *668:A 9.56909e-05
2 *568:A1 0.000146166
3 *679:A 6.81087e-05
4 *537:A 8.41041e-05
5 *607:Q 0
6 *129:36 0.000571579
7 *129:8 0.00070726
8 *129:4 0.000884769
9 *568:A1 *571:S 0.000230475
10 *129:36 *565:A1 0
11 *129:36 *654:A 0
12 num_to_send_o[0] *537:A 7.51838e-05
13 *537:B *537:A 0.000252623
14 *537:B *679:A 0.000126439
15 *538:C1 *537:A 1.00375e-05
16 *604:CLK *679:A 5.33005e-05
17 *607:D *537:A 3.51442e-05
18 *607:D *679:A 0.000117903
19 *607:RESET_B *129:8 2.23758e-05
20 *92:97 *537:A 0
21 *98:16 *668:A 0
22 *98:16 *129:36 0
23 *100:59 *129:36 3.5707e-05
*RES
1 *607:Q *129:4 9.3 
2 *129:4 *129:8 10.7857 
3 *129:8 *537:A 17.2643 
4 *129:8 *679:A 15.9786 
5 *129:4 *129:36 10.1429 
6 *129:36 *568:A1 15.9786 
7 *129:36 *668:A 15.4429 
*END

*D_NET *130 0.002809
*CONN
*I *558:A1 I *D sky130_fd_sc_hd__mux2_1
*I *561:A0 I *D sky130_fd_sc_hd__mux2_1
*I *653:X O *D sky130_fd_sc_hd__dlygate4sd3_1
*CAP
1 *558:A1 0.000569233
2 *561:A0 0.000496372
3 *653:X 0
4 *130:4 0.0010656
5 *558:A1 *172:8 6.65398e-05
6 *561:A0 *561:S 9.80173e-05
7 *561:A0 *169:12 5.52238e-05
8 *561:A0 *169:18 0.00040279
9 *561:A1 *561:A0 5.52238e-05
10 *633:A *558:A1 0
11 *107:12 *558:A1 0
*RES
1 *653:X *130:4 9.3 
2 *130:4 *561:A0 18.925 
3 *130:4 *558:A1 27.3893 
*END

*D_NET *131 0.000474604
*CONN
*I *568:A0 I *D sky130_fd_sc_hd__mux2_1
*I *654:X O *D sky130_fd_sc_hd__dlygate4sd3_1
*CAP
1 *568:A0 3.69179e-05
2 *654:X 3.69179e-05
3 *568:A0 *571:S 0.000229456
4 *99:117 *568:A0 0.000171313
*RES
1 *654:X *568:A0 20.7786 
*END

*D_NET *132 0.00150553
*CONN
*I *604:D I *D sky130_fd_sc_hd__dfrtp_1
*I *655:X O *D sky130_fd_sc_hd__dlygate4sd3_1
*CAP
1 *604:D 0.000537814
2 *655:X 0.000537814
3 *604:D *565:A1 2.61337e-05
4 *604:D *654:A 3.92854e-05
5 *604:D *158:6 7.17136e-05
6 *604:D *158:12 9.71197e-05
7 *604:RESET_B *604:D 2.51837e-05
8 *100:75 *604:D 0.000170464
*RES
1 *655:X *604:D 37.9929 
*END

*D_NET *133 0.000894599
*CONN
*I *556:A0 I *D sky130_fd_sc_hd__mux2_1
*I *581:A1 I *D sky130_fd_sc_hd__mux2_1
*I *656:X O *D sky130_fd_sc_hd__dlygate4sd3_1
*CAP
1 *556:A0 0
2 *581:A1 0.00019519
3 *656:X 5.38129e-05
4 *133:10 0.000249002
5 *581:A1 *515:B 0
6 *581:A1 *170:10 0.000355002
7 *510:A *133:10 4.15914e-05
8 *98:75 *133:10 0
*RES
1 *656:X *133:10 19.3357 
2 *133:10 *581:A1 13.1393 
3 *133:10 *556:A0 9.3 
*END

*D_NET *134 0.00126375
*CONN
*I *557:A0 I *D sky130_fd_sc_hd__mux2_1
*I *657:X O *D sky130_fd_sc_hd__dlygate4sd3_1
*CAP
1 *557:A0 0.000454127
2 *657:X 0.000454127
3 *557:A0 *657:A 8.92267e-06
4 *557:A0 *149:20 7.83587e-05
5 *524:B1 *557:A0 7.83659e-05
6 *591:CLK *557:A0 0.000189852
*RES
1 *657:X *557:A0 34.1 
*END

*D_NET *135 0.000388438
*CONN
*I *591:D I *D sky130_fd_sc_hd__dfrtp_1
*I *658:X O *D sky130_fd_sc_hd__dlygate4sd3_1
*CAP
1 *591:D 0.000179763
2 *658:X 0.000179763
3 *518:B1 *591:D 2.89114e-05
4 *524:A1 *591:D 0
5 *617:RESET_B *591:D 0
*RES
1 *658:X *591:D 30.3857 
*END

*D_NET *136 0.000129889
*CONN
*I *558:A0 I *D sky130_fd_sc_hd__mux2_1
*I *660:X O *D sky130_fd_sc_hd__dlygate4sd3_1
*CAP
1 *558:A0 5.099e-05
2 *660:X 5.099e-05
3 *558:A0 *172:8 2.79092e-05
4 *617:RESET_B *558:A0 0
*RES
1 *660:X *558:A0 28.6357 
*END

*D_NET *137 0.000866647
*CONN
*I *581:A0 I *D sky130_fd_sc_hd__mux2_1
*I *661:X O *D sky130_fd_sc_hd__dlygate4sd3_1
*CAP
1 *581:A0 0.000239878
2 *661:X 0.000239878
3 *581:A0 *553:A1 4.43698e-05
4 *581:A0 *155:14 0
5 *581:A0 *170:10 0.000140933
6 *581:A0 *173:14 7.58571e-05
7 *615:D *581:A0 0.000125731
8 *615:RESET_B *581:A0 0
9 *619:A *581:A0 0
*RES
1 *661:X *581:A0 33.3321 
*END

*D_NET *138 0.0019592
*CONN
*I *560:A1 I *D sky130_fd_sc_hd__mux2_1
*I *563:A0 I *D sky130_fd_sc_hd__mux2_1
*I *662:X O *D sky130_fd_sc_hd__dlygate4sd3_1
*CAP
1 *560:A1 0.00040001
2 *563:A0 0
3 *662:X 0.000169027
4 *138:12 0.000569037
5 *560:A1 *563:S 2.42662e-05
6 *560:A1 *564:A1 0.000344363
7 *560:A1 *149:49 0.000186662
8 *138:12 *163:25 7.6644e-05
9 *563:A1 *560:A1 5.33005e-05
10 *646:A *560:A1 0.000126639
11 *101:53 *138:12 9.25014e-06
12 *127:10 *138:12 0
*RES
1 *662:X *138:12 20.6929 
2 *138:12 *563:A0 9.3 
3 *138:12 *560:A1 17.675 
*END

*D_NET *139 0.00132185
*CONN
*I *560:A0 I *D sky130_fd_sc_hd__mux2_1
*I *663:X O *D sky130_fd_sc_hd__dlygate4sd3_1
*CAP
1 *560:A0 0.000594471
2 *663:X 0.000594471
3 *560:A0 *168:8 0
4 *595:D *560:A0 3.80953e-06
5 *596:CLK *560:A0 3.67257e-05
6 *596:RESET_B *560:A0 9.23759e-05
7 *101:10 *560:A0 0
*RES
1 *663:X *560:A0 34.9214 
*END

*D_NET *140 0.00361247
*CONN
*I *669:A I *D sky130_fd_sc_hd__dlygate4sd3_1
*I *569:A1 I *D sky130_fd_sc_hd__mux2_1
*I *539:A1 I *D sky130_fd_sc_hd__o221a_1
*I *538:A1 I *D sky130_fd_sc_hd__a221oi_1
*I *680:A I *D sky130_fd_sc_hd__buf_2
*I *608:Q O *D sky130_fd_sc_hd__dfrtp_1
*CAP
1 *669:A 0
2 *569:A1 0.000206602
3 *539:A1 5.56647e-05
4 *538:A1 0
5 *680:A 0.000326128
6 *608:Q 0
7 *140:47 0.000408019
8 *140:14 0.000610862
9 *140:8 0.000430313
10 *140:4 0.00029133
11 *539:A1 *147:25 1.59782e-05
12 *539:A1 *147:40 4.1331e-06
13 *569:A1 *525:B 0
14 *569:A1 *160:32 0.000177234
15 *680:A *148:37 0.000114102
16 *140:8 *147:25 5.9483e-05
17 *140:14 *538:B1 1.04232e-05
18 *140:47 *525:B 0
19 *530:C1 *569:A1 0
20 *538:A2 *140:14 0.000300158
21 *538:B2 *680:A 9.69522e-05
22 *538:C1 *680:A 0
23 *539:C1 *140:14 1.32552e-05
24 *569:A0 *569:A1 3.08664e-05
25 *60:12 *539:A1 5.52302e-05
26 *60:12 *140:14 1.02821e-05
27 *98:35 *140:47 0.000318467
28 *100:47 *140:8 2.66026e-05
29 *100:59 *539:A1 1.97381e-05
30 *100:59 *140:8 3.06406e-05
*RES
1 *608:Q *140:4 9.3 
2 *140:4 *140:8 6.75 
3 *140:8 *140:14 8.64286 
4 *140:14 *680:A 24.5679 
5 *140:14 *538:A1 9.3 
6 *140:8 *539:A1 15.0679 
7 *140:4 *140:47 3.83929 
8 *140:47 *569:A1 22.3179 
9 *140:47 *669:A 9.3 
*END

*D_NET *141 0.000618092
*CONN
*I *567:A0 I *D sky130_fd_sc_hd__mux2_1
*I *664:X O *D sky130_fd_sc_hd__dlygate4sd3_1
*CAP
1 *567:A0 0.000284395
2 *664:X 0.000284395
3 *567:A0 *567:A1 3.18676e-05
4 *567:A0 *567:S 1.74352e-05
*RES
1 *664:X *567:A0 23.2429 
*END

*D_NET *142 0.000267144
*CONN
*I *602:D I *D sky130_fd_sc_hd__dfrtp_1
*I *665:X O *D sky130_fd_sc_hd__dlygate4sd3_1
*CAP
1 *602:D 0.000120604
2 *665:X 0.000120604
3 *602:CLK *602:D 2.59355e-05
*RES
1 *665:X *602:D 20.3679 
*END

*D_NET *143 0.000431435
*CONN
*I *550:A1 I *D sky130_fd_sc_hd__mux2_1
*I *666:X O *D sky130_fd_sc_hd__dlygate4sd3_1
*CAP
1 *550:A1 3.11952e-05
2 *666:X 3.11952e-05
3 *550:A0 *550:A1 0.000184522
4 *103:42 *550:A1 0.000184522
*RES
1 *666:X *550:A1 20.3679 
*END

*D_NET *144 0.000408361
*CONN
*I *570:A0 I *D sky130_fd_sc_hd__mux2_1
*I *667:X O *D sky130_fd_sc_hd__dlygate4sd3_1
*CAP
1 *570:A0 0.000177871
2 *667:X 0.000177871
3 *570:A0 *147:14 0
4 *570:A0 *160:14 5.26184e-05
*RES
1 *667:X *570:A0 30.4929 
*END

*D_NET *145 0.000682651
*CONN
*I *571:A0 I *D sky130_fd_sc_hd__mux2_1
*I *668:X O *D sky130_fd_sc_hd__dlygate4sd3_1
*CAP
1 *571:A0 0.000341325
2 *668:X 0.000341325
3 *571:A0 *548:A 0
*RES
1 *668:X *571:A0 31.6357 
*END

*D_NET *146 0.000795225
*CONN
*I *572:A0 I *D sky130_fd_sc_hd__mux2_1
*I *669:X O *D sky130_fd_sc_hd__dlygate4sd3_1
*CAP
1 *572:A0 0.000289055
2 *669:X 0.000289055
3 *572:A0 *572:S 5.33005e-05
4 *572:A0 *147:25 0
5 *572:A1 *572:A0 5.33005e-05
6 *605:D *572:A0 2.89114e-05
7 *100:47 *572:A0 8.16036e-05
*RES
1 *669:X *572:A0 32.9571 
*END

*D_NET *147 0.00469224
*CONN
*I *570:A1 I *D sky130_fd_sc_hd__mux2_1
*I *538:B1 I *D sky130_fd_sc_hd__a221oi_1
*I *681:A I *D sky130_fd_sc_hd__buf_2
*I *539:B1 I *D sky130_fd_sc_hd__o221a_1
*I *573:A0 I *D sky130_fd_sc_hd__mux2_1
*I *609:Q O *D sky130_fd_sc_hd__dfrtp_1
*CAP
1 *570:A1 0.000131893
2 *538:B1 7.33455e-05
3 *681:A 0.00010038
4 *539:B1 0
5 *573:A0 0.000187331
6 *609:Q 0
7 *147:40 0.000562358
8 *147:25 0.000609662
9 *147:14 0.00084598
10 *147:4 0.000569512
11 *147:14 *160:14 0
12 *538:A2 *147:40 1.65169e-05
13 *539:A1 *147:25 1.59782e-05
14 *539:A1 *147:40 4.1331e-06
15 *539:B2 *147:40 5.83233e-05
16 *539:C1 *538:B1 0.000139907
17 *539:C1 *147:40 0.000307343
18 *570:A0 *147:14 0
19 *572:A0 *147:25 0
20 *573:A1 *147:14 2.37761e-05
21 *573:A1 *147:25 0.00050705
22 *573:A1 *147:40 7.29667e-05
23 *605:CLK *573:A0 0.000229969
24 *605:D *147:14 3.34295e-05
25 *605:D *147:25 2.28428e-05
26 *606:D *147:14 0
27 *609:RESET_B *570:A1 8.07313e-05
28 *609:RESET_B *147:14 2.89114e-05
29 *100:27 *147:14 0
30 *100:47 *147:25 0
31 *100:59 *147:40 0
32 *140:8 *147:25 5.9483e-05
33 *140:14 *538:B1 1.04232e-05
*RES
1 *609:Q *147:4 9.3 
2 *147:4 *147:14 16.375 
3 *147:14 *573:A0 11.8893 
4 *147:14 *147:25 11 
5 *147:25 *539:B1 13.8 
6 *147:25 *147:40 10.5 
7 *147:40 *681:A 11.0857 
8 *147:40 *538:B1 11.4964 
9 *147:4 *570:A1 11.8893 
*END

*D_NET *148 0.0156295
*CONN
*I *562:S I *D sky130_fd_sc_hd__mux2_1
*I *569:S I *D sky130_fd_sc_hd__mux2_1
*I *566:S I *D sky130_fd_sc_hd__mux2_1
*I *570:S I *D sky130_fd_sc_hd__mux2_1
*I *567:S I *D sky130_fd_sc_hd__mux2_1
*I *548:A I *D sky130_fd_sc_hd__inv_2
*I *568:S I *D sky130_fd_sc_hd__mux2_1
*I *572:S I *D sky130_fd_sc_hd__mux2_1
*I *573:S I *D sky130_fd_sc_hd__mux2_1
*I *559:S I *D sky130_fd_sc_hd__mux2_1
*I *634:X O *D sky130_fd_sc_hd__clkbuf_4
*CAP
1 *562:S 0
2 *569:S 0.000221414
3 *566:S 0
4 *570:S 0.000434898
5 *567:S 0.000214864
6 *548:A 0.00030073
7 *568:S 5.4569e-05
8 *572:S 3.04135e-05
9 *573:S 0.000200914
10 *559:S 1.40568e-05
11 *634:X 0.00020802
12 *148:97 0.000898295
13 *148:93 0.000381041
14 *148:91 0.000796777
15 *148:65 0.000744763
16 *148:37 0.000619607
17 *148:35 0.0017287
18 *148:21 0.00154614
19 *148:19 0.000441434
20 *148:6 0.00051119
21 *567:S *567:A1 1.33343e-05
22 *568:S *571:S 0.000140933
23 *148:19 *156:16 0.000282924
24 *148:19 *156:24 2.84494e-05
25 *148:21 *540:A 0.000433262
26 *148:21 *155:14 0.000182694
27 *148:35 *528:B 0.000444264
28 *148:91 *525:B 0
29 *148:91 *533:B 0
30 *148:91 *534:B 0
31 *148:91 *159:8 0
32 *148:93 *162:12 0
33 *148:97 *162:12 0
34 *529:A *148:35 2.30245e-05
35 *530:C1 *148:35 0
36 *530:C1 *148:91 0
37 *534:A *148:19 0
38 *536:B2 *148:21 0.000317082
39 *537:B *148:37 0
40 *537:B *148:65 0
41 *538:C1 *148:37 0
42 *556:A1 *148:6 4.88637e-05
43 *559:A0 *559:S 5.52238e-05
44 *559:A0 *148:6 0.000268409
45 *559:A1 *148:19 3.48235e-05
46 *562:A0 *148:19 4.89264e-05
47 *566:A1 *148:93 4.93196e-05
48 *567:A0 *567:S 1.74352e-05
49 *569:A0 *569:S 0.000399972
50 *571:A0 *548:A 0
51 *572:A0 *572:S 5.33005e-05
52 *572:A1 *573:S 5.41794e-05
53 *572:A1 *148:37 0.000177948
54 *573:A1 *573:S 5.75118e-05
55 *597:RESET_B *148:19 0.000291
56 *600:D *148:35 1.07593e-05
57 *601:D *148:97 0
58 *601:RESET_B *567:S 2.60456e-06
59 *601:RESET_B *148:97 8.66874e-05
60 *608:D *148:37 0
61 *630:A *148:93 0
62 *643:A *148:35 0.000123359
63 *665:A *567:S 0
64 *665:A *148:97 0
65 *680:A *148:37 0.000114102
66 *60:12 *148:91 0
67 *87:20 *559:S 2.89016e-05
68 *87:20 *148:6 0.000370109
69 *92:8 *148:91 5.85008e-05
70 *92:12 *148:35 1.34548e-05
71 *92:52 *573:S 0
72 *97:6 *148:35 0.000182881
73 *97:12 *148:35 0.000377516
74 *97:68 *148:21 0.000177361
75 *97:68 *148:35 5.52238e-05
76 *98:16 *548:A 0.000141245
77 *98:16 *148:37 0.000603613
78 *98:16 *148:65 0.000333666
79 *99:117 *568:S 7.48091e-05
80 *100:109 *148:97 0.000103993
81 *101:66 *148:91 0
82 *101:66 *148:93 0
*RES
1 *634:X *148:6 15.5857 
2 *148:6 *559:S 9.83571 
3 *148:6 *148:19 16.7143 
4 *148:19 *148:21 6.69643 
5 *148:21 *148:35 21.8696 
6 *148:35 *148:37 9.99107 
7 *148:37 *573:S 17.3179 
8 *148:37 *572:S 14.3357 
9 *148:35 *148:65 8.33036 
10 *148:65 *568:S 15.5857 
11 *148:65 *548:A 19.7286 
12 *148:21 *148:91 11.9107 
13 *148:91 *148:93 2.55357 
14 *148:93 *148:97 5.51786 
15 *148:97 *567:S 17.4964 
16 *148:97 *570:S 20.4964 
17 *148:93 *566:S 13.8 
18 *148:91 *569:S 18.8714 
19 *148:19 *562:S 9.3 
*END

*D_NET *149 0.0156209
*CONN
*I *554:S I *D sky130_fd_sc_hd__mux2_1
*I *582:S I *D sky130_fd_sc_hd__mux2_1
*I *553:S I *D sky130_fd_sc_hd__mux2_1
*I *583:S I *D sky130_fd_sc_hd__mux2_1
*I *558:S I *D sky130_fd_sc_hd__mux2_1
*I *561:S I *D sky130_fd_sc_hd__mux2_1
*I *560:S I *D sky130_fd_sc_hd__mux2_1
*I *564:S I *D sky130_fd_sc_hd__mux2_1
*I *563:S I *D sky130_fd_sc_hd__mux2_1
*I *557:S I *D sky130_fd_sc_hd__mux2_1
*I *635:X O *D sky130_fd_sc_hd__clkbuf_4
*CAP
1 *554:S 0.000176354
2 *582:S 0
3 *553:S 0.000654177
4 *583:S 0.000705096
5 *558:S 0.00059814
6 *561:S 6.12072e-05
7 *560:S 0
8 *564:S 0
9 *563:S 0.000419528
10 *557:S 0.000110615
11 *635:X 0
12 *149:117 0.000805848
13 *149:113 0.000549146
14 *149:49 0.00048436
15 *149:47 0.000447409
16 *149:39 0.000681321
17 *149:24 0.000505385
18 *149:20 0.00123984
19 *149:10 0.00129508
20 *149:6 0.000326639
21 *553:S *510:B 1.74352e-05
22 *553:S *547:D 0.000150611
23 *553:S *156:16 0.000227532
24 *553:S *174:6 5.52238e-05
25 *553:S *174:19 0.000135028
26 *554:S *157:44 0
27 *558:S *519:A 5.41794e-05
28 *558:S *523:B 4.46186e-06
29 *558:S *168:25 4.58976e-05
30 *558:S *168:29 0.000365516
31 *563:S *564:A1 0.00024416
32 *583:S *583:A1 5.71472e-05
33 *149:10 *555:S 4.46186e-06
34 *149:20 *171:10 0
35 *149:39 *541:A 6.19181e-05
36 *149:39 *169:18 0
37 *149:47 *543:B 0
38 *149:47 *166:10 0
39 *149:113 *555:S 6.50156e-05
40 *149:113 *582:A1 0
41 *149:113 *640:A 1.87955e-05
42 *513:A1 *554:S 3.57163e-05
43 *514:A *149:20 0.000389861
44 *514:A *149:24 6.73939e-05
45 *515:A *149:20 0.00010061
46 *515:A *149:113 0
47 *517:A *149:10 0.000121573
48 *517:A *149:20 4.8466e-05
49 *518:B1 *149:20 0
50 *518:C1 *149:10 0
51 *522:A *149:24 0.000113277
52 *522:A *149:39 1.25366e-05
53 *524:A1 *149:20 0
54 *524:B1 *557:S 0.00012501
55 *524:B1 *149:20 0.000129733
56 *524:B1 *149:24 7.17932e-05
57 *544:A1 *149:39 3.93986e-05
58 *545:A2 *583:S 0.000255055
59 *545:A2 *149:20 9.60939e-05
60 *545:B1 *149:20 0.000317602
61 *546:D1 *557:S 5.28778e-05
62 *553:A0 *553:S 5.17614e-05
63 *557:A0 *149:20 7.83587e-05
64 *560:A1 *563:S 2.42662e-05
65 *560:A1 *149:49 0.000186662
66 *561:A0 *561:S 9.80173e-05
67 *561:A1 *561:S 1.69961e-05
68 *561:A1 *149:47 0.000198352
69 *564:A0 *149:47 7.77751e-05
70 *587:D *553:S 5.33005e-05
71 *588:RESET_B *149:113 4.02462e-05
72 *589:CLK *553:S 0.000358971
73 *589:CLK *554:S 0.000212153
74 *589:CLK *149:117 0.00025338
75 *592:D *558:S 0.00040279
76 *616:CLK *553:S 9.51514e-06
77 *616:D *149:113 0
78 *616:RESET_B *553:S 2.95595e-05
79 *617:CLK *149:20 8.08376e-05
80 *617:D *583:S 1.05901e-05
81 *636:A *553:S 0.000148903
82 *638:A *553:S 0.000140471
83 *650:A *583:S 8.08256e-05
84 *93:77 *149:39 0
85 *93:77 *149:47 0
86 *95:51 *553:S 0.0001827
87 *98:92 *149:10 2.19778e-05
88 *98:92 *149:113 4.25716e-05
89 *98:120 *554:S 0.000153054
90 *98:120 *149:113 5.48106e-05
91 *101:10 *149:39 6.75007e-05
*RES
1 *635:X *149:6 13.8 
2 *149:6 *149:10 6.75 
3 *149:10 *149:20 16.9643 
4 *149:20 *149:24 3.34821 
5 *149:24 *557:S 16.4339 
6 *149:24 *149:39 9.63393 
7 *149:39 *149:47 16.5 
8 *149:47 *149:49 1.76786 
9 *149:49 *563:S 15.9429 
10 *149:49 *564:S 9.3 
11 *149:47 *560:S 9.3 
12 *149:39 *561:S 10.6571 
13 *149:20 *558:S 34.8893 
14 *149:10 *583:S 19.6214 
15 *149:6 *149:113 9.48214 
16 *149:113 *149:117 3.01786 
17 *149:117 *553:S 33.6571 
18 *149:117 *582:S 9.3 
19 *149:113 *554:S 22.425 
*END

*D_NET *150 0.0148408
*CONN
*I *555:S I *D sky130_fd_sc_hd__mux2_1
*I *635:A I *D sky130_fd_sc_hd__clkbuf_4
*I *556:S I *D sky130_fd_sc_hd__mux2_1
*I *581:S I *D sky130_fd_sc_hd__mux2_1
*I *565:S I *D sky130_fd_sc_hd__mux2_1
*I *571:S I *D sky130_fd_sc_hd__mux2_1
*I *634:A I *D sky130_fd_sc_hd__clkbuf_4
*I *636:X O *D sky130_fd_sc_hd__buf_2
*CAP
1 *555:S 0.000611277
2 *635:A 3.64675e-05
3 *556:S 0.000182314
4 *581:S 0
5 *565:S 0.000600881
6 *571:S 0.000626358
7 *634:A 0.000135895
8 *636:X 0.000612562
9 *150:97 0.000726282
10 *150:77 0.000312946
11 *150:45 0.00165091
12 *150:43 0.000867388
13 *150:24 0.00075204
14 *150:12 0.000994158
15 *555:S *511:B 4.17014e-05
16 *555:S *555:A1 3.18676e-05
17 *556:S *170:10 0.000353598
18 *565:S *627:A 0.000170842
19 *150:12 *582:A1 0.000287849
20 *150:12 *157:42 5.74499e-06
21 *150:43 *505:B 0.000139907
22 *150:43 *173:14 4.38128e-05
23 *150:45 *173:14 9.90431e-05
24 *150:77 *553:A1 6.19181e-05
25 *150:77 *156:16 0.000182329
26 *150:77 *173:14 0.000121606
27 *507:A *556:S 0
28 *513:A2 *555:S 0.000144773
29 *513:B1 *555:S 1.21289e-05
30 *513:B2 *555:S 0.000327505
31 *515:A *555:S 1.69115e-05
32 *515:A *150:43 9.41642e-05
33 *518:A1 *150:97 2.15245e-05
34 *518:B1 *635:A 3.99614e-06
35 *518:B1 *150:97 5.41609e-05
36 *518:C1 *555:S 4.78056e-05
37 *527:A *565:S 0.000143373
38 *530:B2 *565:S 9.7413e-06
39 *545:A1 *150:43 0.000128926
40 *545:A3 *150:24 0
41 *546:A1 *150:12 0
42 *546:A1 *150:24 1.02504e-05
43 *546:A2 *150:24 0.000356028
44 *546:A2 *150:97 0.00026353
45 *546:B1 *150:24 1.15281e-05
46 *546:C1 *634:A 0.000197977
47 *546:C1 *150:24 7.20161e-05
48 *546:D1 *634:A 0
49 *546:D1 *150:24 8.02593e-05
50 *547:B *150:43 0.000183713
51 *565:A0 *565:S 9.83442e-05
52 *568:A0 *571:S 0.000229456
53 *568:A1 *571:S 0.000230475
54 *568:S *571:S 0.000140933
55 *588:D *150:12 0.000183377
56 *588:RESET_B *150:12 0
57 *590:D *556:S 0.000139913
58 *616:D *150:12 0.000121446
59 *636:A *150:12 3.69047e-06
60 *636:A *150:24 0.000149904
61 *641:A *150:12 0
62 *672:A *150:12 0
63 *87:20 *634:A 5.52302e-05
64 *98:88 *555:S 0.000225616
65 *99:14 *571:S 4.24382e-05
66 *99:27 *571:S 1.07719e-05
67 *99:27 *150:45 5.12966e-05
68 *99:40 *150:45 9.03141e-05
69 *99:53 *150:43 1.15281e-05
70 *99:53 *150:45 4.9773e-05
71 *99:55 *150:43 2.34059e-05
72 *99:75 *150:43 0.000351269
73 *99:117 *571:S 0.000732146
74 *149:10 *555:S 4.46186e-06
75 *149:113 *555:S 6.50156e-05
*RES
1 *636:X *150:12 30.3 
2 *150:12 *150:24 12.1607 
3 *150:24 *634:A 16.8893 
4 *150:24 *150:43 12.7679 
5 *150:43 *150:45 7.51786 
6 *150:45 *571:S 23.3 
7 *150:45 *565:S 28.4429 
8 *150:43 *150:77 13.375 
9 *150:77 *581:S 9.3 
10 *150:77 *556:S 14.1036 
11 *150:12 *150:97 2.58929 
12 *150:97 *635:A 10.0321 
13 *150:97 *555:S 31.2107 
*END

*D_NET *151 0.00416183
*CONN
*I *666:A I *D sky130_fd_sc_hd__dlygate4sd3_1
*I *577:C1 I *D sky130_fd_sc_hd__o211a_1
*I *575:A I *D sky130_fd_sc_hd__or3_1
*I *574:B1 I *D sky130_fd_sc_hd__o21ai_1
*I *611:Q O *D sky130_fd_sc_hd__dfrtp_1
*CAP
1 *666:A 0.000788131
2 *577:C1 2.24424e-05
3 *575:A 0
4 *574:B1 2.7979e-05
5 *611:Q 0
6 *151:20 0.000346632
7 *151:12 0.000554023
8 *151:4 0.00100106
9 *574:B1 *574:A1 0.000105163
10 *577:C1 *639:A 2.48152e-05
11 *666:A *627:A 0
12 *666:A *628:A 1.62621e-05
13 *666:A *157:17 0
14 *151:12 *639:A 2.12451e-05
15 *151:20 *577:A1 3.28804e-05
16 *151:20 *639:A 4.43256e-05
17 *575:C *574:B1 0.000186662
18 *576:B *151:20 5.48581e-05
19 *577:A2 *151:20 9.31209e-05
20 *578:B *151:20 0
21 *58:12 *151:20 7.90803e-05
22 *94:14 *666:A 1.21258e-05
23 *98:75 *151:12 0.000101149
24 *98:75 *151:20 0
25 *103:42 *666:A 0.000230431
26 *103:42 *151:12 0.000103267
27 *118:18 *666:A 0.000316184
28 *118:24 *151:12 0
*RES
1 *611:Q *151:4 9.3 
2 *151:4 *151:12 13.3393 
3 *151:12 *151:20 14.8571 
4 *151:20 *574:B1 11.0679 
5 *151:20 *575:A 9.3 
6 *151:12 *577:C1 9.90714 
7 *151:4 *666:A 30.425 
*END

*D_NET *152 0.00238055
*CONN
*I *578:A_N I *D sky130_fd_sc_hd__and2b_1
*I *577:B1 I *D sky130_fd_sc_hd__o211a_1
*I *639:A I *D sky130_fd_sc_hd__dlygate4sd3_1
*I *612:Q O *D sky130_fd_sc_hd__dfrtp_1
*CAP
1 *578:A_N 5.65934e-05
2 *577:B1 0
3 *639:A 4.35259e-05
4 *612:Q 0.000378185
5 *152:18 0.00035883
6 *152:10 0.000750082
7 *152:18 *577:A1 5.80706e-06
8 *552:S *152:18 0
9 *577:A2 *639:A 3.57366e-05
10 *577:C1 *639:A 2.48152e-05
11 *579:A *578:A_N 6.05161e-06
12 *580:B *578:A_N 5.03772e-05
13 *612:CLK *152:10 1.92905e-05
14 *612:D *152:10 0
15 *612:RESET_B *152:10 9.62151e-05
16 *613:D *152:10 0
17 *613:D *152:18 0
18 *58:12 *152:18 8.47155e-05
19 *94:27 *152:18 0.000200413
20 *94:105 *152:10 6.4433e-05
21 *98:75 *639:A 0.000139907
22 *118:18 *152:18 0
23 *151:12 *639:A 2.12451e-05
24 *151:20 *639:A 4.43256e-05
*RES
1 *612:Q *152:10 18.9607 
2 *152:10 *152:18 10.8571 
3 *152:18 *639:A 11.0857 
4 *152:18 *577:B1 9.3 
5 *152:10 *578:A_N 14.7464 
*END

*D_NET *153 0.000676928
*CONN
*I *659:A I *D sky130_fd_sc_hd__dlygate4sd3_1
*I *613:Q O *D sky130_fd_sc_hd__dfrtp_1
*CAP
1 *659:A 0.000289295
2 *613:Q 0.000289295
3 *603:CLK *659:A 9.83388e-05
4 *603:D *659:A 0
5 *94:103 *659:A 0
*RES
1 *613:Q *659:A 31.85 
*END

*D_NET *154 0.00256916
*CONN
*I *577:A1 I *D sky130_fd_sc_hd__o211a_1
*I *574:A1 I *D sky130_fd_sc_hd__o21ai_1
*I *575:B I *D sky130_fd_sc_hd__or3_1
*I *614:Q O *D sky130_fd_sc_hd__dfrtp_1
*CAP
1 *577:A1 8.26074e-05
2 *574:A1 0.000267619
3 *575:B 3.24554e-05
4 *614:Q 0.000530516
5 *154:14 0.000344225
6 *154:12 0.000657273
7 *154:12 *628:A 8.55687e-05
8 *551:A0 *154:12 5.74499e-06
9 *551:A1 *154:12 3.17067e-05
10 *574:B1 *574:A1 0.000105163
11 *575:C *574:A1 0.000113356
12 *575:C *575:B 1.33343e-05
13 *584:D *154:12 0
14 *585:D *154:12 0.000103253
15 *58:12 *577:A1 2.84494e-05
16 *94:27 *577:A1 1.27784e-05
17 *94:27 *154:12 0
18 *94:31 *154:12 0
19 *98:8 *154:12 5.52238e-05
20 *98:75 *577:A1 5.33882e-05
21 *103:42 *154:12 7.80714e-06
22 *151:20 *577:A1 3.28804e-05
23 *152:18 *577:A1 5.80706e-06
*RES
1 *614:Q *154:12 26.6929 
2 *154:12 *154:14 0.535714 
3 *154:14 *575:B 9.83571 
4 *154:14 *574:A1 14.8893 
5 *154:12 *577:A1 20.2464 
*END

*D_NET *155 0.0057243
*CONN
*I *629:A I *D sky130_fd_sc_hd__clkbuf_4
*I *540:A I *D sky130_fd_sc_hd__xor2_1
*I *535:A I *D sky130_fd_sc_hd__or2_1
*I *584:Q O *D sky130_fd_sc_hd__dfrtp_1
*CAP
1 *629:A 0.000182035
2 *540:A 0.000179569
3 *535:A 0
4 *584:Q 4.36033e-05
5 *155:14 0.000726397
6 *155:8 0.000772466
7 *540:A *520:A 0.000139913
8 *629:A *627:A 0.000260352
9 *629:A *156:16 0.000100988
10 *629:A *176:12 0.000150618
11 *155:14 *534:B 1.76135e-05
12 *155:14 *627:A 0.00126241
13 *155:14 *161:10 0.000115639
14 *526:A *155:14 0.000150611
15 *534:A *155:14 0
16 *562:A1 *540:A 0.000360894
17 *581:A0 *155:14 0
18 *585:RESET_B *629:A 0.000172416
19 *594:D *155:14 0
20 *597:D *540:A 2.44318e-05
21 *597:D *155:14 0.000174905
22 *615:RESET_B *155:14 0.000133797
23 *102:10 *629:A 3.50931e-05
24 *102:14 *629:A 9.69119e-06
25 *102:14 *155:14 4.16021e-05
26 *102:33 *155:8 5.33005e-05
27 *148:21 *540:A 0.000433262
28 *148:21 *155:14 0.000182694
*RES
1 *584:Q *155:8 14.3357 
2 *155:8 *155:14 22.4821 
3 *155:14 *535:A 9.3 
4 *155:14 *540:A 15.5857 
5 *155:8 *629:A 20.3893 
*END

*D_NET *156 0.0126937
*CONN
*I *628:A I *D sky130_fd_sc_hd__clkbuf_4
*I *520:A I *D sky130_fd_sc_hd__nand2_1
*I *542:A I *D sky130_fd_sc_hd__or2_1
*I *519:A I *D sky130_fd_sc_hd__or2_1
*I *541:A I *D sky130_fd_sc_hd__nand2_1
*I *585:Q O *D sky130_fd_sc_hd__dfrtp_1
*CAP
1 *628:A 0.000540389
2 *520:A 0.000458767
3 *542:A 0
4 *519:A 0.000350727
5 *541:A 5.97797e-05
6 *585:Q 0
7 *156:28 0.00110047
8 *156:24 0.000915234
9 *156:16 0.00228761
10 *156:6 0.00214395
11 *519:A *523:B 5.98293e-05
12 *519:A *168:25 0
13 *519:A *169:18 2.19778e-05
14 *520:A *520:B 1.97695e-05
15 *520:A *523:B 3.31648e-05
16 *541:A *169:18 4.57352e-05
17 *156:16 *510:B 5.05429e-05
18 *156:16 *553:A1 0
19 *156:16 *176:12 1.58163e-05
20 *523:A *520:A 5.71472e-05
21 *524:B2 *520:A 0.00010096
22 *534:A *156:16 0
23 *536:A2 *156:24 1.46576e-05
24 *536:B1 *156:24 0
25 *536:B1 *156:28 0
26 *536:B2 *156:24 4.25809e-05
27 *540:A *520:A 0.000139913
28 *544:A2 *156:28 0.000702563
29 *544:C1 *520:A 4.62969e-05
30 *546:D1 *156:28 3.14078e-05
31 *550:A0 *628:A 2.16315e-05
32 *550:A0 *156:16 3.11417e-05
33 *550:S *628:A 0.000141734
34 *551:A0 *628:A 0.000271352
35 *551:S *628:A 0.000274288
36 *553:A0 *156:16 8.71761e-05
37 *553:S *156:16 0.000227532
38 *558:S *519:A 5.41794e-05
39 *585:RESET_B *156:16 5.76608e-05
40 *587:D *156:16 0.000128146
41 *592:CLK *519:A 7.20729e-05
42 *592:CLK *156:28 2.15245e-05
43 *620:A *156:24 2.35926e-05
44 *629:A *156:16 0.000100988
45 *666:A *628:A 1.62621e-05
46 *47:12 *156:24 0.000271352
47 *47:12 *156:28 2.24763e-05
48 *91:10 *156:16 0.000445981
49 *91:10 *156:24 0.000115072
50 *91:36 *156:16 0.000236041
51 *97:98 *520:A 9.05645e-05
52 *97:104 *520:A 9.22103e-06
53 *99:8 *156:16 9.23828e-06
54 *101:118 *519:A 1.76135e-05
55 *103:42 *628:A 6.63404e-05
56 *148:19 *156:16 0.000282924
57 *148:19 *156:24 2.84494e-05
58 *149:39 *541:A 6.19181e-05
59 *150:77 *156:16 0.000182329
60 *154:12 *628:A 8.55687e-05
*RES
1 *585:Q *156:6 13.8 
2 *156:6 *156:16 40.6071 
3 *156:16 *156:24 10.375 
4 *156:24 *156:28 9.89286 
5 *156:28 *541:A 19.9429 
6 *156:28 *519:A 24.3536 
7 *156:24 *542:A 9.3 
8 *156:16 *520:A 22.5679 
9 *156:6 *628:A 25.2464 
*END

*D_NET *157 0.0132791
*CONN
*I *512:A I *D sky130_fd_sc_hd__or2_1
*I *511:A I *D sky130_fd_sc_hd__nand2_1
*I *506:A I *D sky130_fd_sc_hd__xor2_1
*I *627:A I *D sky130_fd_sc_hd__buf_2
*I *552:A0 I *D sky130_fd_sc_hd__mux2_1
*I *586:Q O *D sky130_fd_sc_hd__dfrtp_2
*CAP
1 *512:A 0.000172905
2 *511:A 0
3 *506:A 0.000234249
4 *627:A 0.00110947
5 *552:A0 0.000886076
6 *586:Q 0
7 *157:44 0.000513978
8 *157:42 0.00194617
9 *157:17 0.00283203
10 *157:4 0.0011151
11 *506:A *506:B 5.52238e-05
12 *512:A *671:A 0.000186669
13 *157:42 *510:B 1.38323e-05
14 *157:42 *177:12 2.31791e-05
15 *157:44 *177:12 0.000153054
16 *510:A *157:42 0.000183726
17 *513:A2 *506:A 1.02504e-05
18 *513:A2 *157:44 0.000304929
19 *513:B2 *506:A 0
20 *513:B2 *157:44 0
21 *530:B1 *627:A 0
22 *545:A2 *506:A 0
23 *546:A1 *157:42 4.3049e-05
24 *546:A2 *506:A 0
25 *549:A_N *157:42 0.00010096
26 *554:S *157:44 0
27 *555:A0 *506:A 0
28 *565:S *627:A 0.000170842
29 *580:A *552:A0 1.00733e-05
30 *586:D *552:A0 0.000100124
31 *586:RESET_B *552:A0 3.75946e-05
32 *588:D *157:42 5.41609e-05
33 *589:RESET_B *157:44 0.000103285
34 *597:CLK *627:A 3.006e-05
35 *622:A *157:42 0.00083311
36 *629:A *627:A 0.000260352
37 *636:A *157:42 0.000405733
38 *666:A *627:A 0
39 *666:A *157:17 0
40 *672:A *157:42 7.77751e-05
41 *92:8 *627:A 1.00399e-05
42 *98:75 *157:42 3.14078e-05
43 *98:92 *506:A 0
44 *98:120 *506:A 0
45 *98:120 *157:44 0
46 *102:8 *627:A 0
47 *102:10 *627:A 0
48 *102:71 *627:A 0
49 *102:71 *157:17 0
50 *102:87 *157:17 0
51 *106:14 *552:A0 1.58213e-06
52 *150:12 *157:42 5.74499e-06
53 *155:14 *627:A 0.00126241
*RES
1 *586:Q *157:4 9.3 
2 *157:4 *552:A0 20.3179 
3 *157:4 *157:17 8.26786 
4 *157:17 *627:A 39.8357 
5 *157:17 *157:42 37.3393 
6 *157:42 *157:44 7.10714 
7 *157:44 *506:A 17.6036 
8 *157:44 *511:A 13.8 
9 *157:42 *512:A 17.2107 
*END

*D_NET *158 0.00323481
*CONN
*I *654:A I *D sky130_fd_sc_hd__dlygate4sd3_1
*I *565:A1 I *D sky130_fd_sc_hd__mux2_1
*I *526:B I *D sky130_fd_sc_hd__or2_1
*I *527:B I *D sky130_fd_sc_hd__nand2_1
*I *604:Q O *D sky130_fd_sc_hd__dfrtp_1
*CAP
1 *654:A 8.6599e-05
2 *565:A1 0.00048309
3 *526:B 2.51595e-05
4 *527:B 0
5 *604:Q 9.54407e-05
6 *158:26 0.000569689
7 *158:12 0.000396986
8 *158:6 0.000467268
9 *565:A1 *529:B 7.43578e-06
10 *530:A1 *526:B 5.9232e-05
11 *530:A1 *158:12 2.8035e-05
12 *530:A2 *158:12 0.000143018
13 *530:B2 *565:A1 8.55416e-05
14 *530:B2 *158:12 6.2862e-05
15 *530:C1 *565:A1 0
16 *530:C1 *158:12 1.83203e-05
17 *565:A0 *565:A1 2.84026e-05
18 *600:CLK *565:A1 7.85767e-05
19 *600:D *565:A1 0.000149554
20 *604:D *565:A1 2.61337e-05
21 *604:D *654:A 3.92854e-05
22 *604:D *158:6 7.17136e-05
23 *604:D *158:12 9.71197e-05
24 *87:20 *526:B 3.14078e-05
25 *87:20 *158:12 0.000138606
26 *99:14 *654:A 0
27 *100:59 *565:A1 0
28 *100:75 *565:A1 0
29 *100:75 *158:12 4.53295e-05
30 *129:36 *565:A1 0
31 *129:36 *654:A 0
*RES
1 *604:Q *158:6 10.6571 
2 *158:6 *158:12 7.85714 
3 *158:12 *527:B 9.3 
4 *158:12 *526:B 10.2464 
5 *158:6 *158:26 4.5 
6 *158:26 *565:A1 22.925 
7 *158:26 *654:A 15.4429 
*END

*D_NET *159 0.000854278
*CONN
*I *525:B I *D sky130_fd_sc_hd__xor2_1
*I *644:A I *D sky130_fd_sc_hd__dlygate4sd3_1
*I *605:Q O *D sky130_fd_sc_hd__dfrtp_1
*CAP
1 *525:B 0.000274965
2 *644:A 0
3 *605:Q 0.000115867
4 *159:8 0.000390832
5 *159:8 *160:32 0
6 *530:C1 *525:B 2.82217e-05
7 *566:A1 *159:8 0
8 *569:A1 *525:B 0
9 *98:42 *525:B 4.43915e-05
10 *140:47 *525:B 0
11 *148:91 *525:B 0
12 *148:91 *159:8 0
*RES
1 *605:Q *159:8 15.7464 
2 *159:8 *644:A 13.8 
3 *159:8 *525:B 17.9429 
*END

*D_NET *160 0.00527042
*CONN
*I *529:B I *D sky130_fd_sc_hd__nand2_1
*I *528:B I *D sky130_fd_sc_hd__or2_1
*I *567:A1 I *D sky130_fd_sc_hd__mux2_1
*I *667:A I *D sky130_fd_sc_hd__dlygate4sd3_1
*I *606:Q O *D sky130_fd_sc_hd__dfrtp_1
*CAP
1 *529:B 0.000120476
2 *528:B 0.000182401
3 *567:A1 0.000266816
4 *667:A 0
5 *606:Q 0.000100289
6 *160:32 0.00104636
7 *160:14 0.000619212
8 *160:8 0.00119617
9 *529:A *529:B 1.18451e-05
10 *530:C1 *160:32 0
11 *565:A1 *529:B 7.43578e-06
12 *567:A0 *567:A1 3.18676e-05
13 *567:S *567:A1 1.33343e-05
14 *569:A1 *160:32 0.000177234
15 *570:A0 *160:14 5.26184e-05
16 *600:CLK *529:B 3.34366e-05
17 *600:D *529:B 6.74911e-05
18 *601:CLK *160:14 0
19 *601:CLK *160:32 0
20 *601:D *160:32 0
21 *605:RESET_B *160:32 1.97381e-05
22 *609:RESET_B *160:14 0
23 *609:RESET_B *160:32 0
24 *643:A *528:B 0.000225989
25 *665:A *567:A1 0.000103127
26 *665:A *160:14 0
27 *92:12 *528:B 0.000152836
28 *92:23 *529:B 0.000126446
29 *92:59 *160:8 5.41494e-05
30 *97:12 *528:B 4.42845e-05
31 *97:12 *529:B 9.69119e-06
32 *97:12 *160:32 2.19684e-05
33 *97:16 *528:B 0.000140933
34 *100:27 *160:32 0
35 *100:47 *160:32 0
36 *100:59 *529:B 0
37 *100:59 *160:32 0
38 *147:14 *160:14 0
39 *148:35 *528:B 0.000444264
40 *159:8 *160:32 0
*RES
1 *606:Q *160:8 15.1571 
2 *160:8 *160:14 10.75 
3 *160:14 *667:A 9.3 
4 *160:14 *567:A1 14.3536 
5 *160:8 *160:32 13.5357 
6 *160:32 *528:B 20.5143 
7 *160:32 *529:B 16.8893 
*END

*D_NET *161 0.00223613
*CONN
*I *642:A I *D sky130_fd_sc_hd__dlygate4sd3_1
*I *535:B I *D sky130_fd_sc_hd__or2_1
*I *534:B I *D sky130_fd_sc_hd__nand2_1
*I *600:Q O *D sky130_fd_sc_hd__dfrtp_1
*CAP
1 *642:A 3.73403e-05
2 *535:B 0
3 *534:B 0.000169984
4 *600:Q 5.67089e-05
5 *161:10 0.000295371
6 *161:6 0.000219435
7 *597:D *161:10 0.000101545
8 *607:RESET_B *642:A 4.08637e-05
9 *607:RESET_B *161:6 0.00018077
10 *607:RESET_B *161:10 9.0573e-05
11 *620:A *534:B 0.000185643
12 *47:12 *534:B 9.7659e-05
13 *100:85 *642:A 5.41609e-05
14 *100:85 *161:6 6.09773e-05
15 *101:66 *534:B 0.000242927
16 *101:66 *161:10 0.000224592
17 *119:10 *642:A 4.43256e-05
18 *148:91 *534:B 0
19 *155:14 *534:B 1.76135e-05
20 *155:14 *161:10 0.000115639
*RES
1 *600:Q *161:6 11.0679 
2 *161:6 *161:10 8.875 
3 *161:10 *534:B 18.7286 
4 *161:10 *535:B 13.8 
5 *161:6 *642:A 10.6571 
*END

*D_NET *162 0.00145689
*CONN
*I *651:A I *D sky130_fd_sc_hd__dlygate4sd3_1
*I *533:B I *D sky130_fd_sc_hd__xor2_1
*I *601:Q O *D sky130_fd_sc_hd__dfrtp_1
*CAP
1 *651:A 0
2 *533:B 9.91604e-05
3 *601:Q 0.000437872
4 *162:12 0.000537033
5 *162:12 *163:25 0
6 *598:CLK *162:12 6.97972e-05
7 *598:D *162:12 0
8 *601:RESET_B *162:12 0
9 *630:A *162:12 1.65558e-05
10 *100:109 *162:12 0
11 *101:53 *162:12 0
12 *101:66 *533:B 0.000202842
13 *101:66 *162:12 4.35048e-05
14 *127:10 *162:12 5.01213e-05
15 *148:91 *533:B 0
16 *148:93 *162:12 0
17 *148:97 *162:12 0
*RES
1 *601:Q *162:12 26.5679 
2 *162:12 *533:B 20.8536 
3 *162:12 *651:A 9.3 
*END

*D_NET *163 0.0035827
*CONN
*I *564:A1 I *D sky130_fd_sc_hd__mux2_1
*I *531:B I *D sky130_fd_sc_hd__or2_1
*I *532:B I *D sky130_fd_sc_hd__nand2_1
*I *664:A I *D sky130_fd_sc_hd__dlygate4sd3_1
*I *602:Q O *D sky130_fd_sc_hd__dfrtp_1
*CAP
1 *564:A1 0.00014627
2 *531:B 0.000124913
3 *532:B 0
4 *664:A 0.000226059
5 *602:Q 0.000165945
6 *163:25 0.000376592
7 *163:21 0.000579928
8 *163:8 0.000573983
9 *163:25 *165:10 0
10 *163:25 *165:21 0
11 *532:A *531:B 5.7661e-06
12 *536:A1 *531:B 5.71472e-05
13 *536:C1 *163:25 0
14 *560:A1 *564:A1 0.000344363
15 *563:A1 *564:A1 3.34478e-06
16 *563:S *564:A1 0.00024416
17 *598:CLK *664:A 0
18 *598:CLK *163:8 9.16074e-05
19 *598:D *664:A 1.00375e-05
20 *598:RESET_B *664:A 7.6644e-05
21 *598:RESET_B *163:21 2.24646e-05
22 *599:D *564:A1 1.0562e-05
23 *599:D *163:21 0
24 *599:D *163:25 3.31397e-05
25 *97:68 *163:25 4.1331e-06
26 *97:72 *531:B 8.17614e-05
27 *101:31 *163:8 5.33005e-05
28 *101:53 *163:21 0.000262147
29 *101:53 *163:25 1.17921e-05
30 *138:12 *163:25 7.6644e-05
31 *162:12 *163:25 0
*RES
1 *602:Q *163:8 15.9786 
2 *163:8 *664:A 17.8714 
3 *163:8 *163:21 4.15179 
4 *163:21 *163:25 9.33036 
5 *163:25 *532:B 9.3 
6 *163:25 *531:B 11.9071 
7 *163:21 *564:A1 18.9875 
*END

*D_NET *164 0.000881586
*CONN
*I *647:A I *D sky130_fd_sc_hd__dlygate4sd3_1
*I *540:B I *D sky130_fd_sc_hd__xor2_1
*I *597:Q O *D sky130_fd_sc_hd__dfrtp_1
*CAP
1 *647:A 2.4041e-05
2 *540:B 0.000114445
3 *597:Q 0.00017685
4 *164:8 0.000315336
5 *591:RESET_B *647:A 1.92905e-05
6 *591:RESET_B *164:8 7.31177e-05
7 *47:12 *540:B 0
8 *91:10 *540:B 0.000103275
9 *124:8 *164:8 5.52302e-05
*RES
1 *597:Q *164:8 12.6214 
2 *164:8 *540:B 20.8536 
3 *164:8 *647:A 9.83571 
*END

*D_NET *165 0.00360491
*CONN
*I *542:B I *D sky130_fd_sc_hd__or2_1
*I *541:B I *D sky130_fd_sc_hd__nand2_1
*I *662:A I *D sky130_fd_sc_hd__dlygate4sd3_1
*I *598:Q O *D sky130_fd_sc_hd__dfrtp_1
*CAP
1 *542:B 0.000106979
2 *541:B 0.000424946
3 *662:A 5.64921e-05
4 *598:Q 0.000643673
5 *165:21 0.000677654
6 *165:10 0.000845894
7 *542:B *543:B 0
8 *165:10 *543:B 0
9 *165:10 *166:10 0
10 *165:21 *543:B 0
11 *544:A1 *541:B 7.77652e-05
12 *564:A0 *165:10 0
13 *599:D *662:A 1.92905e-05
14 *599:D *165:10 0.00018567
15 *621:A *541:B 9.90431e-05
16 *621:A *542:B 5.10822e-05
17 *646:A *165:10 0
18 *91:10 *542:B 1.76135e-05
19 *93:10 *541:B 8.55687e-05
20 *97:68 *542:B 0
21 *97:85 *541:B 0.000313235
22 *163:25 *165:10 0
23 *163:25 *165:21 0
*RES
1 *598:Q *165:10 23.6036 
2 *165:10 *662:A 14.7464 
3 *165:10 *165:21 2.55357 
4 *165:21 *541:B 22.9607 
5 *165:21 *542:B 15.7464 
*END

*D_NET *166 0.00215411
*CONN
*I *543:B I *D sky130_fd_sc_hd__xor2_1
*I *645:A I *D sky130_fd_sc_hd__dlygate4sd3_1
*I *599:Q O *D sky130_fd_sc_hd__dfrtp_1
*CAP
1 *543:B 0.000266709
2 *645:A 2.3671e-05
3 *599:Q 0.000477953
4 *166:10 0.000768333
5 *542:B *543:B 0
6 *564:A0 *645:A 5.52302e-05
7 *564:A0 *166:10 1.3142e-05
8 *646:A *166:10 0.000125731
9 *91:10 *543:B 0
10 *93:10 *543:B 0
11 *93:77 *543:B 0
12 *93:81 *166:10 0
13 *93:85 *166:10 0.000202891
14 *97:85 *543:B 0.000195555
15 *97:98 *543:B 2.48938e-05
16 *149:47 *543:B 0
17 *149:47 *166:10 0
18 *165:10 *543:B 0
19 *165:10 *166:10 0
20 *165:21 *543:B 0
*RES
1 *599:Q *166:10 21.2821 
2 *166:10 *645:A 14.3357 
3 *166:10 *543:B 19.0857 
*END

*D_NET *167 0.000537532
*CONN
*I *652:A I *D sky130_fd_sc_hd__dlygate4sd3_1
*I *521:B I *D sky130_fd_sc_hd__xor2_1
*I *594:Q O *D sky130_fd_sc_hd__dfrtp_1
*CAP
1 *652:A 6.07779e-05
2 *521:B 7.44731e-05
3 *594:Q 0
4 *167:4 0.000135251
5 *521:A *521:B 4.62096e-05
6 *521:A *652:A 6.65398e-05
7 *524:C1 *521:B 0
8 *594:CLK *521:B 0.00010946
9 *47:12 *652:A 4.48206e-05
*RES
1 *594:Q *167:4 9.3 
2 *167:4 *521:B 11.2821 
3 *167:4 *652:A 19.9429 
*END

*D_NET *168 0.00311342
*CONN
*I *519:B I *D sky130_fd_sc_hd__or2_1
*I *520:B I *D sky130_fd_sc_hd__nand2_1
*I *557:A1 I *D sky130_fd_sc_hd__mux2_1
*I *663:A I *D sky130_fd_sc_hd__dlygate4sd3_1
*I *595:Q O *D sky130_fd_sc_hd__dfrtp_1
*CAP
1 *519:B 0
2 *520:B 0.000168838
3 *557:A1 0
4 *663:A 0
5 *595:Q 0.00020221
6 *168:29 0.000339582
7 *168:25 0.00065096
8 *168:8 0.000682426
9 *520:B *523:B 5.24671e-05
10 *168:8 *169:12 6.97972e-05
11 *168:25 *169:12 1.76039e-05
12 *168:25 *169:18 0
13 *168:29 *523:B 0.000222666
14 *519:A *168:25 0
15 *520:A *520:B 1.97695e-05
16 *524:B2 *520:B 5.52302e-05
17 *558:S *168:25 4.58976e-05
18 *558:S *168:29 0.000365516
19 *560:A0 *168:8 0
20 *592:D *168:25 0.000129868
21 *617:RESET_B *168:25 6.92148e-06
22 *101:118 *168:25 8.36642e-05
*RES
1 *595:Q *168:8 17.8714 
2 *168:8 *663:A 13.8 
3 *168:8 *168:25 13.8214 
4 *168:25 *168:29 4.66071 
5 *168:29 *557:A1 9.3 
6 *168:29 *520:B 13.0857 
7 *168:25 *519:B 9.3 
*END

*D_NET *169 0.00311977
*CONN
*I *653:A I *D sky130_fd_sc_hd__dlygate4sd3_1
*I *523:B I *D sky130_fd_sc_hd__nand2_1
*I *522:B I *D sky130_fd_sc_hd__or2_1
*I *596:Q O *D sky130_fd_sc_hd__dfrtp_1
*CAP
1 *653:A 0
2 *523:B 0.000253039
3 *522:B 0
4 *596:Q 0.000104517
5 *169:18 0.000628959
6 *169:12 0.000480437
7 *514:A *523:B 1.52978e-05
8 *519:A *523:B 5.98293e-05
9 *519:A *169:18 2.19778e-05
10 *520:A *523:B 3.31648e-05
11 *520:B *523:B 5.24671e-05
12 *522:A *523:B 7.252e-05
13 *522:A *169:18 5.80706e-06
14 *523:A *523:B 6.10501e-05
15 *524:B2 *523:B 2.07382e-05
16 *541:A *169:18 4.57352e-05
17 *558:S *523:B 4.46186e-06
18 *561:A0 *169:12 5.52238e-05
19 *561:A0 *169:18 0.00040279
20 *97:104 *523:B 0.000448179
21 *101:10 *169:18 4.35048e-05
22 *101:118 *169:18 0
23 *149:39 *169:18 0
24 *168:8 *169:12 6.97972e-05
25 *168:25 *169:12 1.76039e-05
26 *168:25 *169:18 0
27 *168:29 *523:B 0.000222666
*RES
1 *596:Q *169:12 20.7821 
2 *169:12 *169:18 13 
3 *169:18 *522:B 13.8 
4 *169:18 *523:B 21.8357 
5 *169:12 *653:A 9.3 
*END

*D_NET *170 0.00355848
*CONN
*I *515:B I *D sky130_fd_sc_hd__xor2_1
*I *656:A I *D sky130_fd_sc_hd__dlygate4sd3_1
*I *590:Q O *D sky130_fd_sc_hd__dfrtp_1
*CAP
1 *515:B 0.000413522
2 *656:A 9.50936e-05
3 *590:Q 0.000284285
4 *170:10 0.000792901
5 *656:A *507:B 0.000173804
6 *507:A *515:B 5.7661e-06
7 *556:S *170:10 0.000353598
8 *581:A0 *170:10 0.000140933
9 *581:A1 *515:B 0
10 *581:A1 *170:10 0.000355002
11 *587:CLK *656:A 5.33005e-05
12 *590:D *170:10 0.000329553
13 *616:D *515:B 9.60939e-05
14 *98:75 *656:A 0.000177948
15 *98:77 *515:B 3.48705e-05
16 *98:77 *170:10 2.89114e-05
17 *98:88 *515:B 0.000222899
*RES
1 *590:Q *170:10 18.1929 
2 *170:10 *656:A 21.0857 
3 *170:10 *515:B 17.1571 
*END

*D_NET *171 0.0061965
*CONN
*I *657:A I *D sky130_fd_sc_hd__dlygate4sd3_1
*I *582:A1 I *D sky130_fd_sc_hd__mux2_1
*I *516:B I *D sky130_fd_sc_hd__nand2_1
*I *517:B I *D sky130_fd_sc_hd__or2_1
*I *591:Q O *D sky130_fd_sc_hd__dfrtp_1
*CAP
1 *657:A 0.000712471
2 *582:A1 0.000316063
3 *516:B 0.000138415
4 *517:B 0
5 *591:Q 0.000146249
6 *171:16 0.000336137
7 *171:10 0.000696582
8 *171:6 0.00104152
9 *515:A *582:A1 0.000219469
10 *515:A *171:10 9.69119e-06
11 *515:A *171:16 0.000140933
12 *518:A2 *582:A1 0.000128154
13 *518:B1 *516:B 0.000146474
14 *524:B2 *171:10 0.000148903
15 *545:A2 *516:B 0.000334331
16 *545:A2 *171:16 6.25993e-05
17 *545:A3 *582:A1 0
18 *545:B1 *171:16 0.00022266
19 *546:D1 *582:A1 0
20 *546:D1 *171:10 5.7936e-05
21 *557:A0 *657:A 8.92267e-06
22 *591:CLK *657:A 0.000319267
23 *616:D *582:A1 7.83659e-05
24 *617:CLK *171:10 0.000320024
25 *87:20 *582:A1 3.05164e-05
26 *87:20 *171:10 0.000175519
27 *93:38 *657:A 2.14658e-05
28 *93:38 *171:6 9.15291e-05
29 *98:92 *516:B 4.46186e-06
30 *149:20 *171:10 0
31 *149:113 *582:A1 0
32 *150:12 *582:A1 0.000287849
*RES
1 *591:Q *171:6 11.0679 
2 *171:6 *171:10 10.6964 
3 *171:10 *171:16 9.05357 
4 *171:16 *517:B 9.3 
5 *171:16 *516:B 22.3179 
6 *171:10 *582:A1 21.5679 
7 *171:6 *657:A 19.3179 
*END

*D_NET *172 0.00259464
*CONN
*I *583:A1 I *D sky130_fd_sc_hd__mux2_1
*I *514:B I *D sky130_fd_sc_hd__xor2_1
*I *660:A I *D sky130_fd_sc_hd__dlygate4sd3_1
*I *592:Q O *D sky130_fd_sc_hd__dfrtp_1
*CAP
1 *583:A1 0.000206346
2 *514:B 0.000351222
3 *660:A 9.15606e-05
4 *592:Q 0.000157741
5 *172:19 0.000671576
6 *172:8 0.000363309
7 *583:A1 *649:A 6.97972e-05
8 *583:A1 *175:23 0.000146301
9 *514:A *514:B 5.52238e-05
10 *558:A0 *172:8 2.79092e-05
11 *558:A1 *172:8 6.65398e-05
12 *583:A0 *583:A1 0.000128822
13 *583:S *583:A1 5.71472e-05
14 *633:A *583:A1 7.80714e-06
15 *633:A *172:8 0.000119708
16 *633:A *172:19 7.36267e-05
*RES
1 *592:Q *172:8 17.8714 
2 *172:8 *660:A 15.1571 
3 *172:8 *172:19 2.55357 
4 *172:19 *514:B 19.675 
5 *172:19 *583:A1 20.0321 
*END

*D_NET *173 0.00245829
*CONN
*I *553:A1 I *D sky130_fd_sc_hd__mux2_1
*I *505:B I *D sky130_fd_sc_hd__xor2_1
*I *661:A I *D sky130_fd_sc_hd__dlygate4sd3_1
*I *615:Q O *D sky130_fd_sc_hd__dfrtp_1
*CAP
1 *553:A1 0.000349198
2 *505:B 5.23261e-05
3 *661:A 0
4 *615:Q 0.000286779
5 *173:14 0.000182633
6 *173:8 0.000766284
7 *581:A0 *553:A1 4.43698e-05
8 *581:A0 *173:14 7.58571e-05
9 *587:D *553:A1 0
10 *615:D *173:8 9.7659e-05
11 *619:A *553:A1 0
12 *99:53 *505:B 4.35452e-05
13 *99:53 *173:14 5.76121e-05
14 *99:55 *505:B 3.57366e-05
15 *150:43 *505:B 0.000139907
16 *150:43 *173:14 4.38128e-05
17 *150:45 *173:14 9.90431e-05
18 *150:77 *553:A1 6.19181e-05
19 *150:77 *173:14 0.000121606
20 *156:16 *553:A1 0
*RES
1 *615:Q *173:8 17.2107 
2 *173:8 *173:14 9.01786 
3 *173:14 *661:A 9.3 
4 *173:14 *505:B 11.0857 
5 *173:8 *553:A1 20.3 
*END

*D_NET *174 0.00320774
*CONN
*I *640:A I *D sky130_fd_sc_hd__dlygate4sd3_1
*I *554:A1 I *D sky130_fd_sc_hd__mux2_1
*I *507:B I *D sky130_fd_sc_hd__xor2_1
*I *616:Q O *D sky130_fd_sc_hd__dfrtp_1
*CAP
1 *640:A 0.000111634
2 *554:A1 4.67473e-05
3 *507:B 0.000116309
4 *616:Q 3.92359e-05
5 *174:19 0.000964886
6 *174:6 0.000962049
7 *507:B *547:D 0.000102081
8 *553:S *174:6 5.52238e-05
9 *553:S *174:19 0.000135028
10 *554:A0 *554:A1 2.27416e-05
11 *588:RESET_B *640:A 0
12 *616:CLK *174:19 6.87355e-05
13 *656:A *507:B 0.000173804
14 *672:A *174:19 5.39629e-06
15 *95:40 *507:B 0.000148903
16 *98:75 *507:B 8.79776e-05
17 *98:120 *640:A 0.000148189
18 *149:113 *640:A 1.87955e-05
*RES
1 *616:Q *174:6 9.83571 
2 *174:6 *507:B 22.675 
3 *174:6 *174:19 9.57143 
4 *174:19 *554:A1 10.5679 
5 *174:19 *640:A 20.7821 
*END

*D_NET *175 0.00269339
*CONN
*I *555:A1 I *D sky130_fd_sc_hd__mux2_1
*I *506:B I *D sky130_fd_sc_hd__xor2_1
*I *649:A I *D sky130_fd_sc_hd__dlygate4sd3_1
*I *617:Q O *D sky130_fd_sc_hd__dfrtp_1
*CAP
1 *555:A1 0.000141185
2 *506:B 0.000322369
3 *649:A 7.95608e-05
4 *617:Q 0
5 *175:23 0.00064956
6 *175:6 0.000265567
7 *555:A1 *511:B 0.00014285
8 *555:A1 *673:A 0.000201127
9 *175:23 *673:A 9.25014e-06
10 *506:A *506:B 5.52238e-05
11 *555:A0 *555:A1 0
12 *555:S *555:A1 3.18676e-05
13 *583:A1 *649:A 6.97972e-05
14 *583:A1 *175:23 0.000146301
15 *633:A *649:A 0.000128161
16 *633:A *175:23 0.000450576
*RES
1 *617:Q *175:6 13.8 
2 *175:6 *649:A 15.9786 
3 *175:6 *175:23 6.55357 
4 *175:23 *506:B 19.2643 
5 *175:23 *555:A1 17.7107 
*END

*D_NET *176 0.0028341
*CONN
*I *510:B I *D sky130_fd_sc_hd__xor2_1
*I *675:A I *D sky130_fd_sc_hd__dlygate4sd3_1
*I *587:Q O *D sky130_fd_sc_hd__dfrtp_1
*CAP
1 *510:B 0.000610123
2 *675:A 0
3 *587:Q 7.23104e-05
4 *176:12 0.000682433
5 *510:B *670:A 0
6 *510:A *510:B 0.000140933
7 *553:A0 *510:B 0.000320024
8 *553:S *510:B 1.74352e-05
9 *585:RESET_B *510:B 0.00014285
10 *619:A *510:B 0
11 *622:A *510:B 0.000184745
12 *629:A *176:12 0.000150618
13 *91:36 *510:B 0
14 *98:75 *510:B 0.000354105
15 *102:10 *176:12 7.8327e-05
16 *156:16 *510:B 5.05429e-05
17 *156:16 *176:12 1.58163e-05
18 *157:42 *510:B 1.38323e-05
*RES
1 *587:Q *176:12 20.7821 
2 *176:12 *675:A 9.3 
3 *176:12 *510:B 32.3893 
*END

*D_NET *177 0.00119866
*CONN
*I *671:A I *D sky130_fd_sc_hd__dlygate4sd3_1
*I *509:B I *D sky130_fd_sc_hd__nand2_1
*I *508:B I *D sky130_fd_sc_hd__or2_1
*I *588:Q O *D sky130_fd_sc_hd__dfrtp_1
*CAP
1 *671:A 9.91708e-05
2 *509:B 0.000105472
3 *508:B 0
4 *588:Q 6.61506e-05
5 *177:12 0.000178155
6 *177:6 0.000238005
7 *509:A *509:B 5.52238e-05
8 *512:A *671:A 0.000186669
9 *513:A2 *509:B 1.15281e-05
10 *554:A0 *177:12 7.83659e-05
11 *589:RESET_B *509:B 3.69047e-06
12 *157:42 *177:12 2.31791e-05
13 *157:44 *177:12 0.000153054
*RES
1 *588:Q *177:6 10.2464 
2 *177:6 *177:12 11.25 
3 *177:12 *508:B 9.3 
4 *177:12 *509:B 11.0857 
5 *177:6 *671:A 11.4786 
*END

*D_NET *178 0.00272888
*CONN
*I *512:B I *D sky130_fd_sc_hd__or2_1
*I *511:B I *D sky130_fd_sc_hd__nand2_1
*I *673:A I *D sky130_fd_sc_hd__dlygate4sd3_1
*I *589:Q O *D sky130_fd_sc_hd__dfrtp_1
*CAP
1 *512:B 0.000278417
2 *511:B 0.000185542
3 *673:A 0.000107765
4 *589:Q 0
5 *178:8 0.000338268
6 *178:6 0.000323379
7 *513:B2 *511:B 0.000104673
8 *513:B2 *512:B 0
9 *513:B2 *673:A 0
10 *555:A1 *511:B 0.00014285
11 *555:A1 *673:A 0.000201127
12 *555:S *511:B 4.17014e-05
13 *633:A *512:B 0.000276809
14 *633:A *673:A 0.000226021
15 *633:A *178:8 0.000103267
16 *674:A *511:B 0.000273269
17 *674:A *512:B 9.08751e-05
18 *674:A *178:8 2.56694e-05
19 *175:23 *673:A 9.25014e-06
*RES
1 *589:Q *178:6 13.8 
2 *178:6 *178:8 1.33929 
3 *178:8 *673:A 17.1929 
4 *178:8 *511:B 18.8714 
5 *178:6 *512:B 20.4429 
*END

*D_NET *179 0.00142974
*CONN
*I *637:A I *D sky130_fd_sc_hd__dlygate4sd3_1
*I *593:Q O *D sky130_fd_sc_hd__dfrtp_1
*CAP
1 *637:A 0.000439208
2 *593:Q 0.000439208
3 *549:A_N *637:A 0
4 *593:RESET_B *637:A 6.81335e-05
5 *603:D *637:A 0
6 *603:RESET_B *637:A 0.00012709
7 *610:RESET_B *637:A 1.92905e-05
8 *619:A *637:A 0.000163437
9 *102:87 *637:A 0.000173377
*RES
1 *593:Q *637:A 36.2786 
*END

*D_NET *180 0.000226952
*CONN
*I *648:A I *D sky130_fd_sc_hd__dlygate4sd3_1
*I *603:Q O *D sky130_fd_sc_hd__dfrtp_1
*CAP
1 *648:A 0.000113476
2 *603:Q 0.000113476
*RES
1 *603:Q *648:A 20.3679 
*END

*D_NET *181 0.000763822
*CONN
*I *670:A I *D sky130_fd_sc_hd__dlygate4sd3_1
*I *610:Q O *D sky130_fd_sc_hd__dfrtp_1
*CAP
1 *670:A 0.000334936
2 *610:Q 0.000334936
3 *510:B *670:A 0
4 *549:A_N *670:A 0
5 *593:RESET_B *670:A 6.05161e-06
6 *610:RESET_B *670:A 8.78994e-05
7 *619:A *670:A 0
8 *622:A *670:A 0
*RES
1 *610:Q *670:A 32.1357 
*END

*D_NET *182 0.003225
*CONN
*I *547:D I *D sky130_fd_sc_hd__and4b_1
*I *618:Q O *D sky130_fd_sc_hd__dfrtp_1
*CAP
1 *547:D 0.000801559
2 *618:Q 0.000801559
3 *507:B *547:D 0.000102081
4 *545:A1 *547:D 2.524e-05
5 *546:C1 *547:D 0.000148911
6 *547:C *547:D 7.83587e-05
7 *553:S *547:D 0.000150611
8 *556:A1 *547:D 0
9 *618:RESET_B *547:D 0.00027124
10 *636:A *547:D 0.000430439
11 *95:36 *547:D 0.000148911
12 *95:40 *547:D 0.000266092
13 *98:75 *547:D 0
*RES
1 *618:Q *547:D 47.783 
*END
