*SPEF "ieee 1481-1999"
*DESIGN "rng_top"
*DATE "23:43:01 Monday March 09, 2026"
*VENDOR "The OpenROAD Project"
*PROGRAM "OpenROAD"
*VERSION "edf00dff99f6c40d67a30c0e22a8191c5d2ed9d6"
*DESIGN_FLOW "NAME_SCOPE LOCAL" "PIN_CAP NONE"
*DIVIDER /
*DELIMITER :
*BUS_DELIMITER []
*T_UNIT 1 NS
*C_UNIT 1 PF
*R_UNIT 1 OHM
*L_UNIT 1 HENRY

*NAME_MAP
*3 clk_i
*4 num_to_send_o[0]
*5 num_to_send_o[1]
*6 num_to_send_o[2]
*7 req_num_i
*8 rst_i
*9 wr_i
*10 _000_
*11 _001_
*12 _002_
*13 _003_
*14 _004_
*15 _005_
*16 _006_
*17 _007_
*18 _008_
*19 _009_
*20 _010_
*21 _011_
*22 _012_
*23 _013_
*24 _014_
*25 _015_
*26 _016_
*27 _017_
*28 _018_
*29 _019_
*30 _020_
*31 _021_
*32 _022_
*33 _023_
*34 _024_
*35 _025_
*36 _026_
*37 _027_
*38 _028_
*39 _029_
*40 _030_
*41 _031_
*42 _032_
*43 _033_
*44 _034_
*45 _035_
*46 _036_
*47 _037_
*48 _038_
*49 _039_
*50 _040_
*51 _041_
*52 _042_
*53 _043_
*54 _044_
*55 _045_
*56 _046_
*57 _047_
*58 _048_
*59 _049_
*60 _050_
*61 _051_
*62 _052_
*63 _053_
*64 _054_
*65 _055_
*66 _056_
*67 _057_
*68 _058_
*69 _059_
*70 _060_
*71 _061_
*72 _062_
*73 _063_
*74 _064_
*75 _065_
*76 _066_
*77 _067_
*78 _068_
*79 _069_
*80 _070_
*81 _071_
*82 _072_
*83 _073_
*84 _074_
*85 _075_
*86 _076_
*87 _077_
*88 _078_
*89 clknet_0_clk_i
*90 clknet_2_0__leaf_clk_i
*91 clknet_2_1__leaf_clk_i
*92 clknet_2_2__leaf_clk_i
*93 clknet_2_3__leaf_clk_i
*94 net1
*95 net10
*96 net11
*97 net12
*98 net13
*99 net14
*100 net15
*101 net16
*102 net17
*103 net18
*104 net19
*105 net2
*106 net20
*107 net21
*108 net22
*109 net23
*110 net24
*111 net25
*112 net26
*113 net27
*114 net28
*115 net29
*116 net3
*117 net30
*118 net31
*119 net32
*120 net33
*121 net34
*122 net35
*123 net36
*124 net37
*125 net38
*126 net39
*127 net4
*128 net40
*129 net41
*130 net42
*131 net43
*132 net44
*133 net45
*134 net46
*135 net47
*136 net48
*137 net49
*138 net5
*139 net50
*140 net51
*141 net52
*142 net53
*143 net54
*144 net55
*145 net56
*146 net57
*147 net58
*148 net6
*149 net7
*150 net8
*151 net9
*152 num_i_bar\[0\]
*153 num_i_bar\[1\]
*154 num_i_bar\[2\]
*155 req_num
*156 rng_rd\.cache\[0\]
*157 rng_rd\.cache\[1\]
*158 rng_rd\.cache\[2\]
*159 rng_rd\.ram_1\[0\]
*160 rng_rd\.ram_1\[1\]
*161 rng_rd\.ram_1\[2\]
*162 rng_rd\.ram_2\[0\]
*163 rng_rd\.ram_2\[1\]
*164 rng_rd\.ram_2\[2\]
*165 rng_rd\.ram_3\[0\]
*166 rng_rd\.ram_3\[1\]
*167 rng_rd\.ram_3\[2\]
*168 rng_rd\.ram_4\[0\]
*169 rng_rd\.ram_4\[1\]
*170 rng_rd\.ram_4\[2\]
*171 rng_rd\.ram_5\[0\]
*172 rng_rd\.ram_5\[1\]
*173 rng_rd\.ram_5\[2\]
*174 rng_rd\.ram_6\[0\]
*175 rng_rd\.ram_6\[1\]
*176 rng_rd\.ram_6\[2\]
*177 rng_rd\.ram_7\[0\]
*178 rng_rd\.ram_7\[1\]
*179 rng_rd\.ram_7\[2\]
*180 rng_rd\.req_num
*181 rng_rd\.wr_ff1
*182 rng_rd\.wr_ff2
*183 rng_rd\.wr_ff2_d
*184 rng_rd\.wr_pulse
*185 FILLER_0_109
*186 FILLER_0_111
*187 FILLER_0_113
*188 FILLER_0_15
*189 FILLER_0_27
*190 FILLER_0_29
*191 FILLER_0_3
*192 FILLER_0_41
*193 FILLER_0_53
*194 FILLER_0_55
*195 FILLER_0_57
*196 FILLER_0_69
*197 FILLER_0_81
*198 FILLER_0_83
*199 FILLER_0_85
*200 FILLER_0_97
*201 FILLER_10_104
*202 FILLER_10_122
*203 FILLER_10_124
*204 FILLER_10_15
*205 FILLER_10_19
*206 FILLER_10_29
*207 FILLER_10_3
*208 FILLER_10_41
*209 FILLER_10_53
*210 FILLER_10_55
*211 FILLER_10_82
*212 FILLER_10_85
*213 FILLER_10_92
*214 FILLER_11_104
*215 FILLER_11_121
*216 FILLER_11_15
*217 FILLER_11_24
*218 FILLER_11_3
*219 FILLER_11_54
*220 FILLER_11_91
*221 FILLER_12_123
*222 FILLER_12_23
*223 FILLER_12_27
*224 FILLER_12_29
*225 FILLER_12_33
*226 FILLER_12_82
*227 FILLER_12_85
*228 FILLER_12_97
*229 FILLER_13_113
*230 FILLER_13_122
*231 FILLER_13_124
*232 FILLER_13_28
*233 FILLER_13_30
*234 FILLER_13_57
*235 FILLER_13_59
*236 FILLER_13_7
*237 FILLER_14_121
*238 FILLER_14_22
*239 FILLER_14_26
*240 FILLER_14_3
*241 FILLER_14_44
*242 FILLER_14_58
*243 FILLER_14_67
*244 FILLER_14_71
*245 FILLER_14_80
*246 FILLER_14_99
*247 FILLER_15_109
*248 FILLER_15_111
*249 FILLER_15_113
*250 FILLER_15_20
*251 FILLER_15_24
*252 FILLER_15_28
*253 FILLER_15_3
*254 FILLER_15_46
*255 FILLER_15_48
*256 FILLER_15_54
*257 FILLER_15_57
*258 FILLER_15_66
*259 FILLER_15_70
*260 FILLER_16_107
*261 FILLER_16_11
*262 FILLER_16_119
*263 FILLER_16_123
*264 FILLER_16_27
*265 FILLER_16_3
*266 FILLER_16_56
*267 FILLER_16_64
*268 FILLER_16_73
*269 FILLER_16_81
*270 FILLER_16_83
*271 FILLER_16_85
*272 FILLER_16_96
*273 FILLER_16_98
*274 FILLER_17_107
*275 FILLER_17_111
*276 FILLER_17_113
*277 FILLER_17_19
*278 FILLER_17_40
*279 FILLER_17_65
*280 FILLER_17_7
*281 FILLER_17_83
*282 FILLER_17_9
*283 FILLER_18_100
*284 FILLER_18_112
*285 FILLER_18_124
*286 FILLER_18_23
*287 FILLER_18_27
*288 FILLER_18_38
*289 FILLER_18_59
*290 FILLER_18_63
*291 FILLER_19_105
*292 FILLER_19_109
*293 FILLER_19_111
*294 FILLER_19_113
*295 FILLER_19_51
*296 FILLER_19_55
*297 FILLER_19_66
*298 FILLER_19_68
*299 FILLER_19_78
*300 FILLER_19_82
*301 FILLER_19_93
*302 FILLER_1_105
*303 FILLER_1_109
*304 FILLER_1_111
*305 FILLER_1_113
*306 FILLER_1_16
*307 FILLER_1_3
*308 FILLER_1_40
*309 FILLER_1_52
*310 FILLER_1_57
*311 FILLER_1_69
*312 FILLER_1_7
*313 FILLER_1_81
*314 FILLER_1_93
*315 FILLER_20_113
*316 FILLER_20_3
*317 FILLER_20_38
*318 FILLER_20_42
*319 FILLER_20_7
*320 FILLER_21_111
*321 FILLER_21_113
*322 FILLER_21_15
*323 FILLER_21_3
*324 FILLER_21_32
*325 FILLER_21_36
*326 FILLER_21_46
*327 FILLER_21_57
*328 FILLER_21_59
*329 FILLER_21_76
*330 FILLER_21_78
*331 FILLER_21_87
*332 FILLER_21_99
*333 FILLER_22_109
*334 FILLER_22_111
*335 FILLER_22_113
*336 FILLER_22_15
*337 FILLER_22_27
*338 FILLER_22_29
*339 FILLER_22_3
*340 FILLER_22_37
*341 FILLER_22_42
*342 FILLER_22_54
*343 FILLER_22_57
*344 FILLER_22_69
*345 FILLER_22_81
*346 FILLER_22_83
*347 FILLER_22_85
*348 FILLER_22_97
*349 FILLER_2_109
*350 FILLER_2_26
*351 FILLER_2_3
*352 FILLER_2_37
*353 FILLER_2_49
*354 FILLER_2_5
*355 FILLER_2_61
*356 FILLER_2_73
*357 FILLER_2_81
*358 FILLER_2_83
*359 FILLER_2_85
*360 FILLER_2_97
*361 FILLER_3_109
*362 FILLER_3_111
*363 FILLER_3_121
*364 FILLER_3_3
*365 FILLER_3_51
*366 FILLER_3_55
*367 FILLER_3_57
*368 FILLER_3_69
*369 FILLER_3_81
*370 FILLER_4_32
*371 FILLER_4_53
*372 FILLER_4_65
*373 FILLER_5_3
*374 FILLER_5_57
*375 FILLER_5_7
*376 FILLER_5_86
*377 FILLER_5_9
*378 FILLER_6_100
*379 FILLER_6_27
*380 FILLER_6_3
*381 FILLER_6_49
*382 FILLER_6_56
*383 FILLER_6_78
*384 FILLER_6_82
*385 FILLER_6_94
*386 FILLER_7_111
*387 FILLER_7_122
*388 FILLER_7_124
*389 FILLER_7_34
*390 FILLER_7_50
*391 FILLER_7_54
*392 FILLER_7_57
*393 FILLER_7_6
*394 FILLER_7_61
*395 FILLER_8_122
*396 FILLER_8_124
*397 FILLER_8_23
*398 FILLER_8_27
*399 FILLER_8_29
*400 FILLER_8_56
*401 FILLER_8_60
*402 FILLER_8_82
*403 FILLER_8_85
*404 FILLER_8_94
*405 FILLER_9_102
*406 FILLER_9_113
*407 FILLER_9_115
*408 FILLER_9_124
*409 FILLER_9_15
*410 FILLER_9_3
*411 FILLER_9_57
*412 FILLER_9_69
*413 FILLER_9_73
*414 FILLER_9_75
*415 FILLER_9_84
*416 FILLER_9_92
*417 PHY_EDGE_ROW_0_Left_23
*418 PHY_EDGE_ROW_0_Right_0
*419 PHY_EDGE_ROW_10_Left_33
*420 PHY_EDGE_ROW_10_Right_10
*421 PHY_EDGE_ROW_11_Left_34
*422 PHY_EDGE_ROW_11_Right_11
*423 PHY_EDGE_ROW_12_Left_35
*424 PHY_EDGE_ROW_12_Right_12
*425 PHY_EDGE_ROW_13_Left_36
*426 PHY_EDGE_ROW_13_Right_13
*427 PHY_EDGE_ROW_14_Left_37
*428 PHY_EDGE_ROW_14_Right_14
*429 PHY_EDGE_ROW_15_Left_38
*430 PHY_EDGE_ROW_15_Right_15
*431 PHY_EDGE_ROW_16_Left_39
*432 PHY_EDGE_ROW_16_Right_16
*433 PHY_EDGE_ROW_17_Left_40
*434 PHY_EDGE_ROW_17_Right_17
*435 PHY_EDGE_ROW_18_Left_41
*436 PHY_EDGE_ROW_18_Right_18
*437 PHY_EDGE_ROW_19_Left_42
*438 PHY_EDGE_ROW_19_Right_19
*439 PHY_EDGE_ROW_1_Left_24
*440 PHY_EDGE_ROW_1_Right_1
*441 PHY_EDGE_ROW_20_Left_43
*442 PHY_EDGE_ROW_20_Right_20
*443 PHY_EDGE_ROW_21_Left_44
*444 PHY_EDGE_ROW_21_Right_21
*445 PHY_EDGE_ROW_22_Left_45
*446 PHY_EDGE_ROW_22_Right_22
*447 PHY_EDGE_ROW_2_Left_25
*448 PHY_EDGE_ROW_2_Right_2
*449 PHY_EDGE_ROW_3_Left_26
*450 PHY_EDGE_ROW_3_Right_3
*451 PHY_EDGE_ROW_4_Left_27
*452 PHY_EDGE_ROW_4_Right_4
*453 PHY_EDGE_ROW_5_Left_28
*454 PHY_EDGE_ROW_5_Right_5
*455 PHY_EDGE_ROW_6_Left_29
*456 PHY_EDGE_ROW_6_Right_6
*457 PHY_EDGE_ROW_7_Left_30
*458 PHY_EDGE_ROW_7_Right_7
*459 PHY_EDGE_ROW_8_Left_31
*460 PHY_EDGE_ROW_8_Right_8
*461 PHY_EDGE_ROW_9_Left_32
*462 PHY_EDGE_ROW_9_Right_9
*463 TAP_TAPCELL_ROW_0_46
*464 TAP_TAPCELL_ROW_0_47
*465 TAP_TAPCELL_ROW_0_48
*466 TAP_TAPCELL_ROW_0_49
*467 TAP_TAPCELL_ROW_10_68
*468 TAP_TAPCELL_ROW_10_69
*469 TAP_TAPCELL_ROW_11_70
*470 TAP_TAPCELL_ROW_11_71
*471 TAP_TAPCELL_ROW_12_72
*472 TAP_TAPCELL_ROW_12_73
*473 TAP_TAPCELL_ROW_13_74
*474 TAP_TAPCELL_ROW_13_75
*475 TAP_TAPCELL_ROW_14_76
*476 TAP_TAPCELL_ROW_14_77
*477 TAP_TAPCELL_ROW_15_78
*478 TAP_TAPCELL_ROW_15_79
*479 TAP_TAPCELL_ROW_16_80
*480 TAP_TAPCELL_ROW_16_81
*481 TAP_TAPCELL_ROW_17_82
*482 TAP_TAPCELL_ROW_17_83
*483 TAP_TAPCELL_ROW_18_84
*484 TAP_TAPCELL_ROW_18_85
*485 TAP_TAPCELL_ROW_19_86
*486 TAP_TAPCELL_ROW_19_87
*487 TAP_TAPCELL_ROW_1_50
*488 TAP_TAPCELL_ROW_1_51
*489 TAP_TAPCELL_ROW_20_88
*490 TAP_TAPCELL_ROW_20_89
*491 TAP_TAPCELL_ROW_21_90
*492 TAP_TAPCELL_ROW_21_91
*493 TAP_TAPCELL_ROW_22_92
*494 TAP_TAPCELL_ROW_22_93
*495 TAP_TAPCELL_ROW_22_94
*496 TAP_TAPCELL_ROW_22_95
*497 TAP_TAPCELL_ROW_2_52
*498 TAP_TAPCELL_ROW_2_53
*499 TAP_TAPCELL_ROW_3_54
*500 TAP_TAPCELL_ROW_3_55
*501 TAP_TAPCELL_ROW_4_56
*502 TAP_TAPCELL_ROW_4_57
*503 TAP_TAPCELL_ROW_5_58
*504 TAP_TAPCELL_ROW_5_59
*505 TAP_TAPCELL_ROW_6_60
*506 TAP_TAPCELL_ROW_6_61
*507 TAP_TAPCELL_ROW_7_62
*508 TAP_TAPCELL_ROW_7_63
*509 TAP_TAPCELL_ROW_8_64
*510 TAP_TAPCELL_ROW_8_65
*511 TAP_TAPCELL_ROW_9_66
*512 TAP_TAPCELL_ROW_9_67
*513 _079_
*514 _080_
*515 _081_
*516 _082_
*517 _083_
*518 _084_
*519 _085_
*520 _086_
*521 _087_
*522 _088_
*523 _089_
*524 _090_
*525 _091_
*526 _092_
*527 _093_
*528 _094_
*529 _095_
*530 _096_
*531 _097_
*532 _098_
*533 _099_
*534 _100_
*535 _101_
*536 _102_
*537 _103_
*538 _104_
*539 _105_
*540 _106_
*541 _107_
*542 _108_
*543 _109_
*544 _110_
*545 _111_
*546 _112_
*547 _113_
*548 _114_
*549 _115_
*550 _116_
*551 _117_
*552 _118_
*553 _119_
*554 _120_
*555 _121_
*556 _122_
*557 _123_
*558 _124_
*559 _125_
*560 _126_
*561 _127_
*562 _128_
*563 _129_
*564 _130_
*565 _131_
*566 _132_
*567 _133_
*568 _134_
*569 _135_
*570 _136_
*571 _137_
*572 _138_
*573 _139_
*574 _140_
*575 _141_
*576 _142_
*577 _143_
*578 _144_
*579 _145_
*580 _146_
*581 _147_
*582 _148_
*583 _149_
*584 _150_
*585 _151_
*586 _152_
*587 _153_
*588 _154_
*589 _155_
*590 _156_
*591 _157_
*592 _158_
*593 _159_
*594 _160_
*595 _161_
*596 _162_
*597 _163_
*598 _164_
*599 _165_
*600 _166_
*601 _167_
*602 _168_
*603 _169_
*604 _170_
*605 _171_
*606 _172_
*607 _173_
*608 _174_
*609 _175_
*610 _176_
*611 _177_
*612 _178_
*613 _179_
*614 _180_
*615 _181_
*616 _182_
*617 _183_
*618 _184_
*619 _185_
*620 _186_
*621 _187_
*622 _188_
*623 _189_
*624 _190_
*625 _191_
*626 _192_
*627 _193_
*628 clkbuf_0_clk_i
*629 clkbuf_2_0__f_clk_i
*630 clkbuf_2_1__f_clk_i
*631 clkbuf_2_2__f_clk_i
*632 clkbuf_2_3__f_clk_i
*633 clkload0
*634 clkload1
*635 fanout10
*636 fanout11
*637 fanout12
*638 fanout13
*639 fanout14
*640 fanout15
*641 fanout16
*642 fanout17
*643 fanout7
*644 fanout8
*645 fanout9
*646 hold1
*647 hold10
*648 hold11
*649 hold12
*650 hold13
*651 hold14
*652 hold15
*653 hold16
*654 hold17
*655 hold18
*656 hold19
*657 hold2
*658 hold20
*659 hold21
*660 hold22
*661 hold23
*662 hold24
*663 hold25
*664 hold26
*665 hold27
*666 hold28
*667 hold29
*668 hold3
*669 hold30
*670 hold31
*671 hold32
*672 hold33
*673 hold34
*674 hold35
*675 hold36
*676 hold37
*677 hold38
*678 hold39
*679 hold4
*680 hold40
*681 hold41
*682 hold5
*683 hold6
*684 hold7
*685 hold8
*686 hold9
*687 input1
*688 input2
*689 input3
*690 output4
*691 output5
*692 output6

*PORTS
clk_i I
num_to_send_o[0] O
num_to_send_o[1] O
num_to_send_o[2] O
req_num_i I
rst_i I
wr_i I

*D_NET *3 0.00671036
*CONN
*P clk_i I
*I *628:A I *D sky130_fd_sc_hd__clkbuf_16
*CAP
1 clk_i 0.0028881
2 *628:A 0.0028881
3 *628:A num_to_send_o[2] 0
4 *628:A *535:B 0
5 *628:A *537:A 3.23391e-05
6 *628:A *539:C1 0
7 *628:A *558:A_N 0.000284274
8 *628:A *558:C 0.000182196
9 *628:A *573:A1 0
10 *628:A *577:S 0
11 *628:A *603:D 0.0003399
12 *628:A *610:RESET_B 0
13 *628:A *643:A 0
14 *628:A *97:29 0
15 *628:A *97:82 0
16 *628:A *101:22 0
17 *628:A *164:10 9.54469e-05
18 *628:A *165:12 0
*RES
1 clk_i *628:A 24.2203 
*END

*D_NET *4 0.000640569
*CONN
*P num_to_send_o[0] O
*I *690:X O *D sky130_fd_sc_hd__buf_2
*CAP
1 num_to_send_o[0] 0.000296138
2 *690:X 0.000296138
3 num_to_send_o[0] *613:CLK 4.82919e-05
*RES
1 *690:X num_to_send_o[0] 7.1793 
*END

*D_NET *5 0.000925805
*CONN
*P num_to_send_o[1] O
*I *691:X O *D sky130_fd_sc_hd__buf_2
*CAP
1 num_to_send_o[1] 0.000462903
2 *691:X 0.000462903
*RES
1 *691:X num_to_send_o[1] 11.25 
*END

*D_NET *6 0.000673156
*CONN
*P num_to_send_o[2] O
*I *692:X O *D sky130_fd_sc_hd__buf_2
*CAP
1 num_to_send_o[2] 0.000336578
2 *692:X 0.000336578
3 *628:A num_to_send_o[2] 0
*RES
1 *692:X num_to_send_o[2] 7.1793 
*END

*D_NET *7 0.000884755
*CONN
*P req_num_i I
*I *687:A I *D sky130_fd_sc_hd__clkbuf_1
*CAP
1 req_num_i 0.000439462
2 *687:A 0.000439462
3 *687:A *515:A 5.83121e-06
*RES
1 req_num_i *687:A 11.25 
*END

*D_NET *8 0.000412628
*CONN
*P rst_i I
*I *688:A I *D sky130_fd_sc_hd__buf_1
*CAP
1 rst_i 0.000195792
2 *688:A 0.000195792
3 *688:A *684:A 2.10433e-05
*RES
1 rst_i *688:A 4.84677 
*END

*D_NET *9 0.000535543
*CONN
*P wr_i I
*I *689:A I *D sky130_fd_sc_hd__buf_1
*CAP
1 wr_i 0.000267771
2 *689:A 0.000267771
*RES
1 wr_i *689:A 6.8343 
*END

*D_NET *10 0.00161959
*CONN
*I *623:D I *D sky130_fd_sc_hd__dfrtp_1
*I *559:Y O *D sky130_fd_sc_hd__inv_2
*CAP
1 *623:D 0.000605813
2 *559:Y 0.000605813
3 *623:D *586:B1 0
4 *623:D *587:B 7.73272e-05
5 *623:D *593:RESET_B 0
6 *623:D *623:RESET_B 0.000115217
7 *623:D *686:A 5.7344e-05
8 *623:D *99:37 0.000158072
9 *623:D *116:27 0
*RES
1 *559:Y *623:D 17.28 
*END

*D_NET *11 0.000680423
*CONN
*I *627:D I *D sky130_fd_sc_hd__dfrtp_1
*I *560:X O *D sky130_fd_sc_hd__and2b_1
*CAP
1 *627:D 0.000143947
2 *560:X 0.000143947
3 *627:D *559:A 0.000116158
4 *627:D *90:49 0.000116158
5 *627:D *104:8 0.000160213
*RES
1 *560:X *627:D 10.065 
*END

*D_NET *12 0.00040453
*CONN
*I *593:D I *D sky130_fd_sc_hd__dfrtp_1
*I *561:X O *D sky130_fd_sc_hd__mux2_1
*CAP
1 *593:D 0.000152071
2 *561:X 0.000152071
3 *593:D *561:A0 0.000100389
4 *593:D *90:86 0
*RES
1 *561:X *593:D 9.465 
*END

*D_NET *13 0.000949483
*CONN
*I *594:D I *D sky130_fd_sc_hd__dfrtp_1
*I *562:X O *D sky130_fd_sc_hd__mux2_1
*CAP
1 *594:D 0.000233049
2 *562:X 0.000233049
3 *594:D *562:A0 3.90873e-06
4 *594:D *563:A1 0.000163012
5 *594:D *588:A 8.35068e-05
6 *594:D *594:CLK 2.68464e-05
7 *594:D *595:CLK 6.72796e-05
8 *594:D *90:14 0.000112031
9 *594:D *90:22 2.68016e-05
*RES
1 *562:X *594:D 11.715 
*END

*D_NET *14 0.00109276
*CONN
*I *595:D I *D sky130_fd_sc_hd__dfrtp_1
*I *563:X O *D sky130_fd_sc_hd__mux2_1
*CAP
1 *595:D 0.000196046
2 *563:X 0.000196046
3 *595:D *563:A1 0.000268285
4 *595:D *563:S 0.000157934
5 *595:D *90:14 0.000203762
6 *595:D *90:49 7.06865e-05
*RES
1 *563:X *595:D 11.85 
*END

*D_NET *15 0.000253279
*CONN
*I *648:A I *D sky130_fd_sc_hd__dlygate4sd3_1
*I *564:X O *D sky130_fd_sc_hd__mux2_1
*CAP
1 *648:A 3.88985e-05
2 *564:X 3.88985e-05
3 *648:A *565:S 4.91189e-05
4 *648:A *597:RESET_B 3.09164e-05
5 *648:A *100:24 9.54469e-05
*RES
1 *564:X *648:A 8.58 
*END

*D_NET *16 0.000124199
*CONN
*I *683:A I *D sky130_fd_sc_hd__dlygate4sd3_1
*I *565:X O *D sky130_fd_sc_hd__mux2_1
*CAP
1 *683:A 4.8342e-05
2 *565:X 4.8342e-05
3 *683:A *565:A0 2.75145e-05
*RES
1 *565:X *683:A 4.01 
*END

*D_NET *17 0.00103492
*CONN
*I *685:A I *D sky130_fd_sc_hd__dlygate4sd3_1
*I *566:X O *D sky130_fd_sc_hd__mux2_1
*CAP
1 *685:A 0.000253757
2 *566:X 0.000253757
3 *685:A *545:A2 0.000237243
4 *685:A *566:A0 0.000167709
5 *685:A *105:8 0.000122457
*RES
1 *566:X *685:A 12.795 
*END

*D_NET *18 0.00108023
*CONN
*I *599:D I *D sky130_fd_sc_hd__dfrtp_1
*I *567:X O *D sky130_fd_sc_hd__mux2_1
*CAP
1 *599:D 0.000417227
2 *567:X 0.000417227
3 *599:D *558:C 0
4 *599:D *567:A0 4.40446e-05
5 *599:D *567:A1 1.29866e-05
6 *599:D *590:A1 6.5525e-05
7 *599:D *89:8 0.000123225
*RES
1 *567:X *599:D 12.825 
*END

*D_NET *19 0.000279218
*CONN
*I *600:D I *D sky130_fd_sc_hd__dfrtp_1
*I *568:X O *D sky130_fd_sc_hd__mux2_1
*CAP
1 *600:D 3.56216e-05
2 *568:X 3.56216e-05
3 *600:D *600:CLK 7.23602e-05
4 *600:D *601:RESET_B 1.94636e-05
5 *600:D *102:28 0.000116151
*RES
1 *568:X *600:D 8.58 
*END

*D_NET *20 0.000352072
*CONN
*I *601:D I *D sky130_fd_sc_hd__dfrtp_1
*I *569:X O *D sky130_fd_sc_hd__mux2_1
*CAP
1 *601:D 7.00329e-05
2 *569:X 7.00329e-05
3 *601:D *568:A0 2.75229e-05
4 *601:D *600:CLK 9.14049e-05
5 *601:D *601:RESET_B 9.30787e-05
*RES
1 *569:X *601:D 8.775 
*END

*D_NET *21 0.000672297
*CONN
*I *661:A I *D sky130_fd_sc_hd__dlygate4sd3_1
*I *570:X O *D sky130_fd_sc_hd__mux2_1
*CAP
1 *661:A 0.000255339
2 *570:X 0.000255339
3 *661:A *558:C 0
4 *661:A *643:A 2.42802e-05
5 *661:A *89:34 0
6 *661:A *98:48 8.65961e-05
7 *661:A *165:23 5.07419e-05
*RES
1 *570:X *661:A 11.535 
*END

*D_NET *22 0.000446876
*CONN
*I *604:D I *D sky130_fd_sc_hd__dfrtp_1
*I *571:X O *D sky130_fd_sc_hd__mux2_1
*CAP
1 *604:D 0.00010964
2 *571:X 0.00010964
3 *604:D *568:A1 0
4 *604:D *604:CLK 2.75229e-05
5 *604:D *607:RESET_B 3.68682e-05
6 *604:D *166:8 0.000163204
*RES
1 *571:X *604:D 9.81 
*END

*D_NET *23 0.000554066
*CONN
*I *605:D I *D sky130_fd_sc_hd__dfrtp_1
*I *572:X O *D sky130_fd_sc_hd__mux2_1
*CAP
1 *605:D 0.000124288
2 *572:X 0.000124288
3 *605:D *572:A1 6.55328e-05
4 *605:D *572:S 0.000121437
5 *605:D *150:112 0.00011852
*RES
1 *572:X *605:D 9.72 
*END

*D_NET *24 0.00079627
*CONN
*I *606:D I *D sky130_fd_sc_hd__dfrtp_1
*I *573:X O *D sky130_fd_sc_hd__mux2_1
*CAP
1 *606:D 0.00030043
2 *573:X 0.00030043
3 *606:D *573:S 1.15487e-05
4 *606:D *609:D 0
5 *606:D *609:RESET_B 0.000154601
6 *606:D *149:29 2.92612e-05
*RES
1 *573:X *606:D 11.19 
*END

*D_NET *25 0.00083418
*CONN
*I *655:A I *D sky130_fd_sc_hd__dlygate4sd3_1
*I *574:X O *D sky130_fd_sc_hd__mux2_1
*CAP
1 *655:A 0.000346051
2 *574:X 0.000346051
3 *655:A *574:A0 4.99619e-05
4 *655:A *574:A1 9.21168e-05
5 *655:A *607:D 0
6 *655:A *93:84 0
7 *655:A *121:10 0
*RES
1 *574:X *655:A 12.45 
*END

*D_NET *26 0.000142198
*CONN
*I *608:D I *D sky130_fd_sc_hd__dfrtp_1
*I *575:X O *D sky130_fd_sc_hd__mux2_1
*CAP
1 *608:D 7.1099e-05
2 *575:X 7.1099e-05
3 *608:D *535:B 0
4 *608:D *102:40 0
*RES
1 *575:X *608:D 8.325 
*END

*D_NET *27 0.000650107
*CONN
*I *609:D I *D sky130_fd_sc_hd__dfrtp_1
*I *576:X O *D sky130_fd_sc_hd__mux2_1
*CAP
1 *609:D 0.000288263
2 *576:X 0.000288263
3 *609:D *101:46 0
4 *609:D *159:14 7.35813e-05
5 *606:D *609:D 0
*RES
1 *576:X *609:D 11.505 
*END

*D_NET *28 0.000582338
*CONN
*I *666:A I *D sky130_fd_sc_hd__dlygate4sd3_1
*I *577:X O *D sky130_fd_sc_hd__mux2_1
*CAP
1 *666:A 0.000257834
2 *577:X 0.000257834
3 *666:A *577:A0 0
4 *666:A *577:A1 2.77183e-05
5 *666:A *610:D 0
6 *666:A *610:RESET_B 3.89528e-05
7 *666:A *665:A 0
*RES
1 *577:X *666:A 11.415 
*END

*D_NET *29 0.000967421
*CONN
*I *651:A I *D sky130_fd_sc_hd__dlygate4sd3_1
*I *578:X O *D sky130_fd_sc_hd__mux2_1
*CAP
1 *651:A 0.000367562
2 *578:X 0.000367562
3 *651:A *578:A0 7.60965e-05
4 *651:A *578:A1 6.12726e-05
5 *651:A *610:RESET_B 9.49289e-05
6 *651:A *92:102 0
*RES
1 *578:X *651:A 13.14 
*END

*D_NET *30 0.000480811
*CONN
*I *659:A I *D sky130_fd_sc_hd__dlygate4sd3_1
*I *579:X O *D sky130_fd_sc_hd__mux2_1
*CAP
1 *659:A 0.000199126
2 *579:X 0.000199126
3 *659:A *532:B 0
4 *659:A *533:C1 8.53113e-06
5 *659:A *584:S 0
6 *659:A *613:D 7.4027e-05
*RES
1 *579:X *659:A 10.41 
*END

*D_NET *31 0.000478908
*CONN
*I *614:D I *D sky130_fd_sc_hd__dfrtp_1
*I *580:X O *D sky130_fd_sc_hd__mux2_1
*CAP
1 *614:D 0.0001544
2 *580:X 0.0001544
3 *614:D *580:A1 0.000122337
4 *614:D *583:A1 4.77701e-05
5 *614:D *617:RESET_B 0
*RES
1 *580:X *614:D 9.465 
*END

*D_NET *32 0.00176106
*CONN
*I *615:D I *D sky130_fd_sc_hd__dfrtp_1
*I *581:X O *D sky130_fd_sc_hd__mux2_1
*CAP
1 *615:D 0.000489749
2 *581:X 0.000489749
3 *615:D *581:A1 9.27495e-05
4 *615:D *583:A1 0
5 *615:D *615:RESET_B 4.70393e-05
6 *615:D *92:31 0.000448394
7 *615:D *101:103 0.000116158
8 *615:D *148:6 7.35729e-05
9 *615:D *161:14 3.64998e-06
*RES
1 *581:X *615:D 16.725 
*END

*D_NET *33 0.000815206
*CONN
*I *616:D I *D sky130_fd_sc_hd__dfrtp_1
*I *582:X O *D sky130_fd_sc_hd__mux2_1
*CAP
1 *616:D 0.000198502
2 *582:X 0.000198502
3 *616:D *582:A0 5.10957e-05
4 *616:D *92:37 5.72091e-05
5 *616:D *92:41 6.23375e-05
6 *616:D *127:12 0.000139238
7 *616:D *127:23 0.000108322
*RES
1 *582:X *616:D 11.925 
*END

*D_NET *34 0.000289567
*CONN
*I *617:D I *D sky130_fd_sc_hd__dfrtp_1
*I *583:X O *D sky130_fd_sc_hd__mux2_1
*CAP
1 *617:D 0.00012064
2 *583:X 0.00012064
3 *617:D *583:A1 0
4 *617:D *138:40 4.82863e-05
*RES
1 *583:X *617:D 9.03 
*END

*D_NET *35 0.000521121
*CONN
*I *618:D I *D sky130_fd_sc_hd__dfrtp_1
*I *584:X O *D sky130_fd_sc_hd__mux2_1
*CAP
1 *618:D 0.000158647
2 *584:X 0.000158647
3 *618:D *692:A 0.000164874
4 *618:D *92:37 3.89528e-05
5 *618:D *138:10 0
*RES
1 *584:X *618:D 9.81 
*END

*D_NET *36 0.000226472
*CONN
*I *620:D I *D sky130_fd_sc_hd__dfrtp_1
*I *585:X O *D sky130_fd_sc_hd__xor2_1
*CAP
1 *620:D 0.000113236
2 *585:X 0.000113236
3 *620:D *561:A1 0
4 *620:D *155:19 0
5 *620:D *155:32 0
*RES
1 *585:X *620:D 9.09 
*END

*D_NET *37 0.000418618
*CONN
*I *621:D I *D sky130_fd_sc_hd__dfrtp_1
*I *588:Y O *D sky130_fd_sc_hd__nor2_1
*CAP
1 *621:D 0.000143469
2 *588:Y 0.000143469
3 *621:D *587:C 1.01661e-05
4 *621:D *589:B 1.61831e-05
5 *621:D *60:8 1.83847e-05
6 *621:D *99:37 8.69471e-05
*RES
1 *588:Y *621:D 9.57 
*END

*D_NET *38 0.000680911
*CONN
*I *622:D I *D sky130_fd_sc_hd__dfrtp_1
*I *589:X O *D sky130_fd_sc_hd__xor2_1
*CAP
1 *622:D 0.000329534
2 *589:X 0.000329534
3 *622:D *90:22 2.18433e-05
4 *622:D *152:27 0
*RES
1 *589:X *622:D 12.1538 
*END

*D_NET *39 0.000826134
*CONN
*I *624:D I *D sky130_fd_sc_hd__dfrtp_1
*I *590:X O *D sky130_fd_sc_hd__mux2_1
*CAP
1 *624:D 0.000149401
2 *590:X 0.000149401
3 *624:D *633:A 4.66108e-05
4 *624:D *91:10 6.14689e-05
5 *624:D *91:14 1.43521e-05
6 *624:D *91:35 6.73751e-05
7 *624:D *100:56 9.50342e-06
8 *624:D *100:81 0.000328021
*RES
1 *590:X *624:D 11.58 
*END

*D_NET *40 0.00120366
*CONN
*I *675:A I *D sky130_fd_sc_hd__dlygate4sd3_1
*I *591:X O *D sky130_fd_sc_hd__mux2_1
*CAP
1 *675:A 0.000251126
2 *591:X 0.000251126
3 *675:A *542:A 0
4 *675:A *545:A2 0.000131799
5 *675:A *566:A1 0.000234674
6 *675:A *566:S 0.000334934
7 *675:A *625:D 0
*RES
1 *591:X *675:A 13.485 
*END

*D_NET *41 0.000110911
*CONN
*I *671:A I *D sky130_fd_sc_hd__dlygate4sd3_1
*I *592:X O *D sky130_fd_sc_hd__mux2_1
*CAP
1 *671:A 4.49012e-05
2 *592:X 4.49012e-05
3 *671:A *641:A 2.11084e-05
*RES
1 *592:X *671:A 4.01 
*END

*D_NET *42 0.00221247
*CONN
*I *545:A2 I *D sky130_fd_sc_hd__a221o_1
*I *542:Y O *D sky130_fd_sc_hd__nand2_1
*CAP
1 *545:A2 0.000452048
2 *542:Y 0.000452048
3 *545:A2 *542:A 2.75145e-05
4 *545:A2 *566:A1 0.000335156
5 *545:A2 *566:S 0.000277223
6 *545:A2 *598:RESET_B 0
7 *545:A2 *626:CLK 3.05373e-05
8 *545:A2 *91:61 7.44453e-05
9 *545:A2 *91:65 0.0001274
10 *545:A2 *95:8 6.7053e-05
11 *675:A *545:A2 0.000131799
12 *685:A *545:A2 0.000237243
*RES
1 *542:Y *545:A2 18.4875 
*END

*D_NET *43 0.00179035
*CONN
*I *545:B1 I *D sky130_fd_sc_hd__a221o_1
*I *543:Y O *D sky130_fd_sc_hd__nand2_1
*CAP
1 *545:B1 0.000354175
2 *543:Y 0.000354175
3 *545:B1 *543:A 0
4 *545:B1 *543:B 7.37365e-05
5 *545:B1 *545:A1 0.000139245
6 *545:B1 *545:B2 0.000155862
7 *545:B1 *565:A0 0
8 *545:B1 *565:A1 7.23602e-05
9 *545:B1 *597:D 0.000118513
10 *545:B1 *598:D 0
11 *545:B1 *598:RESET_B 0
12 *545:B1 *91:61 2.05583e-05
13 *545:B1 *91:65 0.000201938
14 *545:B1 *175:19 0.000249234
15 *545:B1 *178:19 5.05521e-05
*RES
1 *543:Y *545:B1 17.55 
*END

*D_NET *44 0.00185154
*CONN
*I *545:B2 I *D sky130_fd_sc_hd__a221o_1
*I *544:X O *D sky130_fd_sc_hd__or2_1
*CAP
1 *545:B2 0.000257348
2 *544:X 0.000257348
3 *545:B2 *545:C1 0.000489651
4 *545:B2 *565:A0 0.000121087
5 *545:B2 *565:A1 7.23602e-05
6 *545:B2 *597:D 0.000120186
7 *545:B2 *91:59 6.03947e-06
8 *545:B2 *95:8 1.12643e-05
9 *545:B2 *175:19 0.000238063
10 *545:B2 *178:19 0.000122331
11 *545:B1 *545:B2 0.000155862
*RES
1 *544:X *545:B2 16.7138 
*END

*D_NET *45 0.00549609
*CONN
*I *557:B I *D sky130_fd_sc_hd__and4_1
*I *545:X O *D sky130_fd_sc_hd__a221o_1
*CAP
1 *557:B 0.00164743
2 *545:X 0.00164743
3 *557:B *546:A 0
4 *557:B *557:C 4.82863e-05
5 *557:B *557:D 5.21046e-05
6 *557:B *558:D 0.000112123
7 *557:B *567:A0 3.39064e-05
8 *557:B *567:A1 0.000132883
9 *557:B *603:RESET_B 0.000139245
10 *557:B *630:A 7.00889e-06
11 *557:B *631:A 7.21296e-06
12 *557:B *647:A 0.000294927
13 *557:B *664:A 9.4366e-05
14 *557:B *89:10 0.000248396
15 *557:B *89:34 0.000156082
16 *557:B *91:8 6.07575e-06
17 *557:B *95:8 0.000347029
18 *557:B *102:40 0.000521578
19 *557:B *174:21 0
*RES
1 *545:X *557:B 37.02 
*END

*D_NET *46 0.0014555
*CONN
*I *551:C1 I *D sky130_fd_sc_hd__a221o_1
*I *546:X O *D sky130_fd_sc_hd__xor2_1
*CAP
1 *551:C1 0.000194435
2 *546:X 0.000194435
3 *551:C1 *531:A3 1.53032e-05
4 *551:C1 *531:C1 0.00018305
5 *551:C1 *551:B2 7.81954e-05
6 *551:C1 *568:A1 0
7 *551:C1 *570:S 4.82863e-05
8 *551:C1 *645:A 0.000289004
9 *551:C1 *98:61 7.21296e-06
10 *551:C1 *102:28 0.000179659
11 *551:C1 *150:6 0.000185505
12 *551:C1 *150:112 3.68784e-05
13 *551:C1 *151:8 4.35348e-05
*RES
1 *546:X *551:C1 14.505 
*END

*D_NET *47 0.000565597
*CONN
*I *551:A1 I *D sky130_fd_sc_hd__a221o_1
*I *547:Y O *D sky130_fd_sc_hd__nand2_1
*CAP
1 *551:A1 0.000101543
2 *547:Y 0.000101543
3 *551:A1 *531:A3 0.000139245
4 *551:A1 *568:A1 0.000139245
5 *551:A1 *93:31 8.40213e-05
*RES
1 *547:Y *551:A1 9.63 
*END

*D_NET *48 0.000568463
*CONN
*I *551:A2 I *D sky130_fd_sc_hd__a221o_1
*I *548:X O *D sky130_fd_sc_hd__or2_1
*CAP
1 *551:A2 0.000106596
2 *548:X 0.000106596
3 *551:A2 *548:A 9.80652e-05
4 *551:A2 *549:A 3.38944e-05
5 *551:A2 *549:B 4.82919e-05
6 *551:A2 *551:B1 0.000105357
7 *551:A2 *557:C 5.17188e-05
8 *551:A2 *157:48 1.79431e-05
*RES
1 *548:X *551:A2 6.3575 
*END

*D_NET *49 0.000431375
*CONN
*I *551:B1 I *D sky130_fd_sc_hd__a221o_1
*I *549:X O *D sky130_fd_sc_hd__or2_1
*CAP
1 *551:B1 4.93833e-05
2 *549:X 4.93833e-05
3 *551:B1 *549:A 0.000197269
4 *551:B1 *157:48 2.9982e-05
5 *551:A2 *551:B1 0.000105357
*RES
1 *549:X *551:B1 5.03 
*END

*D_NET *50 0.00046967
*CONN
*I *551:B2 I *D sky130_fd_sc_hd__a221o_1
*I *550:Y O *D sky130_fd_sc_hd__nand2_1
*CAP
1 *551:B2 8.9308e-05
2 *550:Y 8.9308e-05
3 *551:B2 *531:A3 0.000137578
4 *551:B2 *549:A 1.34967e-05
5 *551:B2 *93:31 4.82863e-05
6 *551:B2 *157:48 1.34967e-05
7 *551:C1 *551:B2 7.81954e-05
*RES
1 *550:Y *551:B2 9.525 
*END

*D_NET *51 0.00287558
*CONN
*I *557:C I *D sky130_fd_sc_hd__and4_1
*I *551:X O *D sky130_fd_sc_hd__a221o_1
*CAP
1 *557:C 0.000729356
2 *551:X 0.000729356
3 *557:C *531:A1 1.91597e-05
4 *557:C *537:A 8.37704e-05
5 *557:C *548:A 8.57024e-05
6 *557:C *550:B 2.59981e-05
7 *557:C *557:A 0.000123225
8 *557:C *569:A1 4.66108e-05
9 *557:C *572:A0 0.000279469
10 *557:C *572:S 4.99782e-05
11 *557:C *95:88 0.000148977
12 *557:C *95:90 0.000241483
13 *557:C *97:93 0.000155928
14 *557:C *170:12 5.65627e-05
15 *551:A2 *557:C 5.17188e-05
16 *557:B *557:C 4.82863e-05
*RES
1 *551:X *557:C 21.15 
*END

*D_NET *52 0.000443508
*CONN
*I *556:C1 I *D sky130_fd_sc_hd__a211o_1
*I *552:X O *D sky130_fd_sc_hd__xor2_1
*CAP
1 *556:C1 0.000155534
2 *552:X 0.000155534
3 *556:C1 *555:B 3.09233e-05
4 *556:C1 *149:63 4.98756e-05
5 *556:C1 *160:12 5.16418e-05
*RES
1 *552:X *556:C1 9.63 
*END

*D_NET *53 0.000808116
*CONN
*I *556:A1 I *D sky130_fd_sc_hd__a211o_1
*I *553:Y O *D sky130_fd_sc_hd__nand2_1
*CAP
1 *556:A1 0.000268016
2 *553:Y 0.000268016
3 *556:A1 *553:A 8.40213e-05
4 *556:A1 *553:B 3.77117e-05
5 *556:A1 *554:B 2.93517e-05
6 *556:A1 *555:A 2.10214e-05
7 *556:A1 *555:B 5.06989e-05
8 *556:A1 *556:B1 4.92803e-05
*RES
1 *553:Y *556:A1 7.805 
*END

*D_NET *54 0.000447741
*CONN
*I *556:A2 I *D sky130_fd_sc_hd__a211o_1
*I *554:X O *D sky130_fd_sc_hd__or2_1
*CAP
1 *556:A2 6.40009e-05
2 *554:X 6.40009e-05
3 *556:A2 *554:B 0.000108243
4 *556:A2 *557:D 0.000163204
5 *556:A2 *97:29 4.82919e-05
*RES
1 *554:X *556:A2 5.375 
*END

*D_NET *55 0.000240213
*CONN
*I *556:B1 I *D sky130_fd_sc_hd__a211o_1
*I *555:X O *D sky130_fd_sc_hd__xor2_1
*CAP
1 *556:B1 4.80179e-05
2 *555:X 4.80179e-05
3 *556:B1 *553:B 8.40213e-05
4 *556:B1 *554:B 1.08758e-05
5 *556:A1 *556:B1 4.92803e-05
*RES
1 *555:X *556:B1 4.355 
*END

*D_NET *56 0.00193311
*CONN
*I *557:D I *D sky130_fd_sc_hd__and4_1
*I *556:X O *D sky130_fd_sc_hd__a211o_1
*CAP
1 *557:D 0.000496727
2 *556:X 0.000496727
3 *557:D *554:B 2.96334e-05
4 *557:D *558:B 0.000200615
5 *557:D *558:C 7.10578e-05
6 *557:D *558:D 0.000107542
7 *557:D *631:A 0.000112288
8 *557:D *632:A 4.82919e-05
9 *557:D *643:A 0
10 *557:D *97:29 4.60584e-05
11 *557:D *102:40 1.1688e-05
12 *557:D *157:48 9.71681e-05
13 *556:A2 *557:D 0.000163204
14 *557:B *557:D 5.21046e-05
*RES
1 *556:X *557:D 17.775 
*END

*D_NET *57 0.000601037
*CONN
*I *558:B I *D sky130_fd_sc_hd__and4b_1
*I *557:X O *D sky130_fd_sc_hd__and4_1
*CAP
1 *558:B 0.000176454
2 *557:X 0.000176454
3 *558:B *631:A 4.75134e-05
4 *558:B *643:A 0
5 *557:D *558:B 0.000200615
*RES
1 *557:X *558:B 9.9 
*END

*D_NET *58 0.00302769
*CONN
*I *645:A I *D sky130_fd_sc_hd__buf_2
*I *558:X O *D sky130_fd_sc_hd__and4b_1
*CAP
1 *645:A 0.000752252
2 *558:X 0.000752252
3 *645:A *150:112 0.000289698
4 *645:A *157:48 0.000944479
5 *551:C1 *645:A 0.000289004
*RES
1 *558:X *645:A 19.35 
*END

*D_NET *59 0.0011912
*CONN
*I *653:A I *D sky130_fd_sc_hd__dlygate4sd3_1
*I *586:Y O *D sky130_fd_sc_hd__a21oi_1
*CAP
1 *653:A 0.000449182
2 *586:Y 0.000449182
3 *653:A *561:A1 0
4 *653:A *586:A1 0.000271141
5 *653:A *620:CLK 0
6 *653:A *152:6 2.16917e-05
*RES
1 *586:Y *653:A 15.24 
*END

*D_NET *60 0.00201537
*CONN
*I *589:B I *D sky130_fd_sc_hd__xor2_1
*I *588:B I *D sky130_fd_sc_hd__nor2_1
*I *587:X O *D sky130_fd_sc_hd__and3_1
*CAP
1 *589:B 0.000469331
2 *588:B 1.16891e-05
3 *587:X 6.65883e-05
4 *60:8 0.000547609
5 *588:B *588:A 5.4155e-06
6 *589:B *563:A1 0.000109016
7 *589:B *587:C 0
8 *589:B *588:A 0.000303127
9 *589:B *589:A 0.000282212
10 *589:B *594:CLK 4.88478e-05
11 *589:B *622:RESET_B 2.20753e-05
12 *589:B *90:22 0.000103597
13 *589:B *99:27 1.82499e-06
14 *589:B *99:37 9.47267e-06
15 *621:D *589:B 1.61831e-05
16 *621:D *60:8 1.83847e-05
*RES
1 *587:X *60:8 2.755 
2 *60:8 *588:B 1.96 
3 *60:8 *589:B 20.505 
*END

*D_NET *61 0.00137211
*CONN
*I *534:A2 I *D sky130_fd_sc_hd__o221a_1
*I *533:A2 I *D sky130_fd_sc_hd__a221oi_1
*I *513:Y O *D sky130_fd_sc_hd__inv_2
*CAP
1 *534:A2 7.4533e-05
2 *533:A2 0.00023292
3 *513:Y 9.21675e-05
4 *61:10 0.00039962
5 *533:A2 *533:B1 2.86843e-05
6 *533:A2 *534:C1 0.000119631
7 *533:A2 *681:A 3.00381e-05
8 *534:A2 *534:B2 5.16418e-05
9 *534:A2 *583:A1 0.000208491
10 *534:A2 *101:57 0
11 *534:A2 *148:18 3.3597e-05
12 *61:10 *513:A 7.93691e-05
13 *61:10 *583:A1 2.14129e-05
14 *61:10 *101:57 0
*RES
1 *513:Y *61:10 5.175 
2 *61:10 *533:A2 7.515 
3 *61:10 *534:A2 6 
*END

*D_NET *62 0.00147643
*CONN
*I *534:B2 I *D sky130_fd_sc_hd__o221a_1
*I *533:B2 I *D sky130_fd_sc_hd__a221oi_1
*I *514:Y O *D sky130_fd_sc_hd__inv_2
*CAP
1 *534:B2 0.00015288
2 *533:B2 0.000295692
3 *514:Y 0
4 *62:4 0.000448572
5 *533:B2 *533:A1 5.71917e-05
6 *533:B2 *533:C1 9.50342e-06
7 *533:B2 *584:A0 1.61831e-05
8 *533:B2 *584:A1 0.000211665
9 *533:B2 *692:A 1.03423e-05
10 *533:B2 *92:37 0
11 *534:B2 *584:A1 1.47256e-05
12 *534:B2 *96:56 0.00015639
13 *534:B2 *148:18 5.16418e-05
14 *534:A2 *534:B2 5.16418e-05
*RES
1 *514:Y *62:4 1.6 
2 *62:4 *533:B2 10.1 
3 *62:4 *534:B2 8.045 
*END

*D_NET *63 0.000508487
*CONN
*I *521:A1 I *D sky130_fd_sc_hd__a221o_1
*I *516:X O *D sky130_fd_sc_hd__or2_1
*CAP
1 *521:A1 9.61379e-05
2 *516:X 9.61379e-05
3 *521:A1 *519:B 8.57024e-05
4 *521:A1 *521:A2 0.000115254
5 *521:A1 *531:B1 0.000115254
*RES
1 *516:X *521:A1 9.375 
*END

*D_NET *64 0.000776723
*CONN
*I *521:A2 I *D sky130_fd_sc_hd__a221o_1
*I *517:Y O *D sky130_fd_sc_hd__nand2_1
*CAP
1 *521:A2 0.000179089
2 *517:Y 0.000179089
3 *521:A2 *519:B 7.32582e-05
4 *521:A2 *531:B1 9.68709e-05
5 *521:A2 *95:60 1.79347e-05
6 *521:A2 *98:63 6.5265e-05
7 *521:A2 *150:66 4.99619e-05
8 *521:A1 *521:A2 0.000115254
*RES
1 *517:Y *521:A2 11.7975 
*END

*D_NET *65 0.000693658
*CONN
*I *521:B1 I *D sky130_fd_sc_hd__a221o_1
*I *518:X O *D sky130_fd_sc_hd__or2_1
*CAP
1 *521:B1 0.000237283
2 *518:X 0.000237283
3 *521:B1 *520:A 2.19562e-06
4 *521:B1 *521:B2 3.07686e-05
5 *521:B1 *521:C1 1.10377e-05
6 *521:B1 *600:CLK 3.64998e-06
7 *521:B1 *95:60 9.90878e-05
8 *521:B1 *97:118 7.23533e-05
*RES
1 *518:X *521:B1 10.71 
*END

*D_NET *66 0.0011973
*CONN
*I *521:B2 I *D sky130_fd_sc_hd__a221o_1
*I *519:Y O *D sky130_fd_sc_hd__nand2_1
*CAP
1 *521:B2 0.000482673
2 *519:Y 0.000482673
3 *521:B2 *521:C1 3.85347e-05
4 *521:B2 *600:CLK 4.00541e-06
5 *521:B2 *663:A 1.17036e-05
6 *521:B2 *95:60 0.000127646
7 *521:B2 *98:61 1.92979e-05
8 *521:B1 *521:B2 3.07686e-05
*RES
1 *519:Y *521:B2 11.0107 
*END

*D_NET *67 0.000774791
*CONN
*I *521:C1 I *D sky130_fd_sc_hd__a221o_1
*I *520:X O *D sky130_fd_sc_hd__xor2_1
*CAP
1 *521:C1 0.000176331
2 *520:X 0.000176331
3 *521:C1 *519:B 2.8185e-05
4 *521:C1 *520:A 4.66742e-05
5 *521:C1 *550:A 0.000200503
6 *521:C1 *95:43 2.86623e-05
7 *521:C1 *95:60 6.85327e-05
8 *521:B1 *521:C1 1.10377e-05
9 *521:B2 *521:C1 3.85347e-05
*RES
1 *520:X *521:C1 11.2837 
*END

*D_NET *68 0.00104599
*CONN
*I *531:C1 I *D sky130_fd_sc_hd__o311a_1
*I *521:X O *D sky130_fd_sc_hd__a221o_1
*CAP
1 *531:C1 0.000246413
2 *521:X 0.000246413
3 *531:C1 *531:B1 0.000243539
4 *531:C1 *568:A1 0
5 *531:C1 *95:60 0.00012657
6 *531:C1 *98:61 0
7 *551:C1 *531:C1 0.00018305
*RES
1 *521:X *531:C1 11.76 
*END

*D_NET *69 0.00155713
*CONN
*I *531:A1 I *D sky130_fd_sc_hd__o311a_1
*I *522:X O *D sky130_fd_sc_hd__xor2_1
*CAP
1 *531:A1 0.00017894
2 *522:X 0.00017894
3 *531:A1 *572:S 0.000161529
4 *531:A1 *93:12 0.000115464
5 *531:A1 *93:63 0.00019662
6 *531:A1 *95:71 0.00024756
7 *531:A1 *95:88 0.000273451
8 *531:A1 *95:90 8.65905e-05
9 *531:A1 *97:82 6.38722e-05
10 *531:A1 *150:112 3.50033e-05
11 *557:C *531:A1 1.91597e-05
*RES
1 *522:X *531:A1 14.16 
*END

*D_NET *70 0.000661521
*CONN
*I *531:A2 I *D sky130_fd_sc_hd__o311a_1
*I *523:X O *D sky130_fd_sc_hd__xor2_1
*CAP
1 *531:A2 8.07563e-05
2 *523:X 8.07563e-05
3 *531:A2 *558:D 6.77417e-05
4 *531:A2 *603:CLK 0.000232111
5 *531:A2 *98:61 0.000200156
*RES
1 *523:X *531:A2 6.41 
*END

*D_NET *71 0.00209845
*CONN
*I *531:A3 I *D sky130_fd_sc_hd__o311a_1
*I *524:X O *D sky130_fd_sc_hd__xor2_1
*CAP
1 *531:A3 0.000347709
2 *524:X 0.000347709
3 *531:A3 *531:B1 3.59784e-05
4 *531:A3 *550:A 3.00381e-05
5 *531:A3 *568:A1 0.00050496
6 *531:A3 *572:A1 0.000112971
7 *531:A3 *604:RESET_B 1.91597e-05
8 *531:A3 *605:RESET_B 0.000160658
9 *531:A3 *93:31 0.000194694
10 *531:A3 *97:82 4.66108e-05
11 *531:A3 *102:65 5.83121e-06
12 *531:A3 *150:112 0
13 *551:A1 *531:A3 0.000139245
14 *551:B2 *531:A3 0.000137578
15 *551:C1 *531:A3 1.53032e-05
*RES
1 *524:X *531:A3 17.745 
*END

*D_NET *72 0.000742624
*CONN
*I *530:A1 I *D sky130_fd_sc_hd__a221o_1
*I *525:X O *D sky130_fd_sc_hd__or2_1
*CAP
1 *530:A1 9.91945e-05
2 *525:X 9.91945e-05
3 *530:A1 *530:A2 0.000103173
4 *530:A1 *530:C1 3.45438e-05
5 *530:A1 *531:B1 0.000159964
6 *530:A1 *550:A 0.000159964
7 *530:A1 *96:88 8.65905e-05
*RES
1 *525:X *530:A1 10.575 
*END

*D_NET *73 0.00100484
*CONN
*I *530:A2 I *D sky130_fd_sc_hd__a221o_1
*I *526:Y O *D sky130_fd_sc_hd__nand2_1
*CAP
1 *530:A2 0.000226991
2 *526:Y 0.000226991
3 *530:A2 *525:A 2.8185e-05
4 *530:A2 *525:B 1.17409e-05
5 *530:A2 *530:C1 0.000138908
6 *530:A2 *550:A 0.000139245
7 *530:A2 *635:A 2.75229e-05
8 *530:A2 *95:23 7.70938e-05
9 *530:A2 *95:29 2.49909e-05
10 *530:A1 *530:A2 0.000103173
*RES
1 *526:Y *530:A2 11.9775 
*END

*D_NET *74 0.000608089
*CONN
*I *530:C1 I *D sky130_fd_sc_hd__a221o_1
*I *527:X O *D sky130_fd_sc_hd__xor2_1
*CAP
1 *530:C1 0.00018187
2 *527:X 0.00018187
3 *530:C1 *530:B2 1.12643e-05
4 *530:C1 *96:88 5.96314e-05
5 *530:A1 *530:C1 3.45438e-05
6 *530:A2 *530:C1 0.000138908
*RES
1 *527:X *530:C1 6.77 
*END

*D_NET *75 0.000754471
*CONN
*I *530:B1 I *D sky130_fd_sc_hd__a221o_1
*I *528:X O *D sky130_fd_sc_hd__or2_1
*CAP
1 *530:B1 0.000253829
2 *528:X 0.000253829
3 *530:B1 *530:B2 0.000235073
4 *530:B1 *531:B1 0
5 *530:B1 *98:69 1.17409e-05
*RES
1 *528:X *530:B1 11.01 
*END

*D_NET *76 0.000996045
*CONN
*I *530:B2 I *D sky130_fd_sc_hd__a221o_1
*I *529:Y O *D sky130_fd_sc_hd__nand2_1
*CAP
1 *530:B2 0.000249979
2 *529:Y 0.000249979
3 *530:B2 *528:B 9.80943e-06
4 *530:B2 *529:A 7.22354e-05
5 *530:B2 *529:B 5.83121e-06
6 *530:B2 *96:88 7.25921e-06
7 *530:B2 *98:69 9.01848e-05
8 *530:B2 *150:27 5.21627e-05
9 *530:B2 *150:33 1.22676e-05
10 *530:B1 *530:B2 0.000235073
11 *530:C1 *530:B2 1.12643e-05
*RES
1 *529:Y *530:B2 12.7537 
*END

*D_NET *77 0.00247668
*CONN
*I *531:B1 I *D sky130_fd_sc_hd__o311a_1
*I *530:X O *D sky130_fd_sc_hd__a221o_1
*CAP
1 *531:B1 0.000596458
2 *530:X 0.000596458
3 *531:B1 *520:A 0.000225173
4 *531:B1 *550:A 0.000392919
5 *531:B1 *96:88 1.40636e-05
6 *531:B1 *98:61 0
7 *531:B1 *98:63 0
8 *531:B1 *98:69 0
9 *531:B1 *150:27 0
10 *531:B1 *150:33 0
11 *521:A1 *531:B1 0.000115254
12 *521:A2 *531:B1 9.68709e-05
13 *530:A1 *531:B1 0.000159964
14 *530:B1 *531:B1 0
15 *531:A3 *531:B1 3.59784e-05
16 *531:C1 *531:B1 0.000243539
*RES
1 *530:X *531:B1 21.3 
*END

*D_NET *78 0.00194398
*CONN
*I *558:D I *D sky130_fd_sc_hd__and4b_1
*I *531:X O *D sky130_fd_sc_hd__o311a_1
*CAP
1 *558:D 0.000506856
2 *531:X 0.000506856
3 *558:D *603:CLK 0.000122331
4 *558:D *632:A 8.49205e-05
5 *558:D *89:34 6.02123e-05
6 *558:D *98:48 5.6937e-05
7 *558:D *98:61 5.33172e-05
8 *558:D *157:48 0.000265139
9 *531:A2 *558:D 6.77417e-05
10 *557:B *558:D 0.000112123
11 *557:D *558:D 0.000107542
*RES
1 *531:X *558:D 16.2862 
*END

*D_NET *79 0.000336743
*CONN
*I *533:C1 I *D sky130_fd_sc_hd__a221oi_1
*I *532:X O *D sky130_fd_sc_hd__xor2_1
*CAP
1 *533:C1 0.000157869
2 *532:X 0.000157869
3 *533:C1 *532:A 0
4 *533:C1 *532:B 2.97004e-06
5 *533:C1 *584:S 0
6 *533:C1 *92:37 0
7 *533:B2 *533:C1 9.50342e-06
8 *659:A *533:C1 8.53113e-06
*RES
1 *532:X *533:C1 9.795 
*END

*D_NET *80 0.000842359
*CONN
*I *534:C1 I *D sky130_fd_sc_hd__o221a_1
*I *533:Y O *D sky130_fd_sc_hd__a221oi_1
*CAP
1 *534:C1 0.000109548
2 *533:Y 0.000109548
3 *534:C1 *533:B1 0.000198934
4 *534:C1 *101:57 0.000179015
5 *534:C1 *148:18 0.000125682
6 *533:A2 *534:C1 0.000119631
*RES
1 *533:Y *534:C1 11.175 
*END

*D_NET *81 0.00296175
*CONN
*I *558:A_N I *D sky130_fd_sc_hd__and4b_1
*I *534:X O *D sky130_fd_sc_hd__o221a_1
*CAP
1 *558:A_N 0.000864503
2 *534:X 0.000864503
3 *558:A_N *537:A 0.000112123
4 *558:A_N *539:A1 0.000288197
5 *558:A_N *578:A0 4.36241e-05
6 *558:A_N *578:S 0.000114024
7 *558:A_N *643:A 0
8 *558:A_N *96:56 4.82863e-05
9 *558:A_N *149:100 0.00034222
10 *628:A *558:A_N 0.000284274
*RES
1 *534:X *558:A_N 20.04 
*END

*D_NET *82 0.000323374
*CONN
*I *539:B1 I *D sky130_fd_sc_hd__a211o_1
*I *535:X O *D sky130_fd_sc_hd__xor2_1
*CAP
1 *539:B1 4.76492e-05
2 *535:X 4.76492e-05
3 *539:B1 *535:B 0.000122325
4 *539:B1 *539:C1 8.65905e-05
5 *539:B1 *631:A 1.91597e-05
*RES
1 *535:X *539:B1 4.7 
*END

*D_NET *83 0.00103999
*CONN
*I *539:C1 I *D sky130_fd_sc_hd__a211o_1
*I *536:X O *D sky130_fd_sc_hd__xor2_1
*CAP
1 *539:C1 0.00030975
2 *536:X 0.00030975
3 *539:C1 *535:B 4.35432e-05
4 *539:C1 *631:A 0.000161529
5 *539:C1 *97:29 0
6 *539:C1 *97:33 8.71001e-05
7 *539:C1 *97:82 4.43871e-06
8 *539:C1 *98:48 3.72916e-05
9 *539:B1 *539:C1 8.65905e-05
10 *628:A *539:C1 0
*RES
1 *536:X *539:C1 12.9 
*END

*D_NET *84 0.00118012
*CONN
*I *539:A1 I *D sky130_fd_sc_hd__a211o_1
*I *537:X O *D sky130_fd_sc_hd__or2_1
*CAP
1 *539:A1 0.000137329
2 *537:X 0.000137329
3 *539:A1 *537:A 0.00013521
4 *539:A1 *539:A2 0.000136182
5 *539:A1 *575:A1 0.00010978
6 *539:A1 *578:A0 0.000224532
7 *539:A1 *643:A 1.1561e-05
8 *558:A_N *539:A1 0.000288197
*RES
1 *537:X *539:A1 12.3 
*END

*D_NET *85 0.00211799
*CONN
*I *539:A2 I *D sky130_fd_sc_hd__a211o_1
*I *538:Y O *D sky130_fd_sc_hd__nand2_1
*CAP
1 *539:A2 0.000549035
2 *538:Y 0.000549035
3 *539:A2 *575:A1 1.91597e-05
4 *539:A2 *643:A 0.000134509
5 *539:A2 *151:31 0.000303869
6 *539:A2 *151:35 0.0004262
7 *539:A1 *539:A2 0.000136182
*RES
1 *538:Y *539:A2 15.84 
*END

*D_NET *86 0.000787201
*CONN
*I *557:A I *D sky130_fd_sc_hd__and4_1
*I *539:X O *D sky130_fd_sc_hd__a211o_1
*CAP
1 *557:A 7.55954e-05
2 *539:X 7.55954e-05
3 *557:A *537:A 0.000349587
4 *557:A *631:A 0.000163199
5 *557:C *557:A 0.000123225
*RES
1 *539:X *557:A 6.41 
*END

*D_NET *87 0.00228995
*CONN
*I *545:C1 I *D sky130_fd_sc_hd__a221o_1
*I *540:X O *D sky130_fd_sc_hd__xor2_1
*CAP
1 *545:C1 0.000627149
2 *540:X 0.000627149
3 *545:C1 *565:A0 0.000139933
4 *545:C1 *597:RESET_B 5.23585e-05
5 *545:C1 *97:128 0.000328869
6 *545:C1 *178:12 2.48374e-05
7 *545:B2 *545:C1 0.000489651
*RES
1 *540:X *545:C1 18.54 
*END

*D_NET *88 0.00097106
*CONN
*I *545:A1 I *D sky130_fd_sc_hd__a221o_1
*I *541:X O *D sky130_fd_sc_hd__or2_1
*CAP
1 *545:A1 0.00028829
2 *541:X 0.00028829
3 *545:A1 *626:CLK 4.54719e-05
4 *545:A1 *91:61 9.37731e-05
5 *545:A1 *100:14 1.16578e-05
6 *545:A1 *100:24 0.000104332
7 *545:B1 *545:A1 0.000139245
*RES
1 *541:X *545:A1 11.7 
*END

*D_NET *89 0.00656508
*CONN
*I *631:A I *D sky130_fd_sc_hd__clkbuf_16
*I *632:A I *D sky130_fd_sc_hd__clkbuf_16
*I *630:A I *D sky130_fd_sc_hd__clkbuf_16
*I *629:A I *D sky130_fd_sc_hd__clkbuf_16
*I *628:X O *D sky130_fd_sc_hd__clkbuf_16
*CAP
1 *631:A 0.000473742
2 *632:A 4.70202e-05
3 *630:A 5.05183e-05
4 *629:A 0.000385887
5 *628:X 3.7187e-05
6 *89:34 0.000914307
7 *89:10 0.000698412
8 *89:8 0.000692738
9 *629:A *624:RESET_B 9.31061e-05
10 *629:A *639:A 0.000121103
11 *629:A *99:10 4.65607e-05
12 *629:A *100:81 0
13 *629:A *156:27 0.000479284
14 *629:A *174:8 0
15 *629:A *174:21 0
16 *630:A *664:A 4.99619e-05
17 *630:A *91:8 4.35432e-05
18 *631:A *535:B 2.45351e-05
19 *631:A *537:A 8.82557e-05
20 *631:A *643:A 0
21 *631:A *97:43 0.000124895
22 *631:A *97:82 7.68414e-06
23 *632:A *157:48 1.91597e-05
24 *89:8 *567:A1 2.77183e-05
25 *89:10 *590:A0 0
26 *89:10 *590:A1 0.000496027
27 *89:10 *100:81 0
28 *89:10 *174:21 0
29 *89:34 *558:C 0
30 *89:34 *567:A1 0.000249234
31 *89:34 *590:A1 0.000155169
32 *89:34 *643:A 0
33 *539:B1 *631:A 1.91597e-05
34 *539:C1 *631:A 0.000161529
35 *557:A *631:A 0.000163199
36 *557:B *630:A 7.00889e-06
37 *557:B *631:A 7.21296e-06
38 *557:B *89:10 0.000248396
39 *557:B *89:34 0.000156082
40 *557:D *631:A 0.000112288
41 *557:D *632:A 4.82919e-05
42 *558:B *631:A 4.75134e-05
43 *558:D *632:A 8.49205e-05
44 *558:D *89:34 6.02123e-05
45 *599:D *89:8 0.000123225
46 *661:A *89:34 0
*RES
1 *628:X *89:8 4.74 
2 *89:8 *89:10 7.755 
3 *89:10 *629:A 13.11 
4 *89:10 *630:A 4.74 
5 *89:8 *89:34 8.775 
6 *89:34 *632:A 4.74 
7 *89:34 *631:A 12.45 
*END

*D_NET *90 0.00805601
*CONN
*I *619:CLK I *D sky130_fd_sc_hd__dfrtp_1
*I *602:CLK I *D sky130_fd_sc_hd__dfrtp_1
*I *612:CLK I *D sky130_fd_sc_hd__dfrtp_1
*I *593:CLK I *D sky130_fd_sc_hd__dfrtp_1
*I *623:CLK I *D sky130_fd_sc_hd__dfrtp_1
*I *620:CLK I *D sky130_fd_sc_hd__dfrtp_1
*I *627:CLK I *D sky130_fd_sc_hd__dfrtp_1
*I *594:CLK I *D sky130_fd_sc_hd__dfrtp_1
*I *622:CLK I *D sky130_fd_sc_hd__dfrtp_1
*I *621:CLK I *D sky130_fd_sc_hd__dfrtp_1
*I *629:X O *D sky130_fd_sc_hd__clkbuf_16
*CAP
1 *619:CLK 0
2 *602:CLK 0.000271699
3 *612:CLK 0
4 *593:CLK 0
5 *623:CLK 0
6 *620:CLK 0.000329501
7 *627:CLK 2.09808e-05
8 *594:CLK 7.68274e-05
9 *622:CLK 0
10 *621:CLK 1.81446e-05
11 *629:X 0.000107008
12 *90:86 0.000615254
13 *90:80 0.000621211
14 *90:74 0.000465967
15 *90:72 0.000585558
16 *90:66 0.00088367
17 *90:49 0.00104497
18 *90:22 0.000188868
19 *90:14 0.000487387
20 *90:8 0.000670515
21 *594:CLK *588:A 9.47972e-06
22 *620:CLK *586:A1 0
23 *621:CLK *99:37 2.30292e-05
24 *90:8 *156:27 0.00016031
25 *90:14 *563:A1 4.47897e-05
26 *90:14 *116:27 0
27 *90:22 *563:A1 3.66789e-06
28 *90:22 *588:A 8.90199e-05
29 *90:22 *622:RESET_B 0
30 *90:22 *99:37 0.000234081
31 *90:49 *559:A 9.83398e-05
32 *90:49 *563:A0 9.71067e-05
33 *90:49 *563:A1 2.34423e-05
34 *90:49 *679:A 2.38466e-05
35 *90:49 *116:27 0
36 *90:66 *679:A 3.90873e-06
37 *90:72 *612:D 0
38 *90:72 *619:D 0
39 *90:72 *98:19 0
40 *90:74 *561:A0 0
41 *90:74 *612:D 0
42 *90:74 *98:19 0
43 *90:80 *561:A0 0
44 *90:80 *638:A 0.000126856
45 *90:86 *561:A0 0
46 *589:B *594:CLK 4.88478e-05
47 *589:B *90:22 0.000103597
48 *593:D *90:86 0
49 *594:D *594:CLK 2.68464e-05
50 *594:D *90:14 0.000112031
51 *594:D *90:22 2.68016e-05
52 *595:D *90:14 0.000203762
53 *595:D *90:49 7.06865e-05
54 *622:D *90:22 2.18433e-05
55 *627:D *90:49 0.000116158
56 *653:A *620:CLK 0
*RES
1 *629:X *90:8 5.085 
2 *90:8 *90:14 5.25 
3 *90:14 *90:22 6.425 
4 *90:22 *621:CLK 2.05 
5 *90:22 *622:CLK 1.6 
6 *90:14 *594:CLK 5.085 
7 *90:8 *90:49 8.765 
8 *90:49 *627:CLK 1.96 
9 *90:49 *90:66 8.19 
10 *90:66 *90:72 4.94 
11 *90:72 *90:74 2.145 
12 *90:74 *90:80 7.7 
13 *90:80 *90:86 6.635 
14 *90:86 *620:CLK 8.925 
15 *90:86 *623:CLK 3.6 
16 *90:80 *593:CLK 1.6 
17 *90:74 *612:CLK 3.6 
18 *90:72 *602:CLK 7.5 
19 *90:66 *619:CLK 1.6 
*END

*D_NET *91 0.0103357
*CONN
*I *626:CLK I *D sky130_fd_sc_hd__dfrtp_1
*I *625:CLK I *D sky130_fd_sc_hd__dfrtp_1
*I *598:CLK I *D sky130_fd_sc_hd__dfrtp_1
*I *597:CLK I *D sky130_fd_sc_hd__dfrtp_1
*I *599:CLK I *D sky130_fd_sc_hd__dfrtp_1
*I *633:A I *D sky130_fd_sc_hd__clkbuf_8
*I *624:CLK I *D sky130_fd_sc_hd__dfrtp_1
*I *596:CLK I *D sky130_fd_sc_hd__dfrtp_1
*I *595:CLK I *D sky130_fd_sc_hd__dfrtp_1
*I *630:X O *D sky130_fd_sc_hd__clkbuf_16
*CAP
1 *626:CLK 0.000441635
2 *625:CLK 0.000163769
3 *598:CLK 3.17314e-05
4 *597:CLK 0
5 *599:CLK 0.000289775
6 *633:A 0.000190967
7 *624:CLK 0
8 *596:CLK 0
9 *595:CLK 0.000421121
10 *630:X 0
11 *91:65 0.000195617
12 *91:61 0.000386005
13 *91:59 0.000861029
14 *91:35 0.000579378
15 *91:14 0.000551691
16 *91:10 0.000224997
17 *91:8 0.000781731
18 *91:4 0.000949712
19 *595:CLK *562:A0 0.000196461
20 *595:CLK *636:A 2.11084e-05
21 *599:CLK *558:C 0.000116853
22 *599:CLK *599:RESET_B 5.25348e-05
23 *599:CLK *641:A 2.16833e-05
24 *599:CLK *97:29 0
25 *599:CLK *100:81 9.93953e-05
26 *625:CLK *541:B 0.000220104
27 *625:CLK *625:RESET_B 4.2463e-05
28 *625:CLK *100:6 0.000221224
29 *625:CLK *100:14 0.000169307
30 *626:CLK *566:A1 6.44872e-05
31 *626:CLK *626:D 6.98327e-05
32 *626:CLK *635:A 6.0011e-05
33 *626:CLK *674:A 2.97004e-06
34 *626:CLK *175:19 6.44872e-05
35 *626:CLK *176:8 0.000123225
36 *633:A *590:A0 0.0001249
37 *633:A *96:88 0.000501139
38 *91:8 *647:A 0.000272984
39 *91:8 *664:A 0.000278111
40 *91:10 *636:A 0
41 *91:14 *636:A 0
42 *91:14 *100:56 0
43 *91:14 *157:12 0
44 *91:35 *636:A 0
45 *91:35 *100:81 0
46 *91:59 *564:A0 8.65961e-05
47 *91:59 *647:A 0.000469632
48 *91:59 *95:8 8.01692e-05
49 *91:65 *598:RESET_B 0
50 *545:A1 *626:CLK 4.54719e-05
51 *545:A1 *91:61 9.37731e-05
52 *545:A2 *626:CLK 3.05373e-05
53 *545:A2 *91:61 7.44453e-05
54 *545:A2 *91:65 0.0001274
55 *545:B1 *91:61 2.05583e-05
56 *545:B1 *91:65 0.000201938
57 *545:B2 *91:59 6.03947e-06
58 *557:B *91:8 6.07575e-06
59 *594:D *595:CLK 6.72796e-05
60 *624:D *633:A 4.66108e-05
61 *624:D *91:10 6.14689e-05
62 *624:D *91:14 1.43521e-05
63 *624:D *91:35 6.73751e-05
64 *630:A *91:8 4.35432e-05
*RES
1 *630:X *91:4 1.6 
2 *91:4 *91:8 11.42 
3 *91:8 *91:10 1.89 
4 *91:10 *91:14 4.145 
5 *91:14 *595:CLK 9.295 
6 *91:14 *596:CLK 1.6 
7 *91:10 *624:CLK 3.6 
8 *91:8 *91:35 2.145 
9 *91:35 *633:A 8.19 
10 *91:35 *599:CLK 9.525 
11 *91:4 *91:59 8.66 
12 *91:59 *91:61 1.635 
13 *91:61 *91:65 6.185 
14 *91:65 *597:CLK 1.6 
15 *91:65 *598:CLK 2.05 
16 *91:61 *625:CLK 9.225 
17 *91:59 *626:CLK 12.225 
*END

*D_NET *92 0.010196
*CONN
*I *610:CLK I *D sky130_fd_sc_hd__dfrtp_1
*I *617:CLK I *D sky130_fd_sc_hd__dfrtp_1
*I *614:CLK I *D sky130_fd_sc_hd__dfrtp_1
*I *615:CLK I *D sky130_fd_sc_hd__dfrtp_1
*I *618:CLK I *D sky130_fd_sc_hd__dfrtp_1
*I *613:CLK I *D sky130_fd_sc_hd__dfrtp_1
*I *606:CLK I *D sky130_fd_sc_hd__dfrtp_1
*I *609:CLK I *D sky130_fd_sc_hd__dfrtp_1
*I *616:CLK I *D sky130_fd_sc_hd__dfrtp_1
*I *611:CLK I *D sky130_fd_sc_hd__dfrtp_1
*I *631:X O *D sky130_fd_sc_hd__clkbuf_16
*CAP
1 *610:CLK 0.000134432
2 *617:CLK 0.000179173
3 *614:CLK 1.77753e-05
4 *615:CLK 3.55506e-05
5 *618:CLK 0
6 *613:CLK 0.00011709
7 *606:CLK 0.000249958
8 *609:CLK 0.00024776
9 *616:CLK 0
10 *611:CLK 0
11 *631:X 0.000249453
12 *92:102 0.000454497
13 *92:48 0.000766474
14 *92:41 0.000366888
15 *92:37 0.00080978
16 *92:35 0.000687341
17 *92:31 0.000640668
18 *92:25 0.00105758
19 *92:19 0.000701446
20 *92:10 0.000282537
21 *606:CLK *616:RESET_B 9.30977e-05
22 *606:CLK *101:36 0.000251228
23 *606:CLK *127:6 0.00011964
24 *609:CLK *680:A 0.000277758
25 *609:CLK *101:46 0
26 *613:CLK *690:A 4.66108e-05
27 *617:CLK *580:A0 0.000196669
28 *617:CLK *580:A1 0.000183714
29 *617:CLK *580:S 8.52883e-05
30 *92:10 *555:B 0.000112123
31 *92:10 *97:43 2.22123e-05
32 *92:10 *160:12 0.000289004
33 *92:10 *161:14 0.000185411
34 *92:19 *160:12 0.000141592
35 *92:19 *161:14 0.000132089
36 *92:25 *161:14 6.0096e-05
37 *92:31 *161:14 1.17409e-05
38 *92:37 *532:A 0
39 *92:37 *127:23 0
40 *92:48 *127:6 6.52265e-05
41 *92:48 *127:12 0.000157959
42 *92:102 *580:A0 2.92496e-05
43 *92:102 *678:A 0
44 *92:102 *160:12 8.53113e-06
45 *92:102 *161:14 7.32199e-05
46 num_to_send_o[0] *613:CLK 4.82919e-05
47 *533:B2 *92:37 0
48 *533:C1 *92:37 0
49 *615:D *92:31 0.000448394
50 *616:D *92:37 5.72091e-05
51 *616:D *92:41 6.23375e-05
52 *618:D *92:37 3.89528e-05
53 *651:A *92:102 0
*RES
1 *631:X *92:10 8.85 
2 *92:10 *611:CLK 3.6 
3 *92:10 *92:19 1.635 
4 *92:19 *92:25 7.985 
5 *92:25 *92:31 7.47 
6 *92:31 *92:35 3.38 
7 *92:35 *92:37 10.56 
8 *92:37 *92:41 3.89 
9 *92:41 *616:CLK 1.6 
10 *92:41 *92:48 4.935 
11 *92:48 *609:CLK 10.61 
12 *92:48 *606:CLK 7.57 
13 *92:37 *613:CLK 5.43 
14 *92:35 *618:CLK 3.6 
15 *92:31 *615:CLK 2.215 
16 *92:25 *614:CLK 1.96 
17 *92:19 *92:102 4.655 
18 *92:102 *617:CLK 5.845 
19 *92:102 *610:CLK 3.43 
*END

*D_NET *93 0.00958073
*CONN
*I *605:CLK I *D sky130_fd_sc_hd__dfrtp_1
*I *634:A I *D sky130_fd_sc_hd__clkinv_2
*I *604:CLK I *D sky130_fd_sc_hd__dfrtp_1
*I *607:CLK I *D sky130_fd_sc_hd__dfrtp_1
*I *608:CLK I *D sky130_fd_sc_hd__dfrtp_1
*I *601:CLK I *D sky130_fd_sc_hd__dfrtp_1
*I *600:CLK I *D sky130_fd_sc_hd__dfrtp_1
*I *603:CLK I *D sky130_fd_sc_hd__dfrtp_1
*I *632:X O *D sky130_fd_sc_hd__clkbuf_16
*CAP
1 *605:CLK 0
2 *634:A 0
3 *604:CLK 0.000154717
4 *607:CLK 0.000340153
5 *608:CLK 0.00028313
6 *601:CLK 0
7 *600:CLK 0.000347134
8 *603:CLK 0.000873762
9 *632:X 0
10 *93:84 0.000696173
11 *93:71 0.000607334
12 *93:67 0.000253947
13 *93:63 0.000280806
14 *93:31 0.000608512
15 *93:12 0.00119649
16 *93:6 0.000211111
17 *600:CLK *520:A 7.00889e-06
18 *600:CLK *547:B 0.000100323
19 *600:CLK *601:RESET_B 9.42224e-05
20 *600:CLK *97:93 0
21 *600:CLK *102:28 2.77283e-05
22 *603:CLK *523:B 0
23 *603:CLK *546:A 7.45881e-05
24 *603:CLK *590:A1 5.5444e-05
25 *603:CLK *603:D 2.49909e-05
26 *603:CLK *603:RESET_B 0.000115217
27 *603:CLK *663:A 4.99619e-05
28 *603:CLK *95:71 0
29 *603:CLK *102:40 0
30 *603:CLK *150:23 0.000101317
31 *603:CLK *151:14 0.000183043
32 *603:CLK *168:12 5.30673e-05
33 *604:CLK *607:RESET_B 2.40101e-05
34 *604:CLK *166:8 1.47256e-05
35 *608:CLK *522:B 1.56428e-05
36 *608:CLK *102:51 0.000140145
37 *93:12 *150:112 0.000115464
38 *93:31 *547:B 9.27255e-06
39 *93:31 *550:A 1.12578e-05
40 *93:31 *550:B 0.000195482
41 *93:63 *97:82 6.36578e-05
42 *93:63 *150:112 0.00035991
43 *93:67 *538:B 5.84828e-05
44 *93:67 *575:A0 0.00010492
45 *93:67 *575:S 0
46 *93:67 *151:31 0.000198934
47 *93:71 *522:B 0.00011379
48 *93:71 *538:A 0
49 *93:71 *97:82 0
50 *93:71 *102:40 0
51 *93:71 *102:51 0
52 *93:84 *607:RESET_B 5.93674e-05
53 *93:84 *102:51 0
54 *93:84 *121:10 0.000163019
55 *521:B1 *600:CLK 3.64998e-06
56 *521:B2 *600:CLK 4.00541e-06
57 *531:A1 *93:12 0.000115464
58 *531:A1 *93:63 0.00019662
59 *531:A2 *603:CLK 0.000232111
60 *531:A3 *93:31 0.000194694
61 *551:A1 *93:31 8.40213e-05
62 *551:B2 *93:31 4.82863e-05
63 *558:D *603:CLK 0.000122331
64 *600:D *600:CLK 7.23602e-05
65 *601:D *600:CLK 9.14049e-05
66 *604:D *604:CLK 2.75229e-05
67 *655:A *93:84 0
*RES
1 *632:X *93:6 3.6 
2 *93:6 *93:12 3.74 
3 *93:12 *603:CLK 21.98 
4 *93:12 *93:31 5.205 
5 *93:31 *600:CLK 12.125 
6 *93:31 *601:CLK 1.6 
7 *93:6 *93:63 6.635 
8 *93:63 *93:67 3.57 
9 *93:67 *93:71 4.145 
10 *93:71 *608:CLK 8.535 
11 *93:71 *93:84 6.185 
12 *93:84 *607:CLK 6.535 
13 *93:84 *604:CLK 4.12 
14 *93:67 *634:A 1.6 
15 *93:63 *605:CLK 1.6 
*END

*D_NET *94 0.000174339
*CONN
*I *515:A I *D sky130_fd_sc_hd__or3_1
*I *687:X O *D sky130_fd_sc_hd__clkbuf_1
*CAP
1 *515:A 6.92347e-05
2 *687:X 6.92347e-05
3 *515:A *515:C 3.00381e-05
4 *687:A *515:A 5.83121e-06
*RES
1 *687:X *515:A 4.355 
*END

*D_NET *95 0.0125011
*CONN
*I *542:A I *D sky130_fd_sc_hd__nand2_1
*I *538:A I *D sky130_fd_sc_hd__nand2_1
*I *537:A I *D sky130_fd_sc_hd__or2_1
*I *522:A I *D sky130_fd_sc_hd__xor2_1
*I *549:A I *D sky130_fd_sc_hd__or2_1
*I *519:A I *D sky130_fd_sc_hd__nand2_1
*I *518:A I *D sky130_fd_sc_hd__or2_1
*I *526:A I *D sky130_fd_sc_hd__nand2_1
*I *525:A I *D sky130_fd_sc_hd__or2_1
*I *541:A I *D sky130_fd_sc_hd__or2_1
*I *635:X O *D sky130_fd_sc_hd__clkbuf_2
*CAP
1 *542:A 0.000387068
2 *538:A 0.000122791
3 *537:A 0.000276361
4 *522:A 0
5 *549:A 0.000458201
6 *519:A 1.47012e-05
7 *518:A 2.7641e-05
8 *526:A 0
9 *525:A 4.7656e-05
10 *541:A 0.000132936
11 *635:X 0
12 *95:90 0.000312267
13 *95:88 0.000234272
14 *95:71 0.000748305
15 *95:60 0.000515885
16 *95:43 0.000439709
17 *95:29 7.96269e-05
18 *95:23 0.00030314
19 *95:8 0.000494724
20 *95:4 0.000603099
21 *518:A *519:B 0.000122337
22 *518:A *520:B 0.000119762
23 *519:A *663:A 8.53113e-06
24 *519:A *98:61 3.05295e-05
25 *519:A *150:23 2.60986e-05
26 *525:A *525:B 4.66108e-05
27 *537:A *535:B 0.000155497
28 *537:A *537:B 0.000124007
29 *537:A *575:A1 8.49205e-05
30 *537:A *577:S 1.44259e-05
31 *537:A *578:A0 0.000163199
32 *537:A *97:82 0.000295519
33 *537:A *164:19 3.66286e-05
34 *538:A *522:B 0
35 *538:A *97:82 0
36 *538:A *151:14 5.16418e-05
37 *538:A *151:31 0.000106655
38 *541:A *564:A0 0
39 *541:A *565:S 0
40 *541:A *97:128 0.000247567
41 *542:A *566:A0 0
42 *542:A *566:S 0
43 *542:A *591:A0 0.000238919
44 *542:A *591:S 0.000165698
45 *542:A *625:D 0
46 *542:A *105:8 0.000160658
47 *542:A *105:19 0.000221366
48 *542:A *150:79 0
49 *549:A *157:48 7.28063e-05
50 *95:8 *647:A 5.83121e-06
51 *95:23 *550:A 3.77199e-05
52 *95:23 *96:88 2.96046e-05
53 *95:23 *97:118 0.000175894
54 *95:23 *97:128 0.00012815
55 *95:29 *525:B 5.4155e-06
56 *95:29 *674:A 0
57 *95:43 *550:A 0.000129744
58 *95:43 *97:118 0.000362393
59 *95:60 *519:B 2.49909e-05
60 *95:60 *520:A 0.00015896
61 *95:60 *550:A 1.44524e-05
62 *95:60 *97:118 7.34442e-05
63 *95:71 *98:61 0.000155232
64 *95:71 *150:23 8.15598e-05
65 *95:71 *150:112 5.12017e-06
66 *95:71 *151:14 0.000145428
67 *95:88 *151:14 3.98952e-05
68 *95:90 *97:82 5.98073e-05
69 *521:A2 *95:60 1.79347e-05
70 *521:B1 *95:60 9.90878e-05
71 *521:B2 *95:60 0.000127646
72 *521:C1 *95:43 2.86623e-05
73 *521:C1 *95:60 6.85327e-05
74 *530:A2 *525:A 2.8185e-05
75 *530:A2 *95:23 7.70938e-05
76 *530:A2 *95:29 2.49909e-05
77 *531:A1 *95:71 0.00024756
78 *531:A1 *95:88 0.000273451
79 *531:A1 *95:90 8.65905e-05
80 *531:C1 *95:60 0.00012657
81 *539:A1 *537:A 0.00013521
82 *545:A2 *542:A 2.75145e-05
83 *545:A2 *95:8 6.7053e-05
84 *545:B2 *95:8 1.12643e-05
85 *551:A2 *549:A 3.38944e-05
86 *551:B1 *549:A 0.000197269
87 *551:B2 *549:A 1.34967e-05
88 *557:A *537:A 0.000349587
89 *557:B *95:8 0.000347029
90 *557:C *537:A 8.37704e-05
91 *557:C *95:88 0.000148977
92 *557:C *95:90 0.000241483
93 *558:A_N *537:A 0.000112123
94 *603:CLK *95:71 0
95 *628:A *537:A 3.23391e-05
96 *631:A *537:A 8.82557e-05
97 *675:A *542:A 0
98 *91:59 *95:8 8.01692e-05
99 *93:71 *538:A 0
*RES
1 *635:X *95:4 1.6 
2 *95:4 *95:8 6.59 
3 *95:8 *541:A 6.51 
4 *95:8 *95:23 4.23 
5 *95:23 *95:29 2.81 
6 *95:29 *525:A 2.74 
7 *95:29 *526:A 1.6 
8 *95:23 *95:43 4.44 
9 *95:43 *518:A 4.74 
10 *95:43 *95:60 10.645 
11 *95:60 *519:A 4.215 
12 *95:60 *95:71 6.48 
13 *95:71 *549:A 9.24 
14 *95:71 *95:88 4.865 
15 *95:88 *95:90 2.175 
16 *95:90 *522:A 1.6 
17 *95:90 *537:A 16.25 
18 *95:88 *538:A 8 
19 *95:4 *542:A 14.39 
*END

*D_NET *96 0.013307
*CONN
*I *550:A I *D sky130_fd_sc_hd__nand2_1
*I *635:A I *D sky130_fd_sc_hd__clkbuf_2
*I *514:A I *D sky130_fd_sc_hd__inv_2
*I *584:A1 I *D sky130_fd_sc_hd__mux2_1
*I *555:A I *D sky130_fd_sc_hd__xor2_1
*I *563:A0 I *D sky130_fd_sc_hd__mux2_1
*I *636:X O *D sky130_fd_sc_hd__clkbuf_2
*CAP
1 *550:A 0.00045252
2 *635:A 0.000447217
3 *514:A 0
4 *584:A1 0.000103249
5 *555:A 4.30847e-05
6 *563:A0 0.000153773
7 *636:X 0
8 *96:88 0.00197572
9 *96:56 0.00055811
10 *96:37 0.00164504
11 *96:8 0.00146671
12 *96:4 0.00124182
13 *550:A *520:A 0.000219471
14 *550:A *547:B 1.37328e-05
15 *550:A *550:B 1.24244e-05
16 *550:A *568:A1 9.71067e-05
17 *550:A *97:93 0
18 *555:A *553:A 4.66108e-05
19 *555:A *553:B 8.35106e-05
20 *563:A0 *559:A 9.54399e-05
21 *563:A0 *657:A 0.000232403
22 *584:A1 *584:A0 8.88715e-05
23 *584:A1 *692:A 9.63999e-05
24 *635:A *527:B 1.83756e-05
25 *635:A *566:A1 0.000116158
26 *635:A *626:RESET_B 6.28765e-05
27 *635:A *176:8 2.50602e-05
28 *96:8 *657:A 0.000196376
29 *96:37 *553:A 4.99524e-05
30 *96:37 *576:A0 3.56315e-05
31 *96:37 *576:S 1.83756e-05
32 *96:37 *101:57 0
33 *96:37 *149:14 0.000145382
34 *96:37 *149:63 0
35 *96:37 *157:25 0.000292175
36 *96:37 *159:14 8.94526e-05
37 *96:37 *162:10 0.000315348
38 *96:56 *513:A 0
39 *96:56 *534:A1 3.79425e-05
40 *96:56 *553:A 2.84864e-05
41 *96:56 *583:A1 0
42 *96:56 *692:A 4.41832e-05
43 *96:56 *101:57 0
44 *96:88 *590:S 0.000307109
45 *521:C1 *550:A 0.000200503
46 *530:A1 *550:A 0.000159964
47 *530:A1 *96:88 8.65905e-05
48 *530:A2 *550:A 0.000139245
49 *530:A2 *635:A 2.75229e-05
50 *530:B2 *96:88 7.25921e-06
51 *530:C1 *96:88 5.96314e-05
52 *531:A3 *550:A 3.00381e-05
53 *531:B1 *550:A 0.000392919
54 *531:B1 *96:88 1.40636e-05
55 *533:B2 *584:A1 0.000211665
56 *534:B2 *584:A1 1.47256e-05
57 *534:B2 *96:56 0.00015639
58 *556:A1 *555:A 2.10214e-05
59 *558:A_N *96:56 4.82863e-05
60 *626:CLK *635:A 6.0011e-05
61 *633:A *96:88 0.000501139
62 *90:49 *563:A0 9.71067e-05
63 *93:31 *550:A 1.12578e-05
64 *95:23 *550:A 3.77199e-05
65 *95:23 *96:88 2.96046e-05
66 *95:43 *550:A 0.000129744
67 *95:60 *550:A 1.44524e-05
*RES
1 *636:X *96:4 1.6 
2 *96:4 *96:8 2.88 
3 *96:8 *563:A0 8.9 
4 *96:8 *96:37 25.545 
5 *96:37 *555:A 4.755 
6 *96:37 *96:56 10.1 
7 *96:56 *584:A1 5.2 
8 *96:56 *514:A 1.6 
9 *96:4 *96:88 19.25 
10 *96:88 *635:A 13.57 
11 *96:88 *550:A 17.46 
*END

*D_NET *97 0.0207494
*CONN
*I *554:A I *D sky130_fd_sc_hd__or2_1
*I *527:A I *D sky130_fd_sc_hd__xor2_1
*I *543:A I *D sky130_fd_sc_hd__nand2_1
*I *544:A I *D sky130_fd_sc_hd__or2_1
*I *520:A I *D sky130_fd_sc_hd__xor2_1
*I *524:A I *D sky130_fd_sc_hd__xor2_1
*I *535:A I *D sky130_fd_sc_hd__xor2_1
*I *583:A1 I *D sky130_fd_sc_hd__mux2_1
*I *513:A I *D sky130_fd_sc_hd__inv_2
*I *562:A0 I *D sky130_fd_sc_hd__mux2_1
*I *637:X O *D sky130_fd_sc_hd__clkbuf_4
*CAP
1 *554:A 0
2 *527:A 0
3 *543:A 0.000320099
4 *544:A 4.75103e-05
5 *520:A 0.000268454
6 *524:A 0
7 *535:A 0
8 *583:A1 0.000571553
9 *513:A 0.000100717
10 *562:A0 0.000800464
11 *637:X 0
12 *97:128 0.000815767
13 *97:118 0.000901041
14 *97:93 0.00136793
15 *97:82 0.00198113
16 *97:43 0.00139317
17 *97:35 0.0007209
18 *97:33 0.00143483
19 *97:29 0.00070287
20 *97:6 0.00140305
21 *513:A *101:57 0
22 *520:A *519:B 8.23457e-05
23 *543:A *543:B 8.65905e-05
24 *543:A *598:D 4.43871e-06
25 *543:A *178:19 0.00030873
26 *544:A *565:A0 2.59981e-05
27 *544:A *178:12 1.22762e-05
28 *544:A *178:19 4.82863e-05
29 *562:A0 *595:RESET_B 0
30 *562:A0 *636:A 0
31 *562:A0 *99:10 7.06865e-05
32 *562:A0 *157:12 3.89982e-05
33 *562:A0 *157:25 3.09233e-05
34 *583:A1 *581:A0 0
35 *583:A1 *583:S 0
36 *583:A1 *614:RESET_B 9.42553e-05
37 *583:A1 *101:103 0
38 *583:A1 *148:10 6.86819e-05
39 *583:A1 *148:18 1.01661e-05
40 *583:A1 *149:100 0
41 *583:A1 *149:121 0
42 *97:29 *554:B 0.000143468
43 *97:29 *573:A0 0.000249914
44 *97:29 *573:A1 1.07797e-05
45 *97:29 *636:A 0
46 *97:29 *101:10 6.4422e-05
47 *97:29 *101:22 5.12017e-06
48 *97:29 *149:92 1.42229e-05
49 *97:29 *157:25 0.00130109
50 *97:29 *165:12 0
51 *97:82 *535:B 0.000415912
52 *97:82 *572:S 0.0001249
53 *97:82 *604:RESET_B 4.29107e-05
54 *97:82 *102:65 0.00010492
55 *97:82 *150:112 6.95335e-05
56 *97:82 *151:31 3.47837e-05
57 *97:93 *547:A 6.9117e-05
58 *97:93 *550:B 4.62396e-05
59 *97:93 *568:A1 0.000113652
60 *97:93 *569:A1 0
61 *97:93 *604:RESET_B 3.45588e-05
62 *97:93 *102:28 3.23391e-05
63 *97:93 *169:10 0
64 *97:93 *170:10 5.4239e-05
65 *97:93 *170:12 1.44259e-05
66 *97:118 *568:A0 0
67 *97:118 *592:A1 0
68 *97:118 *674:A 7.26551e-05
69 *97:118 *102:28 9.78012e-05
70 *97:118 *175:19 1.89685e-05
71 *97:118 *176:23 0
72 *97:128 *565:A0 0.000173973
73 *97:128 *565:S 0
74 *97:128 *175:19 7.34176e-05
75 *97:128 *178:12 2.25075e-05
76 *521:B1 *520:A 2.19562e-06
77 *521:B1 *97:118 7.23533e-05
78 *521:C1 *520:A 4.66742e-05
79 *531:A1 *97:82 6.38722e-05
80 *531:A3 *97:82 4.66108e-05
81 *531:B1 *520:A 0.000225173
82 *534:A2 *583:A1 0.000208491
83 *537:A *97:82 0.000295519
84 *538:A *97:82 0
85 *539:C1 *97:29 0
86 *539:C1 *97:33 8.71001e-05
87 *539:C1 *97:82 4.43871e-06
88 *541:A *97:128 0.000247567
89 *545:B1 *543:A 0
90 *545:C1 *97:128 0.000328869
91 *550:A *520:A 0.000219471
92 *550:A *97:93 0
93 *556:A2 *97:29 4.82919e-05
94 *557:C *97:93 0.000155928
95 *557:D *97:29 4.60584e-05
96 *594:D *562:A0 3.90873e-06
97 *595:CLK *562:A0 0.000196461
98 *599:CLK *97:29 0
99 *600:CLK *520:A 7.00889e-06
100 *600:CLK *97:93 0
101 *614:D *583:A1 4.77701e-05
102 *615:D *583:A1 0
103 *617:D *583:A1 0
104 *628:A *97:29 0
105 *628:A *97:82 0
106 *631:A *97:43 0.000124895
107 *631:A *97:82 7.68414e-06
108 *61:10 *513:A 7.93691e-05
109 *61:10 *583:A1 2.14129e-05
110 *92:10 *97:43 2.22123e-05
111 *93:63 *97:82 6.36578e-05
112 *93:71 *97:82 0
113 *95:23 *97:118 0.000175894
114 *95:23 *97:128 0.00012815
115 *95:43 *97:118 0.000362393
116 *95:60 *520:A 0.00015896
117 *95:60 *97:118 7.34442e-05
118 *95:90 *97:82 5.98073e-05
119 *96:56 *513:A 0
120 *96:56 *583:A1 0
*RES
1 *637:X *97:6 3.6 
2 *97:6 *562:A0 14.655 
3 *97:6 *97:29 19.16 
4 *97:29 *97:33 3.89 
5 *97:33 *97:35 2 
6 *97:35 *97:43 10.76 
7 *97:43 *513:A 5.43 
8 *97:43 *583:A1 14.415 
9 *97:35 *535:A 1.6 
10 *97:33 *97:82 26.37 
11 *97:82 *524:A 1.6 
12 *97:82 *97:93 14.375 
13 *97:93 *520:A 12.88 
14 *97:93 *97:118 10.035 
15 *97:118 *97:128 10.995 
16 *97:128 *544:A 4.665 
17 *97:128 *543:A 11.77 
18 *97:118 *527:A 3.6 
19 *97:29 *554:A 1.6 
*END

*D_NET *98 0.0112564
*CONN
*I *532:B I *D sky130_fd_sc_hd__xor2_1
*I *516:A I *D sky130_fd_sc_hd__or2_1
*I *517:A I *D sky130_fd_sc_hd__nand2_1
*I *528:A I *D sky130_fd_sc_hd__or2_1
*I *529:A I *D sky130_fd_sc_hd__nand2_1
*I *523:A I *D sky130_fd_sc_hd__xor2_1
*I *536:A I *D sky130_fd_sc_hd__xor2_1
*I *552:A I *D sky130_fd_sc_hd__xor2_1
*I *582:A1 I *D sky130_fd_sc_hd__mux2_1
*I *561:A0 I *D sky130_fd_sc_hd__mux2_1
*I *638:X O *D sky130_fd_sc_hd__clkbuf_4
*CAP
1 *532:B 0.000117548
2 *516:A 0
3 *517:A 4.26104e-05
4 *528:A 0
5 *529:A 6.21888e-05
6 *523:A 2.08101e-05
7 *536:A 0
8 *552:A 0
9 *582:A1 0
10 *561:A0 0.000329179
11 *638:X 0
12 *98:69 0.000331628
13 *98:63 0.000401881
14 *98:61 0.000552013
15 *98:48 0.00107648
16 *98:37 0.000738489
17 *98:30 0.000998474
18 *98:21 0.000853478
19 *98:19 0.000787865
20 *98:6 0.000999496
21 *517:A *517:B 4.82919e-05
22 *517:A *641:A 3.23663e-05
23 *517:A *150:66 0.0001249
24 *529:A *528:B 4.82863e-05
25 *532:B *532:A 0.000105849
26 *532:B *613:D 7.45968e-05
27 *532:B *127:23 2.4997e-05
28 *561:A0 *593:RESET_B 0
29 *561:A0 *602:D 5.29405e-05
30 *561:A0 *638:A 5.63318e-05
31 *98:19 *582:A0 0.000425135
32 *98:19 *602:D 3.47668e-05
33 *98:19 *613:D 3.68596e-05
34 *98:19 *680:A 0
35 *98:30 *552:B 9.43619e-05
36 *98:30 *576:A1 0.000259747
37 *98:30 *579:A0 0.000468744
38 *98:30 *579:A1 0.000177857
39 *98:37 *149:8 8.23457e-05
40 *98:48 *643:A 0.000196376
41 *98:48 *149:8 0.000188063
42 *98:61 *519:B 0.000138651
43 *98:61 *663:A 4.05234e-05
44 *98:61 *150:112 0.000137578
45 *98:63 *517:B 1.52945e-05
46 *98:63 *519:B 9.50342e-06
47 *98:63 *663:A 2.97004e-06
48 *98:63 *171:21 6.52819e-05
49 *98:69 *517:B 1.22762e-05
50 *98:69 *150:27 0
51 *519:A *98:61 3.05295e-05
52 *521:A2 *98:63 6.5265e-05
53 *521:B2 *98:61 1.92979e-05
54 *530:B1 *98:69 1.17409e-05
55 *530:B2 *529:A 7.22354e-05
56 *530:B2 *98:69 9.01848e-05
57 *531:A2 *98:61 0.000200156
58 *531:B1 *98:61 0
59 *531:B1 *98:63 0
60 *531:B1 *98:69 0
61 *531:C1 *98:61 0
62 *533:C1 *532:B 2.97004e-06
63 *539:C1 *98:48 3.72916e-05
64 *551:C1 *98:61 7.21296e-06
65 *558:D *98:48 5.6937e-05
66 *558:D *98:61 5.33172e-05
67 *593:D *561:A0 0.000100389
68 *659:A *532:B 0
69 *661:A *98:48 8.65961e-05
70 *90:72 *98:19 0
71 *90:74 *561:A0 0
72 *90:74 *98:19 0
73 *90:80 *561:A0 0
74 *90:86 *561:A0 0
75 *95:71 *98:61 0.000155232
*RES
1 *638:X *98:6 3.6 
2 *98:6 *561:A0 9.87 
3 *98:6 *98:19 13.11 
4 *98:19 *98:21 2 
5 *98:21 *582:A1 1.6 
6 *98:21 *98:30 11.76 
7 *98:30 *552:A 1.6 
8 *98:30 *98:37 2.175 
9 *98:37 *536:A 1.6 
10 *98:37 *98:48 10.23 
11 *98:48 *523:A 1.96 
12 *98:48 *98:61 12.05 
13 *98:61 *98:63 2.4 
14 *98:63 *98:69 6.41 
15 *98:69 *529:A 3.1 
16 *98:69 *528:A 1.6 
17 *98:63 *517:A 5.1 
18 *98:61 *516:A 3.6 
19 *98:19 *532:B 6.705 
*END

*D_NET *99 0.00671754
*CONN
*I *594:RESET_B I *D sky130_fd_sc_hd__dfrtp_1
*I *622:RESET_B I *D sky130_fd_sc_hd__dfrtp_1
*I *621:RESET_B I *D sky130_fd_sc_hd__dfrtp_1
*I *620:RESET_B I *D sky130_fd_sc_hd__dfrtp_1
*I *619:RESET_B I *D sky130_fd_sc_hd__dfrtp_1
*I *602:RESET_B I *D sky130_fd_sc_hd__dfrtp_1
*I *612:RESET_B I *D sky130_fd_sc_hd__dfrtp_1
*I *593:RESET_B I *D sky130_fd_sc_hd__dfrtp_1
*I *623:RESET_B I *D sky130_fd_sc_hd__dfrtp_1
*I *595:RESET_B I *D sky130_fd_sc_hd__dfrtp_1
*I *639:X O *D sky130_fd_sc_hd__clkbuf_4
*CAP
1 *594:RESET_B 0
2 *622:RESET_B 3.21773e-05
3 *621:RESET_B 0
4 *620:RESET_B 9.08645e-05
5 *619:RESET_B 0.000136
6 *602:RESET_B 0.000125719
7 *612:RESET_B 0
8 *593:RESET_B 0.000461595
9 *623:RESET_B 0.000241305
10 *595:RESET_B 4.06104e-05
11 *639:X 0.000154913
12 *99:83 0.000136942
13 *99:64 0.000347866
14 *99:57 0.000362216
15 *99:37 0.000586738
16 *99:27 0.000931115
17 *99:21 0.000563505
18 *99:10 0.000344972
19 *593:RESET_B *561:A1 0.00020613
20 *593:RESET_B *586:B1 0.000207797
21 *593:RESET_B *638:A 1.59221e-05
22 *602:RESET_B *619:D 9.26474e-05
23 *619:RESET_B *612:D 0
24 *619:RESET_B *646:A 0.000164679
25 *619:RESET_B *657:A 0
26 *620:RESET_B *515:B 0.000226154
27 *620:RESET_B *561:A1 0
28 *620:RESET_B *155:32 7.36562e-05
29 *99:10 *157:12 0
30 *99:21 *157:12 0
31 *99:27 *668:A 9.60582e-07
32 *99:37 *587:B 2.4997e-05
33 *99:37 *587:C 8.15166e-05
34 *99:57 *638:A 6.22699e-05
35 *99:57 *116:27 0
36 *99:57 *156:27 5.05437e-05
37 *99:64 *612:D 0
38 *99:64 *657:A 0
39 *99:83 *515:B 9.71067e-05
40 *99:83 *561:A1 0
41 *99:83 *586:B1 6.36578e-05
42 *99:83 *686:A 1.1561e-05
43 *99:83 *153:10 1.34361e-05
44 *561:A0 *593:RESET_B 0
45 *562:A0 *595:RESET_B 0
46 *562:A0 *99:10 7.06865e-05
47 *589:B *622:RESET_B 2.20753e-05
48 *589:B *99:27 1.82499e-06
49 *589:B *99:37 9.47267e-06
50 *621:CLK *99:37 2.30292e-05
51 *621:D *99:37 8.69471e-05
52 *623:D *593:RESET_B 0
53 *623:D *623:RESET_B 0.000115217
54 *623:D *99:37 0.000158072
55 *629:A *99:10 4.65607e-05
56 *90:22 *622:RESET_B 0
57 *90:22 *99:37 0.000234081
*RES
1 *639:X *99:10 5.9925 
2 *99:10 *595:RESET_B 2.6825 
3 *99:10 *99:21 2.5275 
4 *99:21 *99:27 6.935 
5 *99:27 *99:37 11.455 
6 *99:37 *623:RESET_B 1.0875 
7 *623:RESET_B *593:RESET_B 8.5825 
8 *593:RESET_B *99:57 6.7775 
9 *99:57 *612:RESET_B 2 
10 *99:57 *99:64 1.38 
11 *99:64 *602:RESET_B 4.1225 
12 *99:64 *619:RESET_B 4.91 
13 *99:37 *99:83 3.635 
14 *99:83 *620:RESET_B 4.655 
15 *99:83 *621:RESET_B 2 
16 *99:27 *622:RESET_B 0.7575 
17 *99:21 *594:RESET_B 2 
*END

*D_NET *100 0.0102963
*CONN
*I *626:RESET_B I *D sky130_fd_sc_hd__dfrtp_1
*I *598:RESET_B I *D sky130_fd_sc_hd__dfrtp_1
*I *625:RESET_B I *D sky130_fd_sc_hd__dfrtp_1
*I *599:RESET_B I *D sky130_fd_sc_hd__dfrtp_1
*I *627:RESET_B I *D sky130_fd_sc_hd__dfrtp_1
*I *624:RESET_B I *D sky130_fd_sc_hd__dfrtp_1
*I *639:A I *D sky130_fd_sc_hd__clkbuf_4
*I *596:RESET_B I *D sky130_fd_sc_hd__dfrtp_1
*I *597:RESET_B I *D sky130_fd_sc_hd__dfrtp_1
*I *640:X O *D sky130_fd_sc_hd__buf_2
*CAP
1 *626:RESET_B 9.15324e-05
2 *598:RESET_B 0.000329597
3 *625:RESET_B 1.79329e-05
4 *599:RESET_B 0.000202721
5 *627:RESET_B 0.000184173
6 *624:RESET_B 7.38269e-05
7 *639:A 0.000264374
8 *596:RESET_B 4.02242e-05
9 *597:RESET_B 0.000213697
10 *640:X 0.000358867
11 *100:107 0.00042113
12 *100:81 0.000721377
13 *100:58 0.000338201
14 *100:56 0.000455907
15 *100:42 0.000690915
16 *100:24 0.00118517
17 *100:14 0.000684122
18 *100:6 0.00058285
19 *596:RESET_B *596:D 7.25921e-05
20 *597:RESET_B *540:A 0
21 *597:RESET_B *565:S 0
22 *597:RESET_B *178:12 0.000120741
23 *598:RESET_B *566:A0 0
24 *598:RESET_B *566:A1 7.97252e-05
25 *598:RESET_B *566:S 0.000135539
26 *598:RESET_B *598:D 4.18603e-06
27 *599:RESET_B *558:C 5.20968e-05
28 *599:RESET_B *590:A1 0
29 *599:RESET_B *641:A 0.000343763
30 *625:RESET_B *541:B 3.86929e-05
31 *626:RESET_B *566:A1 5.93505e-05
32 *626:RESET_B *566:S 6.55328e-05
33 *626:RESET_B *591:A0 9.71067e-05
34 *626:RESET_B *150:79 3.21271e-05
35 *627:RESET_B *558:C 0.000162311
36 *100:6 *541:B 1.35081e-05
37 *100:6 *640:A 1.56428e-05
38 *100:24 *540:A 0
39 *100:24 *541:B 0.000155497
40 *100:24 *564:A1 0.000143457
41 *100:24 *564:S 2.30292e-05
42 *100:24 *565:S 0
43 *100:42 *596:D 0.000209912
44 *100:42 *177:8 4.82863e-05
45 *100:81 *590:A0 7.23533e-05
46 *100:81 *590:A1 0
47 *545:A1 *100:14 1.16578e-05
48 *545:A1 *100:24 0.000104332
49 *545:A2 *598:RESET_B 0
50 *545:B1 *598:RESET_B 0
51 *545:C1 *597:RESET_B 5.23585e-05
52 *599:CLK *599:RESET_B 5.25348e-05
53 *599:CLK *100:81 9.93953e-05
54 *624:D *100:56 9.50342e-06
55 *624:D *100:81 0.000328021
56 *625:CLK *625:RESET_B 4.2463e-05
57 *625:CLK *100:6 0.000221224
58 *625:CLK *100:14 0.000169307
59 *629:A *624:RESET_B 9.31061e-05
60 *629:A *639:A 0.000121103
61 *629:A *100:81 0
62 *635:A *626:RESET_B 6.28765e-05
63 *648:A *597:RESET_B 3.09164e-05
64 *648:A *100:24 9.54469e-05
65 *89:10 *100:81 0
66 *91:14 *100:56 0
67 *91:35 *100:81 0
68 *91:65 *598:RESET_B 0
*RES
1 *640:X *100:6 6.19 
2 *100:6 *100:14 3.6 
3 *100:14 *100:24 10.505 
4 *100:24 *597:RESET_B 6.3425 
5 *100:24 *100:42 9.815 
6 *100:42 *596:RESET_B 1.4475 
7 *100:42 *100:56 3.575 
8 *100:56 *100:58 2 
9 *100:58 *639:A 5.185 
10 *100:58 *624:RESET_B 1.4325 
11 *100:56 *100:81 7.545 
12 *100:81 *627:RESET_B 5.1575 
13 *100:81 *599:RESET_B 6.5375 
14 *100:14 *625:RESET_B 0.7425 
15 *100:6 *100:107 2 
16 *100:107 *598:RESET_B 8.5025 
17 *100:107 *626:RESET_B 5.165 
*END

*D_NET *101 0.00960534
*CONN
*I *617:RESET_B I *D sky130_fd_sc_hd__dfrtp_1
*I *615:RESET_B I *D sky130_fd_sc_hd__dfrtp_1
*I *611:RESET_B I *D sky130_fd_sc_hd__dfrtp_1
*I *610:RESET_B I *D sky130_fd_sc_hd__dfrtp_1
*I *614:RESET_B I *D sky130_fd_sc_hd__dfrtp_1
*I *618:RESET_B I *D sky130_fd_sc_hd__dfrtp_1
*I *613:RESET_B I *D sky130_fd_sc_hd__dfrtp_1
*I *616:RESET_B I *D sky130_fd_sc_hd__dfrtp_1
*I *606:RESET_B I *D sky130_fd_sc_hd__dfrtp_1
*I *609:RESET_B I *D sky130_fd_sc_hd__dfrtp_1
*I *641:X O *D sky130_fd_sc_hd__clkbuf_4
*CAP
1 *617:RESET_B 0.000130989
2 *615:RESET_B 4.26218e-05
3 *611:RESET_B 1.17451e-05
4 *610:RESET_B 0.000437906
5 *614:RESET_B 0.000107137
6 *618:RESET_B 8.02192e-05
7 *613:RESET_B 0
8 *616:RESET_B 7.66908e-05
9 *606:RESET_B 1.87475e-05
10 *609:RESET_B 0.000165333
11 *641:X 0.000293584
12 *101:103 0.000354713
13 *101:78 0.000794619
14 *101:67 0.000632833
15 *101:59 0.000260948
16 *101:57 0.000777674
17 *101:46 0.000759726
18 *101:36 0.00106144
19 *101:22 0.000920244
20 *101:10 0.000538818
21 *609:RESET_B *573:S 0.000143405
22 *609:RESET_B *162:10 4.60061e-05
23 *610:RESET_B *678:A 0
24 *614:RESET_B *149:100 0
25 *614:RESET_B *149:121 0.000147859
26 *614:RESET_B *161:14 0
27 *617:RESET_B *580:A1 8.07616e-05
28 *617:RESET_B *138:10 0
29 *617:RESET_B *138:40 0
30 *618:RESET_B *148:6 5.83121e-06
31 *101:10 *558:C 0
32 *101:22 *573:A1 9.47454e-05
33 *101:46 *680:A 0
34 *101:57 *584:A0 5.12942e-05
35 *101:57 *584:S 0
36 *101:57 *138:10 0
37 *101:57 *148:10 4.62396e-05
38 *101:67 *581:A1 0.000130453
39 *101:67 *148:6 7.10578e-05
40 *101:78 *581:A0 4.77757e-05
41 *101:78 *581:A1 7.08554e-05
42 *101:78 *611:D 2.86975e-05
43 *101:78 *149:121 2.83579e-05
44 *101:103 *138:10 0
45 *101:103 *148:10 7.1932e-06
46 *513:A *101:57 0
47 *534:A2 *101:57 0
48 *534:C1 *101:57 0.000179015
49 *583:A1 *614:RESET_B 9.42553e-05
50 *583:A1 *101:103 0
51 *606:CLK *616:RESET_B 9.30977e-05
52 *606:CLK *101:36 0.000251228
53 *606:D *609:RESET_B 0.000154601
54 *609:CLK *101:46 0
55 *609:D *101:46 0
56 *614:D *617:RESET_B 0
57 *615:D *615:RESET_B 4.70393e-05
58 *615:D *101:103 0.000116158
59 *628:A *610:RESET_B 0
60 *628:A *101:22 0
61 *651:A *610:RESET_B 9.49289e-05
62 *666:A *610:RESET_B 3.89528e-05
63 *61:10 *101:57 0
64 *96:37 *101:57 0
65 *96:56 *101:57 0
66 *97:29 *101:10 6.4422e-05
67 *97:29 *101:22 5.12017e-06
*RES
1 *641:X *101:10 7.665 
2 *101:10 *609:RESET_B 5.5025 
3 *101:10 *101:22 3.38 
4 *101:22 *606:RESET_B 0.3975 
5 *101:22 *101:36 10.59 
6 *101:36 *616:RESET_B 1.4325 
7 *101:36 *101:46 4.655 
8 *101:46 *613:RESET_B 2 
9 *101:46 *101:57 10.35 
10 *101:57 *101:59 2 
11 *101:59 *618:RESET_B 1.0875 
12 *101:59 *101:67 3.21 
13 *101:67 *614:RESET_B 6.91 
14 *101:67 *101:78 5.28 
15 *101:78 *610:RESET_B 10.975 
16 *101:78 *611:RESET_B 0.3975 
17 *101:57 *101:103 3.465 
18 *101:103 *615:RESET_B 2.7425 
19 *101:103 *617:RESET_B 4.1225 
*END

*D_NET *102 0.0115911
*CONN
*I *600:RESET_B I *D sky130_fd_sc_hd__dfrtp_1
*I *601:RESET_B I *D sky130_fd_sc_hd__dfrtp_1
*I *604:RESET_B I *D sky130_fd_sc_hd__dfrtp_1
*I *605:RESET_B I *D sky130_fd_sc_hd__dfrtp_1
*I *607:RESET_B I *D sky130_fd_sc_hd__dfrtp_1
*I *608:RESET_B I *D sky130_fd_sc_hd__dfrtp_1
*I *603:RESET_B I *D sky130_fd_sc_hd__dfrtp_1
*I *642:X O *D sky130_fd_sc_hd__buf_2
*CAP
1 *600:RESET_B 1.48991e-05
2 *601:RESET_B 0.000197477
3 *604:RESET_B 0.000686374
4 *605:RESET_B 0.000148071
5 *607:RESET_B 0.000166036
6 *608:RESET_B 0
7 *603:RESET_B 9.23522e-05
8 *642:X 0.000473794
9 *102:65 0.00118153
10 *102:51 0.000828861
11 *102:40 0.000853998
12 *102:28 0.00158472
13 *102:16 0.00118121
14 *102:14 0.00051831
15 *601:RESET_B *547:B 0.000120655
16 *601:RESET_B *568:A0 0.000229897
17 *601:RESET_B *569:A1 4.94326e-05
18 *603:RESET_B *546:A 0
19 *603:RESET_B *590:A1 6.68046e-05
20 *603:RESET_B *168:12 2.66935e-05
21 *604:RESET_B *129:12 3.86607e-05
22 *604:RESET_B *169:6 7.35729e-05
23 *604:RESET_B *169:10 0.000273695
24 *605:RESET_B *568:A1 2.68544e-05
25 *605:RESET_B *572:A1 3.09164e-05
26 *605:RESET_B *123:8 7.23602e-05
27 *605:RESET_B *150:112 0
28 *607:RESET_B *121:10 6.55406e-05
29 *607:RESET_B *150:112 0
30 *102:28 *546:B 7.35813e-05
31 *102:28 *569:S 0.000130453
32 *102:28 *570:S 9.77871e-05
33 *102:28 *151:8 7.67415e-06
34 *102:28 *151:79 6.71882e-05
35 *102:40 *522:B 0
36 *102:40 *523:B 7.63204e-05
37 *102:40 *535:B 0
38 *102:40 *546:A 0
39 *102:40 *643:A 0
40 *102:40 *168:12 2.24423e-05
41 *102:51 *522:B 1.45272e-05
42 *102:51 *535:B 0
43 *102:65 *522:B 1.0124e-05
44 *102:65 *656:A 1.16646e-05
45 *531:A3 *604:RESET_B 1.91597e-05
46 *531:A3 *605:RESET_B 0.000160658
47 *531:A3 *102:65 5.83121e-06
48 *551:C1 *102:28 0.000179659
49 *557:B *603:RESET_B 0.000139245
50 *557:B *102:40 0.000521578
51 *557:D *102:40 1.1688e-05
52 *600:CLK *601:RESET_B 9.42224e-05
53 *600:CLK *102:28 2.77283e-05
54 *600:D *601:RESET_B 1.94636e-05
55 *600:D *102:28 0.000116151
56 *601:D *601:RESET_B 9.30787e-05
57 *603:CLK *603:RESET_B 0.000115217
58 *603:CLK *102:40 0
59 *604:CLK *607:RESET_B 2.40101e-05
60 *604:D *607:RESET_B 3.68682e-05
61 *608:CLK *102:51 0.000140145
62 *608:D *102:40 0
63 *93:71 *102:40 0
64 *93:71 *102:51 0
65 *93:84 *607:RESET_B 5.93674e-05
66 *93:84 *102:51 0
67 *97:82 *604:RESET_B 4.29107e-05
68 *97:82 *102:65 0.00010492
69 *97:93 *604:RESET_B 3.45588e-05
70 *97:93 *102:28 3.23391e-05
71 *97:118 *102:28 9.78012e-05
*RES
1 *642:X *102:14 7.72 
2 *102:14 *102:16 0.45 
3 *102:16 *102:28 19.485 
4 *102:28 *603:RESET_B 4.7225 
5 *102:28 *102:40 10.56 
6 *102:40 *608:RESET_B 2 
7 *102:40 *102:51 6.335 
8 *102:51 *607:RESET_B 7.5625 
9 *102:51 *102:65 4.245 
10 *102:65 *605:RESET_B 7.1425 
11 *102:65 *604:RESET_B 14.2225 
12 *102:16 *601:RESET_B 9.6175 
13 *102:14 *600:RESET_B 0.3975 
*END

*D_NET *103 0.000913791
*CONN
*I *612:D I *D sky130_fd_sc_hd__dfrtp_1
*I *646:X O *D sky130_fd_sc_hd__dlygate4sd3_1
*CAP
1 *612:D 0.00036407
2 *646:X 0.00036407
3 *612:D *619:D 0.000141606
4 *612:D *646:A 0
5 *612:D *116:21 4.40446e-05
6 *619:RESET_B *612:D 0
7 *90:72 *612:D 0
8 *90:74 *612:D 0
9 *99:64 *612:D 0
*RES
1 *646:X *612:D 13.545 
*END

*D_NET *104 0.00190308
*CONN
*I *560:B I *D sky130_fd_sc_hd__and2b_1
*I *619:D I *D sky130_fd_sc_hd__dfrtp_1
*I *657:X O *D sky130_fd_sc_hd__dlygate4sd3_1
*CAP
1 *560:B 0
2 *619:D 0.000328013
3 *657:X 0.000191413
4 *104:8 0.000519425
5 *619:D *560:A_N 4.6146e-05
6 *619:D *646:A 0.000162311
7 *619:D *657:A 5.83121e-06
8 *104:8 *657:A 0.000207701
9 *104:8 *679:A 4.77757e-05
10 *602:RESET_B *619:D 9.26474e-05
11 *612:D *619:D 0.000141606
12 *627:D *104:8 0.000160213
13 *90:72 *619:D 0
*RES
1 *657:X *104:8 5.86 
2 *104:8 *619:D 12.17 
3 *104:8 *560:B 1.6 
*END

*D_NET *105 0.00736449
*CONN
*I *642:A I *D sky130_fd_sc_hd__buf_2
*I *641:A I *D sky130_fd_sc_hd__clkbuf_4
*I *640:A I *D sky130_fd_sc_hd__buf_2
*I *688:X O *D sky130_fd_sc_hd__buf_1
*CAP
1 *642:A 0.000245203
2 *641:A 0.00164018
3 *640:A 2.11528e-05
4 *688:X 0.00020986
5 *105:19 0.00226772
6 *105:8 0.000613346
7 *640:A *541:B 2.49909e-05
8 *641:A *517:B 9.52646e-05
9 *641:A *592:A0 0.000275548
10 *641:A *150:66 0.00019193
11 *641:A *150:79 8.95269e-05
12 *641:A *171:8 1.45231e-05
13 *642:A *591:A1 0
14 *642:A *172:8 0
15 *642:A *173:14 7.63282e-05
16 *105:8 *541:B 7.18817e-05
17 *105:8 *566:A0 0
18 *105:8 *684:A 0.000267279
19 *105:8 *179:21 7.07879e-05
20 *105:19 *591:A1 0
21 *105:19 *626:D 0.000249928
22 *517:A *641:A 3.23663e-05
23 *542:A *105:8 0.000160658
24 *542:A *105:19 0.000221366
25 *599:CLK *641:A 2.16833e-05
26 *599:RESET_B *641:A 0.000343763
27 *671:A *641:A 2.11084e-05
28 *685:A *105:8 0.000122457
29 *100:6 *640:A 1.56428e-05
*RES
1 *688:X *105:8 10.08 
2 *105:8 *640:A 4.05 
3 *105:8 *105:19 8.01 
4 *105:19 *641:A 25.92 
5 *105:19 *642:A 8.04 
*END

*D_NET *106 0.00237459
*CONN
*I *563:A1 I *D sky130_fd_sc_hd__mux2_1
*I *589:A I *D sky130_fd_sc_hd__xor2_1
*I *668:X O *D sky130_fd_sc_hd__dlygate4sd3_1
*CAP
1 *563:A1 0.000393074
2 *589:A 0.000180374
3 *668:X 4.47645e-05
4 *106:8 0.000618212
5 *563:A1 *559:A 0.000176403
6 *563:A1 *588:A 6.73424e-05
7 *589:B *563:A1 0.000109016
8 *589:B *589:A 0.000282212
9 *594:D *563:A1 0.000163012
10 *595:D *563:A1 0.000268285
11 *90:14 *563:A1 4.47897e-05
12 *90:22 *563:A1 3.66789e-06
13 *90:49 *563:A1 2.34423e-05
*RES
1 *668:X *106:8 4.05 
2 *106:8 *589:A 7.395 
3 *106:8 *563:A1 13.14 
*END

*D_NET *107 0.000407468
*CONN
*I *560:A_N I *D sky130_fd_sc_hd__and2b_1
*I *679:X O *D sky130_fd_sc_hd__dlygate4sd3_1
*CAP
1 *560:A_N 0.00011926
2 *679:X 0.00011926
3 *560:A_N *657:A 0.000122801
4 *619:D *560:A_N 4.6146e-05
*RES
1 *679:X *560:A_N 5.375 
*END

*D_NET *108 0.00114175
*CONN
*I *565:A0 I *D sky130_fd_sc_hd__mux2_1
*I *682:X O *D sky130_fd_sc_hd__dlygate4sd3_1
*CAP
1 *565:A0 0.000245707
2 *682:X 0.000245707
3 *565:A0 *565:A1 0.000161829
4 *544:A *565:A0 2.59981e-05
5 *545:B1 *565:A0 0
6 *545:B2 *565:A0 0.000121087
7 *545:C1 *565:A0 0.000139933
8 *683:A *565:A0 2.75145e-05
9 *97:128 *565:A0 0.000173973
*RES
1 *682:X *565:A0 14.16 
*END

*D_NET *109 0.00045837
*CONN
*I *597:D I *D sky130_fd_sc_hd__dfrtp_1
*I *683:X O *D sky130_fd_sc_hd__dlygate4sd3_1
*CAP
1 *597:D 0.000109355
2 *683:X 0.000109355
3 *597:D *565:A1 9.60582e-07
4 *545:B1 *597:D 0.000118513
5 *545:B2 *597:D 0.000120186
*RES
1 *683:X *597:D 9.375 
*END

*D_NET *110 0.000763036
*CONN
*I *566:A0 I *D sky130_fd_sc_hd__mux2_1
*I *684:X O *D sky130_fd_sc_hd__dlygate4sd3_1
*CAP
1 *566:A0 0.000297664
2 *684:X 0.000297664
3 *566:A0 *598:D 0
4 *566:A0 *684:A 0
5 *542:A *566:A0 0
6 *598:RESET_B *566:A0 0
7 *685:A *566:A0 0.000167709
8 *105:8 *566:A0 0
*RES
1 *684:X *566:A0 12.915 
*END

*D_NET *111 0.000488096
*CONN
*I *598:D I *D sky130_fd_sc_hd__dfrtp_1
*I *685:X O *D sky130_fd_sc_hd__dlygate4sd3_1
*CAP
1 *598:D 0.000236231
2 *685:X 0.000236231
3 *598:D *543:B 7.00889e-06
4 *543:A *598:D 4.43871e-06
5 *545:B1 *598:D 0
6 *566:A0 *598:D 0
7 *598:RESET_B *598:D 4.18603e-06
*RES
1 *685:X *598:D 10.155 
*END

*D_NET *112 0.00196073
*CONN
*I *562:A1 I *D sky130_fd_sc_hd__mux2_1
*I *586:B1 I *D sky130_fd_sc_hd__a21oi_1
*I *686:X O *D sky130_fd_sc_hd__dlygate4sd3_1
*CAP
1 *562:A1 0.000193134
2 *586:B1 0.000407007
3 *686:X 0
4 *112:4 0.000600141
5 *562:A1 *561:S 0.000179035
6 *562:A1 *686:A 8.49205e-05
7 *586:B1 *561:A1 6.00003e-05
8 *586:B1 *586:A1 7.35729e-05
9 *586:B1 *686:A 0
10 *586:B1 *153:10 9.14692e-05
11 *593:RESET_B *586:B1 0.000207797
12 *623:D *586:B1 0
13 *99:83 *586:B1 6.36578e-05
*RES
1 *686:X *112:4 1.6 
2 *112:4 *586:B1 12.845 
3 *112:4 *562:A1 5.5 
*END

*D_NET *113 0.00047354
*CONN
*I *564:A0 I *D sky130_fd_sc_hd__mux2_1
*I *647:X O *D sky130_fd_sc_hd__dlygate4sd3_1
*CAP
1 *564:A0 0.000167655
2 *647:X 0.000167655
3 *564:A0 *565:S 5.16348e-05
4 *564:A0 *150:33 0
5 *541:A *564:A0 0
6 *91:59 *564:A0 8.65961e-05
*RES
1 *647:X *564:A0 9.63 
*END

*D_NET *114 0.00085719
*CONN
*I *596:D I *D sky130_fd_sc_hd__dfrtp_1
*I *648:X O *D sky130_fd_sc_hd__dlygate4sd3_1
*CAP
1 *596:D 0.000287343
2 *648:X 0.000287343
3 *596:RESET_B *596:D 7.25921e-05
4 *100:42 *596:D 0.000209912
*RES
1 *648:X *596:D 9.17 
*END

*D_NET *115 0.00073076
*CONN
*I *585:A I *D sky130_fd_sc_hd__xor2_1
*I *649:X O *D sky130_fd_sc_hd__dlygate4sd3_1
*CAP
1 *585:A 0.000240482
2 *649:X 0.000240482
3 *585:A *585:B 0.000201503
4 *585:A *649:A 4.82919e-05
*RES
1 *649:X *585:A 7.445 
*END

*D_NET *116 0.00417355
*CONN
*I *563:S I *D sky130_fd_sc_hd__mux2_1
*I *562:S I *D sky130_fd_sc_hd__mux2_1
*I *561:S I *D sky130_fd_sc_hd__mux2_1
*I *602:D I *D sky130_fd_sc_hd__dfrtp_1
*I *689:X O *D sky130_fd_sc_hd__buf_1
*CAP
1 *563:S 0.000299276
2 *562:S 0
3 *561:S 0.000318279
4 *602:D 0.000109876
5 *689:X 4.32265e-05
6 *116:27 0.000593974
7 *116:21 0.00132482
8 *116:6 0.000902948
9 *561:S *561:A1 2.75145e-05
10 *561:S *686:A 8.49205e-05
11 *561:A0 *602:D 5.29405e-05
12 *562:A1 *561:S 0.000179035
13 *595:D *563:S 0.000157934
14 *612:D *116:21 4.40446e-05
15 *623:D *116:27 0
16 *90:14 *116:27 0
17 *90:49 *116:27 0
18 *98:19 *602:D 3.47668e-05
19 *99:57 *116:27 0
*RES
1 *689:X *116:6 2.05 
2 *116:6 *602:D 8 
3 *116:6 *116:21 8.4 
4 *116:21 *116:27 7.93 
5 *116:27 *561:S 6.91 
6 *116:27 *562:S 1.6 
7 *116:21 *563:S 6.205 
*END

*D_NET *117 0.00195686
*CONN
*I *575:A1 I *D sky130_fd_sc_hd__mux2_1
*I *578:A0 I *D sky130_fd_sc_hd__mux2_1
*I *650:X O *D sky130_fd_sc_hd__dlygate4sd3_1
*CAP
1 *575:A1 0.000122975
2 *578:A0 0.000120016
3 *650:X 0
4 *117:4 0.000242991
5 *575:A1 *538:B 0.00018171
6 *575:A1 *151:35 0.000388784
7 *575:A1 *164:19 0.000106078
8 *578:A0 *578:A1 4.99619e-05
9 *578:A0 *578:S 2.30292e-05
10 *537:A *575:A1 8.49205e-05
11 *537:A *578:A0 0.000163199
12 *539:A1 *575:A1 0.00010978
13 *539:A1 *578:A0 0.000224532
14 *539:A2 *575:A1 1.91597e-05
15 *558:A_N *578:A0 4.36241e-05
16 *651:A *578:A0 7.60965e-05
*RES
1 *650:X *117:4 1.6 
2 *117:4 *578:A0 5.965 
3 *117:4 *575:A1 6.88 
*END

*D_NET *118 0.000269178
*CONN
*I *611:D I *D sky130_fd_sc_hd__dfrtp_1
*I *651:X O *D sky130_fd_sc_hd__dlygate4sd3_1
*CAP
1 *611:D 9.99877e-05
2 *651:X 9.99877e-05
3 *611:D *160:12 4.05053e-05
4 *101:78 *611:D 2.86975e-05
*RES
1 *651:X *611:D 9.03 
*END

*D_NET *119 0.0013059
*CONN
*I *561:A1 I *D sky130_fd_sc_hd__mux2_1
*I *652:X O *D sky130_fd_sc_hd__dlygate4sd3_1
*CAP
1 *561:A1 0.000438362
2 *652:X 0.000438362
3 *561:A1 *586:A1 0
4 *561:A1 *155:32 0.000135532
5 *561:S *561:A1 2.75145e-05
6 *586:B1 *561:A1 6.00003e-05
7 *593:RESET_B *561:A1 0.00020613
8 *620:D *561:A1 0
9 *620:RESET_B *561:A1 0
10 *653:A *561:A1 0
11 *99:83 *561:A1 0
*RES
1 *652:X *561:A1 15.75 
*END

*D_NET *120 0.00139967
*CONN
*I *588:A I *D sky130_fd_sc_hd__nor2_1
*I *653:X O *D sky130_fd_sc_hd__dlygate4sd3_1
*CAP
1 *588:A 0.000420888
2 *653:X 0.000420888
3 *563:A1 *588:A 6.73424e-05
4 *588:B *588:A 5.4155e-06
5 *589:B *588:A 0.000303127
6 *594:CLK *588:A 9.47972e-06
7 *594:D *588:A 8.35068e-05
8 *90:22 *588:A 8.90199e-05
*RES
1 *653:X *588:A 14.04 
*END

*D_NET *121 0.00154304
*CONN
*I *571:A1 I *D sky130_fd_sc_hd__mux2_1
*I *574:A0 I *D sky130_fd_sc_hd__mux2_1
*I *654:X O *D sky130_fd_sc_hd__dlygate4sd3_1
*CAP
1 *571:A1 0.000179406
2 *574:A0 0.000114897
3 *654:X 0.000137008
4 *121:10 0.000431311
5 *571:A1 *571:A0 4.99619e-05
6 *571:A1 *571:S 5.83121e-06
7 *571:A1 *574:S 0.000223907
8 *574:A0 *574:A1 4.99619e-05
9 *574:A0 *574:S 7.22354e-05
10 *607:RESET_B *121:10 6.55406e-05
11 *655:A *574:A0 4.99619e-05
12 *655:A *121:10 0
13 *93:84 *121:10 0.000163019
*RES
1 *654:X *121:10 8.765 
2 *121:10 *574:A0 3.775 
3 *121:10 *571:A1 5.155 
*END

*D_NET *122 0.000322949
*CONN
*I *607:D I *D sky130_fd_sc_hd__dfrtp_1
*I *655:X O *D sky130_fd_sc_hd__dlygate4sd3_1
*CAP
1 *607:D 0.000161475
2 *655:X 0.000161475
3 *607:D *665:A 0
4 *655:A *607:D 0
*RES
1 *655:X *607:D 9.54 
*END

*D_NET *123 0.0021974
*CONN
*I *575:A0 I *D sky130_fd_sc_hd__mux2_1
*I *572:A1 I *D sky130_fd_sc_hd__mux2_1
*I *656:X O *D sky130_fd_sc_hd__dlygate4sd3_1
*CAP
1 *575:A0 0.000594484
2 *572:A1 7.44265e-05
3 *656:X 2.77644e-05
4 *123:8 0.000696674
5 *572:A1 *150:112 4.49241e-05
6 *575:A0 *538:B 0.000348699
7 *123:8 *150:112 2.37321e-05
8 *531:A3 *572:A1 0.000112971
9 *605:D *572:A1 6.55328e-05
10 *605:RESET_B *572:A1 3.09164e-05
11 *605:RESET_B *123:8 7.23602e-05
12 *93:67 *575:A0 0.00010492
*RES
1 *656:X *123:8 4.47 
2 *123:8 *572:A1 6.255 
3 *123:8 *575:A0 10.95 
*END

*D_NET *124 0.00169845
*CONN
*I *576:A1 I *D sky130_fd_sc_hd__mux2_1
*I *579:A0 I *D sky130_fd_sc_hd__mux2_1
*I *658:X O *D sky130_fd_sc_hd__dlygate4sd3_1
*CAP
1 *576:A1 0.000120637
2 *579:A0 7.21388e-05
3 *658:X 0
4 *124:4 0.000192776
5 *576:A1 *552:B 3.6355e-05
6 *576:A1 *149:63 0.000144403
7 *576:A1 *159:14 0.000104226
8 *579:A0 *579:A1 4.99619e-05
9 *579:A0 *149:63 0.000203402
10 *579:A0 *149:65 4.60584e-05
11 *98:30 *576:A1 0.000259747
12 *98:30 *579:A0 0.000468744
*RES
1 *658:X *124:4 1.6 
2 *124:4 *579:A0 5.845 
3 *124:4 *576:A1 9.5 
*END

*D_NET *125 0.000539421
*CONN
*I *613:D I *D sky130_fd_sc_hd__dfrtp_1
*I *659:X O *D sky130_fd_sc_hd__dlygate4sd3_1
*CAP
1 *613:D 0.000176969
2 *659:X 0.000176969
3 *613:D *584:S 0
4 *532:B *613:D 7.45968e-05
5 *659:A *613:D 7.4027e-05
6 *98:19 *613:D 3.68596e-05
*RES
1 *659:X *613:D 10.815 
*END

*D_NET *126 0.00201824
*CONN
*I *570:A0 I *D sky130_fd_sc_hd__mux2_1
*I *567:A1 I *D sky130_fd_sc_hd__mux2_1
*I *660:X O *D sky130_fd_sc_hd__dlygate4sd3_1
*CAP
1 *570:A0 0.000141965
2 *567:A1 0.000443937
3 *660:X 0
4 *126:4 0.000585901
5 *567:A1 *567:A0 0.000275553
6 *570:A0 *523:B 3.23018e-05
7 *570:A0 *570:S 6.57993e-05
8 *570:A0 *165:23 4.99619e-05
9 *557:B *567:A1 0.000132883
10 *599:D *567:A1 1.29866e-05
11 *89:8 *567:A1 2.77183e-05
12 *89:34 *567:A1 0.000249234
*RES
1 *660:X *126:4 1.6 
2 *126:4 *567:A1 13.1 
3 *126:4 *570:A0 4.51 
*END

*D_NET *127 0.00392461
*CONN
*I *680:A I *D sky130_fd_sc_hd__dlygate4sd3_1
*I *532:A I *D sky130_fd_sc_hd__xor2_1
*I *579:A1 I *D sky130_fd_sc_hd__mux2_1
*I *690:A I *D sky130_fd_sc_hd__buf_2
*I *616:Q O *D sky130_fd_sc_hd__dfrtp_1
*CAP
1 *680:A 0.000281585
2 *532:A 0.000102158
3 *579:A1 0.000132981
4 *690:A 2.61242e-05
5 *616:Q 0.0002118
6 *127:23 0.000286215
7 *127:12 0.000313125
8 *127:6 0.000729311
9 *579:A1 *582:S 0.000238919
10 *579:A1 *149:65 3.83041e-05
11 *680:A *582:A0 3.45679e-05
12 *127:12 *582:A0 0.000137571
13 *127:23 *582:A0 0.000118527
14 *532:B *532:A 0.000105849
15 *532:B *127:23 2.4997e-05
16 *533:C1 *532:A 0
17 *579:A0 *579:A1 4.99619e-05
18 *606:CLK *127:6 0.00011964
19 *609:CLK *680:A 0.000277758
20 *613:CLK *690:A 4.66108e-05
21 *616:D *127:12 0.000139238
22 *616:D *127:23 0.000108322
23 *92:37 *532:A 0
24 *92:37 *127:23 0
25 *92:48 *127:6 6.52265e-05
26 *92:48 *127:12 0.000157959
27 *98:19 *680:A 0
28 *98:30 *579:A1 0.000177857
29 *101:46 *680:A 0
*RES
1 *616:Q *127:6 4.465 
2 *127:6 *127:12 6.155 
3 *127:12 *690:A 4.05 
4 *127:12 *127:23 1.89 
5 *127:23 *579:A1 7.5 
6 *127:23 *532:A 6 
7 *127:6 *680:A 11.375 
*END

*D_NET *128 0.0010515
*CONN
*I *603:D I *D sky130_fd_sc_hd__dfrtp_1
*I *661:X O *D sky130_fd_sc_hd__dlygate4sd3_1
*CAP
1 *603:D 0.000150888
2 *661:X 0.000150888
3 *603:D *558:C 0.000338226
4 *603:D *643:A 4.66108e-05
5 *603:CLK *603:D 2.49909e-05
6 *628:A *603:D 0.0003399
*RES
1 *661:X *603:D 12.03 
*END

*D_NET *129 0.0036993
*CONN
*I *568:A1 I *D sky130_fd_sc_hd__mux2_1
*I *571:A0 I *D sky130_fd_sc_hd__mux2_1
*I *662:X O *D sky130_fd_sc_hd__dlygate4sd3_1
*CAP
1 *568:A1 0.000599041
2 *571:A0 0.000186568
3 *662:X 0.000411682
4 *129:12 0.00119729
5 *568:A1 *524:B 0.000154985
6 *568:A1 *547:A 0.000134516
7 *568:A1 *569:S 3.00381e-05
8 *568:A1 *150:112 0
9 *571:A0 *571:S 1.47347e-05
10 *531:A3 *568:A1 0.00050496
11 *531:C1 *568:A1 0
12 *550:A *568:A1 9.71067e-05
13 *551:A1 *568:A1 0.000139245
14 *551:C1 *568:A1 0
15 *571:A1 *571:A0 4.99619e-05
16 *604:D *568:A1 0
17 *604:RESET_B *129:12 3.86607e-05
18 *605:RESET_B *568:A1 2.68544e-05
19 *97:93 *568:A1 0.000113652
*RES
1 *662:X *129:12 10.37 
2 *129:12 *571:A0 3.775 
3 *129:12 *568:A1 19.76 
*END

*D_NET *130 0.00248461
*CONN
*I *567:A0 I *D sky130_fd_sc_hd__mux2_1
*I *590:A1 I *D sky130_fd_sc_hd__mux2_1
*I *663:X O *D sky130_fd_sc_hd__dlygate4sd3_1
*CAP
1 *567:A0 0.000145424
2 *590:A1 0.000500646
3 *663:X 0
4 *130:4 0.000646071
5 *590:A1 *558:C 0
6 *557:B *567:A0 3.39064e-05
7 *567:A1 *567:A0 0.000275553
8 *599:D *567:A0 4.40446e-05
9 *599:D *590:A1 6.5525e-05
10 *599:RESET_B *590:A1 0
11 *603:CLK *590:A1 5.5444e-05
12 *603:RESET_B *590:A1 6.68046e-05
13 *89:10 *590:A1 0.000496027
14 *89:34 *590:A1 0.000155169
15 *100:81 *590:A1 0
*RES
1 *663:X *130:4 1.6 
2 *130:4 *590:A1 15.62 
3 *130:4 *567:A0 9.245 
*END

*D_NET *131 0.000443319
*CONN
*I *590:A0 I *D sky130_fd_sc_hd__mux2_1
*I *664:X O *D sky130_fd_sc_hd__dlygate4sd3_1
*CAP
1 *590:A0 0.000123033
2 *664:X 0.000123033
3 *633:A *590:A0 0.0001249
4 *89:10 *590:A0 0
5 *100:81 *590:A0 7.23533e-05
*RES
1 *664:X *590:A0 9.21 
*END

*D_NET *132 0.000464382
*CONN
*I *577:A0 I *D sky130_fd_sc_hd__mux2_1
*I *665:X O *D sky130_fd_sc_hd__dlygate4sd3_1
*CAP
1 *577:A0 0.000172431
2 *665:X 0.000172431
3 *577:A0 *577:A1 1.7386e-05
4 *577:A0 *665:A 7.5431e-05
5 *577:A0 *163:8 2.67022e-05
6 *666:A *577:A0 0
*RES
1 *665:X *577:A0 10.56 
*END

*D_NET *133 0.00024608
*CONN
*I *610:D I *D sky130_fd_sc_hd__dfrtp_1
*I *666:X O *D sky130_fd_sc_hd__dlygate4sd3_1
*CAP
1 *610:D 0.000101911
2 *666:X 0.000101911
3 *610:D *678:A 4.22574e-05
4 *666:A *610:D 0
*RES
1 *666:X *610:D 9.03 
*END

*D_NET *134 0.00210055
*CONN
*I *569:A1 I *D sky130_fd_sc_hd__mux2_1
*I *572:A0 I *D sky130_fd_sc_hd__mux2_1
*I *667:X O *D sky130_fd_sc_hd__dlygate4sd3_1
*CAP
1 *569:A1 0.000437261
2 *572:A0 0.000127886
3 *667:X 0
4 *134:4 0.000565147
5 *569:A1 *547:B 0.000277723
6 *569:A1 *550:B 0
7 *569:A1 *569:A0 3.00381e-05
8 *569:A1 *667:A 0.0001249
9 *569:A1 *169:10 0.000109016
10 *569:A1 *170:12 0
11 *572:A0 *572:S 5.30673e-05
12 *557:C *569:A1 4.66108e-05
13 *557:C *572:A0 0.000279469
14 *601:RESET_B *569:A1 4.94326e-05
15 *97:93 *569:A1 0
*RES
1 *667:X *134:4 1.6 
2 *134:4 *572:A0 4.825 
3 *134:4 *569:A1 14.12 
*END

*D_NET *135 0.00169512
*CONN
*I *573:A1 I *D sky130_fd_sc_hd__mux2_1
*I *576:A0 I *D sky130_fd_sc_hd__mux2_1
*I *669:X O *D sky130_fd_sc_hd__dlygate4sd3_1
*CAP
1 *573:A1 0.000325308
2 *576:A0 0.000143652
3 *669:X 0
4 *135:4 0.00046896
5 *573:A1 *573:A0 0.000296525
6 *573:A1 *149:14 0.000196056
7 *573:A1 *165:12 3.68682e-05
8 *576:A0 *576:S 4.99619e-05
9 *576:A0 *149:14 3.66286e-05
10 *628:A *573:A1 0
11 *96:37 *576:A0 3.56315e-05
12 *97:29 *573:A1 1.07797e-05
13 *101:22 *573:A1 9.47454e-05
*RES
1 *669:X *135:4 1.6 
2 *135:4 *576:A0 4.045 
3 *135:4 *573:A1 12.32 
*END

*D_NET *136 0.000766885
*CONN
*I *592:A0 I *D sky130_fd_sc_hd__mux2_1
*I *670:X O *D sky130_fd_sc_hd__dlygate4sd3_1
*CAP
1 *592:A0 0.000226342
2 *670:X 0.000226342
3 *592:A0 *591:A1 3.86529e-05
4 *592:A0 *150:79 0
5 *641:A *592:A0 0.000275548
*RES
1 *670:X *592:A0 10.59 
*END

*D_NET *137 0.000743827
*CONN
*I *626:D I *D sky130_fd_sc_hd__dfrtp_1
*I *671:X O *D sky130_fd_sc_hd__dlygate4sd3_1
*CAP
1 *626:D 0.000162439
2 *671:X 0.000162439
3 *626:D *591:A1 9.91888e-05
4 *626:CLK *626:D 6.98327e-05
5 *105:19 *626:D 0.000249928
*RES
1 *671:X *626:D 11.1825 
*END

*D_NET *138 0.00604717
*CONN
*I *580:A1 I *D sky130_fd_sc_hd__mux2_1
*I *691:A I *D sky130_fd_sc_hd__buf_2
*I *583:A0 I *D sky130_fd_sc_hd__mux2_1
*I *534:A1 I *D sky130_fd_sc_hd__o221a_1
*I *533:A1 I *D sky130_fd_sc_hd__a221oi_1
*I *617:Q O *D sky130_fd_sc_hd__dfrtp_1
*CAP
1 *580:A1 0.000479922
2 *691:A 0.000381543
3 *583:A0 0
4 *534:A1 0.000389227
5 *533:A1 0.000154265
6 *617:Q 0.000263806
7 *138:40 0.000833661
8 *138:10 0.000861461
9 *138:8 0.000770089
10 *138:6 0.000743728
11 *533:A1 *584:A0 8.08153e-06
12 *533:A1 *584:S 0.000182349
13 *534:A1 *692:A 0.000350486
14 *580:A1 *580:A0 4.77757e-05
15 *691:A *583:S 5.05437e-05
16 *138:40 *583:S 0
17 *533:B2 *533:A1 5.71917e-05
18 *614:D *580:A1 0.000122337
19 *617:CLK *580:A1 0.000183714
20 *617:D *138:40 4.82863e-05
21 *617:RESET_B *580:A1 8.07616e-05
22 *617:RESET_B *138:10 0
23 *617:RESET_B *138:40 0
24 *618:D *138:10 0
25 *96:56 *534:A1 3.79425e-05
26 *101:57 *138:10 0
27 *101:103 *138:10 0
*RES
1 *617:Q *138:6 4.465 
2 *138:6 *138:8 2 
3 *138:8 *138:10 4.95 
4 *138:10 *533:A1 6.51 
5 *138:10 *534:A1 8.805 
6 *138:8 *138:40 9.02 
7 *138:40 *583:A0 1.6 
8 *138:40 *691:A 11.39 
9 *138:6 *580:A1 8.845 
*END

*D_NET *139 0.000389448
*CONN
*I *569:A0 I *D sky130_fd_sc_hd__mux2_1
*I *672:X O *D sky130_fd_sc_hd__dlygate4sd3_1
*CAP
1 *569:A0 0.000135572
2 *672:X 0.000135572
3 *569:A0 *569:S 8.8266e-05
4 *569:A1 *569:A0 3.00381e-05
*RES
1 *672:X *569:A0 5.72 
*END

*D_NET *140 0.000748509
*CONN
*I *573:A0 I *D sky130_fd_sc_hd__mux2_1
*I *673:X O *D sky130_fd_sc_hd__dlygate4sd3_1
*CAP
1 *573:A0 0.000101035
2 *673:X 0.000101035
3 *573:A1 *573:A0 0.000296525
4 *97:29 *573:A0 0.000249914
*RES
1 *673:X *573:A0 10.56 
*END

*D_NET *141 0.00110743
*CONN
*I *591:A0 I *D sky130_fd_sc_hd__mux2_1
*I *674:X O *D sky130_fd_sc_hd__dlygate4sd3_1
*CAP
1 *591:A0 0.00026074
2 *674:X 0.00026074
3 *591:A0 *566:A1 0
4 *591:A0 *150:79 0.000249928
5 *591:A0 *176:23 0
6 *542:A *591:A0 0.000238919
7 *626:RESET_B *591:A0 9.71067e-05
*RES
1 *674:X *591:A0 12.285 
*END

*D_NET *142 0.000712939
*CONN
*I *625:D I *D sky130_fd_sc_hd__dfrtp_1
*I *675:X O *D sky130_fd_sc_hd__dlygate4sd3_1
*CAP
1 *625:D 0.000238294
2 *675:X 0.000238294
3 *625:D *566:A1 0.00023635
4 *542:A *625:D 0
5 *675:A *625:D 0
*RES
1 *675:X *625:D 10.5 
*END

*D_NET *143 0.00185845
*CONN
*I *568:A0 I *D sky130_fd_sc_hd__mux2_1
*I *676:X O *D sky130_fd_sc_hd__dlygate4sd3_1
*CAP
1 *568:A0 0.000502105
2 *676:X 0.000502105
3 *568:A0 *569:S 0.000308719
4 *568:A0 *173:14 0.000201508
5 *568:A0 *173:16 8.65905e-05
6 *601:D *568:A0 2.75229e-05
7 *601:RESET_B *568:A0 0.000229897
8 *97:118 *568:A0 0
*RES
1 *676:X *568:A0 16.26 
*END

*D_NET *144 0.000238558
*CONN
*I *581:A0 I *D sky130_fd_sc_hd__mux2_1
*I *677:X O *D sky130_fd_sc_hd__dlygate4sd3_1
*CAP
1 *581:A0 9.53913e-05
2 *677:X 9.53913e-05
3 *583:A1 *581:A0 0
4 *101:78 *581:A0 4.77757e-05
*RES
1 *677:X *581:A0 8.52 
*END

*D_NET *145 0.000679726
*CONN
*I *580:A0 I *D sky130_fd_sc_hd__mux2_1
*I *678:X O *D sky130_fd_sc_hd__dlygate4sd3_1
*CAP
1 *580:A0 0.000203016
2 *678:X 0.000203016
3 *580:A0 *678:A 0
4 *580:A1 *580:A0 4.77757e-05
5 *617:CLK *580:A0 0.000196669
6 *92:102 *580:A0 2.92496e-05
*RES
1 *678:X *580:A0 10.92 
*END

*D_NET *146 0.00155547
*CONN
*I *582:A0 I *D sky130_fd_sc_hd__mux2_1
*I *680:X O *D sky130_fd_sc_hd__dlygate4sd3_1
*CAP
1 *582:A0 0.000394289
2 *680:X 0.000394289
3 *616:D *582:A0 5.10957e-05
4 *680:A *582:A0 3.45679e-05
5 *98:19 *582:A0 0.000425135
6 *127:12 *582:A0 0.000137571
7 *127:23 *582:A0 0.000118527
*RES
1 *680:X *582:A0 15.015 
*END

*D_NET *147 0.000642358
*CONN
*I *584:A0 I *D sky130_fd_sc_hd__mux2_1
*I *681:X O *D sky130_fd_sc_hd__dlygate4sd3_1
*CAP
1 *584:A0 0.000108447
2 *681:X 0.000108447
3 *584:A0 *584:S 6.20952e-05
4 *584:A0 *692:A 0.000198939
5 *533:A1 *584:A0 8.08153e-06
6 *533:B2 *584:A0 1.61831e-05
7 *584:A1 *584:A0 8.88715e-05
8 *101:57 *584:A0 5.12942e-05
*RES
1 *681:X *584:A0 10.665 
*END

*D_NET *148 0.00380778
*CONN
*I *581:A1 I *D sky130_fd_sc_hd__mux2_1
*I *692:A I *D sky130_fd_sc_hd__buf_2
*I *534:B1 I *D sky130_fd_sc_hd__o221a_1
*I *681:A I *D sky130_fd_sc_hd__dlygate4sd3_1
*I *533:B1 I *D sky130_fd_sc_hd__a221oi_1
*I *618:Q O *D sky130_fd_sc_hd__dfrtp_1
*CAP
1 *581:A1 0.000113282
2 *692:A 0.000291457
3 *534:B1 0
4 *681:A 3.7491e-05
5 *533:B1 0.000230684
6 *618:Q 3.13799e-05
7 *148:38 0.000291457
8 *148:18 0.000386296
9 *148:10 0.000219833
10 *148:6 0.000246373
11 *581:A1 *149:121 4.89295e-05
12 *533:A2 *533:B1 2.86843e-05
13 *533:A2 *681:A 3.00381e-05
14 *533:B2 *692:A 1.03423e-05
15 *534:A1 *692:A 0.000350486
16 *534:A2 *148:18 3.3597e-05
17 *534:B2 *148:18 5.16418e-05
18 *534:C1 *533:B1 0.000198934
19 *534:C1 *148:18 0.000125682
20 *583:A1 *148:10 6.86819e-05
21 *583:A1 *148:18 1.01661e-05
22 *584:A0 *692:A 0.000198939
23 *584:A1 *692:A 9.63999e-05
24 *615:D *581:A1 9.27495e-05
25 *615:D *148:6 7.35729e-05
26 *618:D *692:A 0.000164874
27 *618:RESET_B *148:6 5.83121e-06
28 *96:56 *692:A 4.41832e-05
29 *101:57 *148:10 4.62396e-05
30 *101:67 *581:A1 0.000130453
31 *101:67 *148:6 7.10578e-05
32 *101:78 *581:A1 7.08554e-05
33 *101:103 *148:10 7.1932e-06
*RES
1 *618:Q *148:6 2.74 
2 *148:6 *148:10 4.145 
3 *148:10 *148:18 4.445 
4 *148:18 *533:B1 5.425 
5 *148:18 *681:A 2.41 
6 *148:10 *148:38 2 
7 *148:38 *534:B1 1.6 
8 *148:38 *692:A 8.98 
9 *148:6 *581:A1 4.81 
*END

*D_NET *149 0.0121619
*CONN
*I *578:S I *D sky130_fd_sc_hd__mux2_1
*I *583:S I *D sky130_fd_sc_hd__mux2_1
*I *580:S I *D sky130_fd_sc_hd__mux2_1
*I *581:S I *D sky130_fd_sc_hd__mux2_1
*I *579:S I *D sky130_fd_sc_hd__mux2_1
*I *584:S I *D sky130_fd_sc_hd__mux2_1
*I *582:S I *D sky130_fd_sc_hd__mux2_1
*I *573:S I *D sky130_fd_sc_hd__mux2_1
*I *559:A I *D sky130_fd_sc_hd__inv_2
*I *576:S I *D sky130_fd_sc_hd__mux2_1
*I *643:X O *D sky130_fd_sc_hd__clkbuf_4
*CAP
1 *578:S 3.87599e-05
2 *583:S 0.000187476
3 *580:S 3.75023e-05
4 *581:S 0
5 *579:S 0
6 *584:S 0.000325035
7 *582:S 9.68629e-05
8 *573:S 0.000246405
9 *559:A 0.000806357
10 *576:S 1.11303e-05
11 *643:X 0.000142847
12 *149:121 0.000580742
13 *149:100 0.000574949
14 *149:92 0.000628124
15 *149:65 0.000471625
16 *149:63 0.000469206
17 *149:29 0.00136588
18 *149:23 0.000732601
19 *149:14 0.000131478
20 *149:8 0.000633374
21 *559:A *679:A 0.000112279
22 *559:A *156:27 0.000328289
23 *573:S *162:10 8.51879e-05
24 *578:S *578:A1 8.65961e-05
25 *149:14 *536:B 0.000148664
26 *149:14 *162:10 8.30853e-06
27 *149:63 *552:B 0.000161101
28 *149:63 *159:14 4.77757e-05
29 *149:92 *536:B 4.99581e-05
30 *149:92 *157:25 5.62119e-05
31 *149:100 *555:B 1.5996e-05
32 *149:100 *578:A1 0.000268138
33 *149:100 *161:14 0.000105739
34 *149:121 *161:14 0
35 *533:A1 *584:S 0.000182349
36 *533:C1 *584:S 0
37 *556:C1 *149:63 4.98756e-05
38 *558:A_N *578:S 0.000114024
39 *558:A_N *149:100 0.00034222
40 *563:A0 *559:A 9.54399e-05
41 *563:A1 *559:A 0.000176403
42 *573:A1 *149:14 0.000196056
43 *576:A0 *576:S 4.99619e-05
44 *576:A0 *149:14 3.66286e-05
45 *576:A1 *149:63 0.000144403
46 *578:A0 *578:S 2.30292e-05
47 *579:A0 *149:63 0.000203402
48 *579:A0 *149:65 4.60584e-05
49 *579:A1 *582:S 0.000238919
50 *579:A1 *149:65 3.83041e-05
51 *581:A1 *149:121 4.89295e-05
52 *583:A1 *583:S 0
53 *583:A1 *149:100 0
54 *583:A1 *149:121 0
55 *584:A0 *584:S 6.20952e-05
56 *606:D *573:S 1.15487e-05
57 *606:D *149:29 2.92612e-05
58 *609:RESET_B *573:S 0.000143405
59 *613:D *584:S 0
60 *614:RESET_B *149:100 0
61 *614:RESET_B *149:121 0.000147859
62 *617:CLK *580:S 8.52883e-05
63 *627:D *559:A 0.000116158
64 *659:A *584:S 0
65 *691:A *583:S 5.05437e-05
66 *90:49 *559:A 9.83398e-05
67 *96:37 *576:S 1.83756e-05
68 *96:37 *149:14 0.000145382
69 *96:37 *149:63 0
70 *97:29 *149:92 1.42229e-05
71 *98:37 *149:8 8.23457e-05
72 *98:48 *149:8 0.000188063
73 *101:57 *584:S 0
74 *101:78 *149:121 2.83579e-05
75 *138:40 *583:S 0
*RES
1 *643:X *149:8 6.12 
2 *149:8 *149:14 6.065 
3 *149:14 *576:S 2.05 
4 *149:14 *149:23 2 
5 *149:23 *149:29 4.995 
6 *149:29 *559:A 19.485 
7 *149:29 *573:S 7.965 
8 *149:23 *149:63 11.06 
9 *149:63 *149:65 1.14 
10 *149:65 *582:S 3.775 
11 *149:65 *584:S 11.57 
12 *149:63 *579:S 1.6 
13 *149:8 *149:92 8.225 
14 *149:92 *149:100 9.865 
15 *149:100 *581:S 1.6 
16 *149:100 *149:121 8.54 
17 *149:121 *580:S 4.395 
18 *149:121 *583:S 6.945 
19 *149:92 *578:S 3.1 
*END

*D_NET *150 0.012954
*CONN
*I *571:S I *D sky130_fd_sc_hd__mux2_1
*I *574:S I *D sky130_fd_sc_hd__mux2_1
*I *567:S I *D sky130_fd_sc_hd__mux2_1
*I *591:S I *D sky130_fd_sc_hd__mux2_1
*I *566:S I *D sky130_fd_sc_hd__mux2_1
*I *592:S I *D sky130_fd_sc_hd__mux2_1
*I *590:S I *D sky130_fd_sc_hd__mux2_1
*I *564:S I *D sky130_fd_sc_hd__mux2_1
*I *565:S I *D sky130_fd_sc_hd__mux2_1
*I *570:S I *D sky130_fd_sc_hd__mux2_1
*I *644:X O *D sky130_fd_sc_hd__clkbuf_4
*CAP
1 *571:S 2.06981e-05
2 *574:S 0.000219164
3 *567:S 0
4 *591:S 0.000117455
5 *566:S 0.000191181
6 *592:S 2.08101e-05
7 *590:S 0.000262052
8 *564:S 8.47468e-05
9 *565:S 0.000137119
10 *570:S 0.000313069
11 *644:X 0
12 *150:112 0.000696352
13 *150:79 0.000786252
14 *150:66 0.000926474
15 *150:33 0.000556304
16 *150:27 0.00084302
17 *150:25 0.000740393
18 *150:23 0.00022436
19 *150:6 0.000511526
20 *150:4 0.000496402
21 *564:S *564:A1 7.3151e-05
22 *565:S *540:A 0
23 *566:S *566:A1 0.000111285
24 *570:S *523:B 0.00027209
25 *570:S *546:B 7.35813e-05
26 *570:S *151:14 4.82863e-05
27 *570:S *165:23 5.4155e-06
28 *150:6 *151:8 0.000146408
29 *150:6 *151:14 4.82919e-05
30 *150:23 *546:A 0
31 *150:23 *663:A 0.000132096
32 *150:23 *171:21 5.56629e-05
33 *150:25 *517:B 2.92496e-05
34 *150:25 *546:A 0
35 *150:25 *171:21 0.000109989
36 *150:27 *517:B 5.39961e-05
37 *150:27 *546:A 0
38 *150:33 *540:A 0
39 *150:33 *546:A 0
40 *150:33 *564:A1 0.000163199
41 *150:66 *517:B 6.52265e-05
42 *150:66 *171:8 4.66108e-05
43 *150:79 *591:A1 0
44 *150:79 *592:A1 0
45 *150:79 *176:23 0
46 *517:A *150:66 0.0001249
47 *519:A *150:23 2.60986e-05
48 *521:A2 *150:66 4.99619e-05
49 *530:B2 *150:27 5.21627e-05
50 *530:B2 *150:33 1.22676e-05
51 *531:A1 *150:112 3.50033e-05
52 *531:A3 *150:112 0
53 *531:B1 *150:27 0
54 *531:B1 *150:33 0
55 *541:A *565:S 0
56 *542:A *566:S 0
57 *542:A *591:S 0.000165698
58 *542:A *150:79 0
59 *545:A2 *566:S 0.000277223
60 *551:C1 *570:S 4.82863e-05
61 *551:C1 *150:6 0.000185505
62 *551:C1 *150:112 3.68784e-05
63 *564:A0 *565:S 5.16348e-05
64 *564:A0 *150:33 0
65 *568:A1 *150:112 0
66 *570:A0 *570:S 6.57993e-05
67 *571:A0 *571:S 1.47347e-05
68 *571:A1 *571:S 5.83121e-06
69 *571:A1 *574:S 0.000223907
70 *572:A1 *150:112 4.49241e-05
71 *574:A0 *574:S 7.22354e-05
72 *591:A0 *150:79 0.000249928
73 *592:A0 *150:79 0
74 *597:RESET_B *565:S 0
75 *598:RESET_B *566:S 0.000135539
76 *603:CLK *150:23 0.000101317
77 *605:D *150:112 0.00011852
78 *605:RESET_B *150:112 0
79 *607:RESET_B *150:112 0
80 *626:RESET_B *566:S 6.55328e-05
81 *626:RESET_B *150:79 3.21271e-05
82 *641:A *150:66 0.00019193
83 *641:A *150:79 8.95269e-05
84 *645:A *150:112 0.000289698
85 *648:A *565:S 4.91189e-05
86 *675:A *566:S 0.000334934
87 *93:12 *150:112 0.000115464
88 *93:63 *150:112 0.00035991
89 *95:71 *150:23 8.15598e-05
90 *95:71 *150:112 5.12017e-06
91 *96:88 *590:S 0.000307109
92 *97:82 *150:112 6.95335e-05
93 *97:128 *565:S 0
94 *98:61 *150:112 0.000137578
95 *98:69 *150:27 0
96 *100:24 *564:S 2.30292e-05
97 *100:24 *565:S 0
98 *102:28 *570:S 9.77871e-05
99 *123:8 *150:112 2.37321e-05
*RES
1 *644:X *150:4 1.6 
2 *150:4 *150:6 1.83 
3 *150:6 *570:S 8.65 
4 *150:6 *150:23 6.44 
5 *150:23 *150:25 1.635 
6 *150:25 *150:27 4.44 
7 *150:27 *150:33 7.415 
8 *150:33 *565:S 8.255 
9 *150:33 *564:S 3.1 
10 *150:27 *590:S 8.88 
11 *150:25 *150:66 9.695 
12 *150:66 *592:S 1.96 
13 *150:66 *150:79 10.91 
14 *150:79 *566:S 10.305 
15 *150:79 *591:S 6.12 
16 *150:23 *567:S 3.6 
17 *150:4 *150:112 16.09 
18 *150:112 *574:S 6.19 
19 *150:112 *571:S 2.05 
*END

*D_NET *151 0.00808049
*CONN
*I *569:S I *D sky130_fd_sc_hd__mux2_1
*I *568:S I *D sky130_fd_sc_hd__mux2_1
*I *644:A I *D sky130_fd_sc_hd__clkbuf_4
*I *575:S I *D sky130_fd_sc_hd__mux2_1
*I *577:S I *D sky130_fd_sc_hd__mux2_1
*I *643:A I *D sky130_fd_sc_hd__clkbuf_4
*I *572:S I *D sky130_fd_sc_hd__mux2_1
*I *645:X O *D sky130_fd_sc_hd__buf_2
*CAP
1 *569:S 0.000203219
2 *568:S 0
3 *644:A 0
4 *575:S 2.08101e-05
5 *577:S 0.00022995
6 *643:A 0.000432056
7 *572:S 0.000146521
8 *645:X 2.08101e-05
9 *151:79 0.000299264
10 *151:35 0.000730554
11 *151:31 0.000233822
12 *151:14 0.000612176
13 *151:8 0.000473439
14 *151:6 0.000269103
15 *577:S *535:B 0.000338219
16 *577:S *574:A1 3.64998e-06
17 *577:S *577:A1 4.35648e-05
18 *577:S *164:10 0
19 *643:A *535:B 0.000112123
20 *643:A *558:C 8.29686e-05
21 *151:31 *538:B 7.67345e-05
22 *151:35 *538:B 1.47347e-05
23 *531:A1 *572:S 0.000161529
24 *537:A *577:S 1.44259e-05
25 *538:A *151:14 5.16418e-05
26 *538:A *151:31 0.000106655
27 *539:A1 *643:A 1.1561e-05
28 *539:A2 *643:A 0.000134509
29 *539:A2 *151:31 0.000303869
30 *539:A2 *151:35 0.0004262
31 *551:C1 *151:8 4.35348e-05
32 *557:C *572:S 4.99782e-05
33 *557:D *643:A 0
34 *558:A_N *643:A 0
35 *558:B *643:A 0
36 *568:A0 *569:S 0.000308719
37 *568:A1 *569:S 3.00381e-05
38 *569:A0 *569:S 8.8266e-05
39 *570:S *151:14 4.82863e-05
40 *572:A0 *572:S 5.30673e-05
41 *575:A1 *151:35 0.000388784
42 *603:CLK *151:14 0.000183043
43 *603:D *643:A 4.66108e-05
44 *605:D *572:S 0.000121437
45 *628:A *577:S 0
46 *628:A *643:A 0
47 *631:A *643:A 0
48 *661:A *643:A 2.42802e-05
49 *89:34 *643:A 0
50 *93:67 *575:S 0
51 *93:67 *151:31 0.000198934
52 *95:71 *151:14 0.000145428
53 *95:88 *151:14 3.98952e-05
54 *97:82 *572:S 0.0001249
55 *97:82 *151:31 3.47837e-05
56 *98:48 *643:A 0.000196376
57 *102:28 *569:S 0.000130453
58 *102:28 *151:8 7.67415e-06
59 *102:28 *151:79 6.71882e-05
60 *102:40 *643:A 0
61 *150:6 *151:8 0.000146408
62 *150:6 *151:14 4.82919e-05
*RES
1 *645:X *151:6 1.96 
2 *151:6 *151:8 2.52 
3 *151:8 *151:14 9.02 
4 *151:14 *572:S 7.515 
5 *151:14 *151:31 6.935 
6 *151:31 *151:35 5.9 
7 *151:35 *643:A 12.21 
8 *151:35 *577:S 8.595 
9 *151:31 *575:S 1.96 
10 *151:8 *644:A 1.6 
11 *151:6 *151:79 1.755 
12 *151:79 *568:S 1.6 
13 *151:79 *569:S 6.535 
*END

*D_NET *152 0.00320499
*CONN
*I *587:B I *D sky130_fd_sc_hd__and3_1
*I *649:A I *D sky130_fd_sc_hd__dlygate4sd3_1
*I *652:A I *D sky130_fd_sc_hd__dlygate4sd3_1
*I *586:A1 I *D sky130_fd_sc_hd__a21oi_1
*I *620:Q O *D sky130_fd_sc_hd__dfrtp_1
*CAP
1 *587:B 0.000159202
2 *649:A 0.000157712
3 *652:A 0
4 *586:A1 0.000459272
5 *620:Q 3.36255e-05
6 *152:27 0.000290453
7 *152:23 0.000291944
8 *152:6 0.000492897
9 *586:A1 *586:A2 7.37365e-05
10 *586:A1 *153:10 8.65905e-05
11 *587:B *515:B 5.2124e-05
12 *587:B *587:C 0.000187766
13 *587:B *686:A 9.71067e-05
14 *587:B *153:10 0.000164686
15 *152:27 *515:B 0.000140852
16 *561:A1 *586:A1 0
17 *585:A *649:A 4.82919e-05
18 *586:B1 *586:A1 7.35729e-05
19 *620:CLK *586:A1 0
20 *622:D *152:27 0
21 *623:D *587:B 7.73272e-05
22 *653:A *586:A1 0.000271141
23 *653:A *152:6 2.16917e-05
24 *99:37 *587:B 2.4997e-05
*RES
1 *620:Q *152:6 2.05 
2 *152:6 *586:A1 12.965 
3 *152:6 *152:23 2 
4 *152:23 *152:27 4.91 
5 *152:27 *652:A 1.6 
6 *152:27 *649:A 4.12 
7 *152:23 *587:B 8.235 
*END

*D_NET *153 0.00173127
*CONN
*I *686:A I *D sky130_fd_sc_hd__dlygate4sd3_1
*I *587:A I *D sky130_fd_sc_hd__and3_1
*I *621:Q O *D sky130_fd_sc_hd__dfrtp_1
*CAP
1 *686:A 0.000123013
2 *587:A 0
3 *621:Q 0.000188538
4 *153:10 0.000311551
5 *153:10 *515:B 0.000141606
6 *153:10 *586:A2 0.000185646
7 *153:10 *587:C 8.88799e-05
8 *561:S *686:A 8.49205e-05
9 *562:A1 *686:A 8.49205e-05
10 *586:A1 *153:10 8.65905e-05
11 *586:B1 *686:A 0
12 *586:B1 *153:10 9.14692e-05
13 *587:B *686:A 9.71067e-05
14 *587:B *153:10 0.000164686
15 *623:D *686:A 5.7344e-05
16 *99:83 *686:A 1.1561e-05
17 *99:83 *153:10 1.34361e-05
*RES
1 *621:Q *153:10 9.735 
2 *153:10 *587:A 3.6 
3 *153:10 *686:A 6.795 
*END

*D_NET *154 0.000340308
*CONN
*I *668:A I *D sky130_fd_sc_hd__dlygate4sd3_1
*I *622:Q O *D sky130_fd_sc_hd__dfrtp_1
*CAP
1 *668:A 0.000169674
2 *622:Q 0.000169674
3 *99:27 *668:A 9.60582e-07
*RES
1 *622:Q *668:A 9.375 
*END

*D_NET *155 0.0032612
*CONN
*I *587:C I *D sky130_fd_sc_hd__and3_1
*I *586:A2 I *D sky130_fd_sc_hd__a21oi_1
*I *585:B I *D sky130_fd_sc_hd__xor2_1
*I *515:C I *D sky130_fd_sc_hd__or3_1
*I *515:X O *D sky130_fd_sc_hd__or3_1
*CAP
1 *587:C 0.000263796
2 *586:A2 0.000351343
3 *585:B 7.88079e-05
4 *515:C 0.000146919
5 *515:X 0
6 *155:32 0.000742725
7 *155:19 0.000273514
8 *155:6 0.000214039
9 *515:C *515:B 4.18603e-06
10 *155:19 *515:B 4.70343e-05
11 *155:32 *515:B 7.04021e-05
12 *515:A *515:C 3.00381e-05
13 *561:A1 *155:32 0.000135532
14 *585:A *585:B 0.000201503
15 *586:A1 *586:A2 7.37365e-05
16 *587:B *587:C 0.000187766
17 *589:B *587:C 0
18 *620:D *155:19 0
19 *620:D *155:32 0
20 *620:RESET_B *155:32 7.36562e-05
21 *621:D *587:C 1.01661e-05
22 *99:37 *587:C 8.15166e-05
23 *153:10 *586:A2 0.000185646
24 *153:10 *587:C 8.88799e-05
*RES
1 *515:X *155:6 3.6 
2 *155:6 *515:C 5.955 
3 *155:6 *155:19 1.38 
4 *155:19 *585:B 5.43 
5 *155:19 *155:32 5.675 
6 *155:32 *586:A2 7.135 
7 *155:32 *587:C 10.085 
*END

*D_NET *156 0.00764246
*CONN
*I *546:A I *D sky130_fd_sc_hd__xor2_1
*I *540:A I *D sky130_fd_sc_hd__xor2_1
*I *638:A I *D sky130_fd_sc_hd__clkbuf_4
*I *593:Q O *D sky130_fd_sc_hd__dfrtp_1
*CAP
1 *546:A 0.000777867
2 *540:A 0.000210831
3 *638:A 0.000389163
4 *593:Q 0
5 *156:27 0.00237107
6 *156:4 0.00177154
7 *540:A *540:B 0.000229203
8 *540:A *647:A 0.000183738
9 *546:A *647:A 0.00010596
10 *546:A *168:12 0
11 *546:A *174:21 0.000204545
12 *156:27 *564:A1 4.41506e-05
13 *557:B *546:A 0
14 *559:A *156:27 0.000328289
15 *561:A0 *638:A 5.63318e-05
16 *565:S *540:A 0
17 *593:RESET_B *638:A 1.59221e-05
18 *597:RESET_B *540:A 0
19 *603:CLK *546:A 7.45881e-05
20 *603:RESET_B *546:A 0
21 *629:A *156:27 0.000479284
22 *90:8 *156:27 0.00016031
23 *90:80 *638:A 0.000126856
24 *99:57 *638:A 6.22699e-05
25 *99:57 *156:27 5.05437e-05
26 *100:24 *540:A 0
27 *102:40 *546:A 0
28 *150:23 *546:A 0
29 *150:25 *546:A 0
30 *150:27 *546:A 0
31 *150:33 *540:A 0
32 *150:33 *546:A 0
*RES
1 *593:Q *156:4 1.6 
2 *156:4 *638:A 11.495 
3 *156:4 *156:27 21.89 
4 *156:27 *540:A 8.55 
5 *156:27 *546:A 17.475 
*END

*D_NET *157 0.0107834
*CONN
*I *548:A I *D sky130_fd_sc_hd__or2_1
*I *547:A I *D sky130_fd_sc_hd__nand2_1
*I *553:A I *D sky130_fd_sc_hd__nand2_1
*I *637:A I *D sky130_fd_sc_hd__clkbuf_4
*I *594:Q O *D sky130_fd_sc_hd__dfrtp_1
*CAP
1 *548:A 0.000303851
2 *547:A 8.61969e-05
3 *553:A 0.000434622
4 *637:A 5.88671e-05
5 *594:Q 0.000444808
6 *157:48 0.00129116
7 *157:25 0.00174713
8 *157:12 0.00091507
9 *547:A *550:B 4.66108e-05
10 *553:A *553:B 0.000292593
11 *553:A *554:B 0.00026045
12 *157:12 *636:A 0.000189284
13 *157:25 *536:B 0.00020779
14 *157:25 *162:10 0.000360618
15 *157:48 *554:B 0.000245102
16 *157:48 *558:C 0.000123225
17 *549:A *157:48 7.28063e-05
18 *551:A2 *548:A 9.80652e-05
19 *551:A2 *157:48 1.79431e-05
20 *551:B1 *157:48 2.9982e-05
21 *551:B2 *157:48 1.34967e-05
22 *555:A *553:A 4.66108e-05
23 *556:A1 *553:A 8.40213e-05
24 *557:C *548:A 8.57024e-05
25 *557:D *157:48 9.71681e-05
26 *558:D *157:48 0.000265139
27 *562:A0 *157:12 3.89982e-05
28 *562:A0 *157:25 3.09233e-05
29 *568:A1 *547:A 0.000134516
30 *632:A *157:48 1.91597e-05
31 *645:A *157:48 0.000944479
32 *91:14 *157:12 0
33 *96:37 *553:A 4.99524e-05
34 *96:37 *157:25 0.000292175
35 *96:56 *553:A 2.84864e-05
36 *97:29 *157:25 0.00130109
37 *97:93 *547:A 6.9117e-05
38 *99:10 *157:12 0
39 *99:21 *157:12 0
40 *149:92 *157:25 5.62119e-05
*RES
1 *594:Q *157:12 13.4 
2 *157:12 *637:A 2.395 
3 *157:12 *157:25 19.405 
4 *157:25 *553:A 12.2 
5 *157:25 *157:48 18.18 
6 *157:48 *547:A 7.685 
7 *157:48 *548:A 5.68 
*END

*D_NET *158 0.000845614
*CONN
*I *636:A I *D sky130_fd_sc_hd__clkbuf_2
*I *595:Q O *D sky130_fd_sc_hd__dfrtp_1
*CAP
1 *636:A 0.000317611
2 *595:Q 0.000317611
3 *562:A0 *636:A 0
4 *595:CLK *636:A 2.11084e-05
5 *91:10 *636:A 0
6 *91:14 *636:A 0
7 *91:35 *636:A 0
8 *97:29 *636:A 0
9 *157:12 *636:A 0.000189284
*RES
1 *595:Q *636:A 12.855 
*END

*D_NET *159 0.00127631
*CONN
*I *552:B I *D sky130_fd_sc_hd__xor2_1
*I *658:A I *D sky130_fd_sc_hd__dlygate4sd3_1
*I *613:Q O *D sky130_fd_sc_hd__dfrtp_1
*CAP
1 *552:B 6.72077e-05
2 *658:A 0
3 *613:Q 0.00026752
4 *159:14 0.000334728
5 *576:A1 *552:B 3.6355e-05
6 *576:A1 *159:14 0.000104226
7 *609:D *159:14 7.35813e-05
8 *96:37 *159:14 8.94526e-05
9 *98:30 *552:B 9.43619e-05
10 *149:63 *552:B 0.000161101
11 *149:63 *159:14 4.77757e-05
*RES
1 *613:Q *159:14 10.715 
2 *159:14 *658:A 1.6 
3 *159:14 *552:B 3.79 
*END

*D_NET *160 0.00526695
*CONN
*I *577:A1 I *D sky130_fd_sc_hd__mux2_1
*I *678:A I *D sky130_fd_sc_hd__dlygate4sd3_1
*I *554:B I *D sky130_fd_sc_hd__or2_1
*I *553:B I *D sky130_fd_sc_hd__nand2_1
*I *614:Q O *D sky130_fd_sc_hd__dfrtp_1
*CAP
1 *577:A1 0.000436327
2 *678:A 0.000259675
3 *554:B 0.000131928
4 *553:B 0.000173001
5 *614:Q 0
6 *160:34 0.000799912
7 *160:12 0.000738044
8 *160:4 0.000537025
9 *553:B *555:B 8.64421e-05
10 *160:12 *555:B 0.000117437
11 *553:A *553:B 0.000292593
12 *553:A *554:B 0.00026045
13 *555:A *553:B 8.35106e-05
14 *556:A1 *553:B 3.77117e-05
15 *556:A1 *554:B 2.93517e-05
16 *556:A2 *554:B 0.000108243
17 *556:B1 *553:B 8.40213e-05
18 *556:B1 *554:B 1.08758e-05
19 *556:C1 *160:12 5.16418e-05
20 *557:D *554:B 2.96334e-05
21 *577:A0 *577:A1 1.7386e-05
22 *577:S *577:A1 4.35648e-05
23 *580:A0 *678:A 0
24 *610:D *678:A 4.22574e-05
25 *610:RESET_B *678:A 0
26 *611:D *160:12 4.05053e-05
27 *666:A *577:A1 2.77183e-05
28 *92:10 *160:12 0.000289004
29 *92:19 *160:12 0.000141592
30 *92:102 *678:A 0
31 *92:102 *160:12 8.53113e-06
32 *97:29 *554:B 0.000143468
33 *157:48 *554:B 0.000245102
*RES
1 *614:Q *160:4 1.6 
2 *160:4 *160:12 12.805 
3 *160:12 *553:B 6.115 
4 *160:12 *554:B 6.805 
5 *160:4 *160:34 1.5 
6 *160:34 *678:A 10.04 
7 *160:34 *577:A1 7.93 
*END

*D_NET *161 0.00354099
*CONN
*I *578:A1 I *D sky130_fd_sc_hd__mux2_1
*I *677:A I *D sky130_fd_sc_hd__dlygate4sd3_1
*I *555:B I *D sky130_fd_sc_hd__xor2_1
*I *615:Q O *D sky130_fd_sc_hd__dfrtp_1
*CAP
1 *578:A1 0.000107957
2 *677:A 0
3 *555:B 0.000252532
4 *615:Q 0.000684238
5 *161:29 0.000107957
6 *161:14 0.00093677
7 *553:B *555:B 8.64421e-05
8 *556:A1 *555:B 5.06989e-05
9 *556:C1 *555:B 3.09233e-05
10 *578:A0 *578:A1 4.99619e-05
11 *578:S *578:A1 8.65961e-05
12 *614:RESET_B *161:14 0
13 *615:D *161:14 3.64998e-06
14 *651:A *578:A1 6.12726e-05
15 *92:10 *555:B 0.000112123
16 *92:10 *161:14 0.000185411
17 *92:19 *161:14 0.000132089
18 *92:25 *161:14 6.0096e-05
19 *92:31 *161:14 1.17409e-05
20 *92:102 *161:14 7.32199e-05
21 *149:100 *555:B 1.5996e-05
22 *149:100 *578:A1 0.000268138
23 *149:100 *161:14 0.000105739
24 *149:121 *161:14 0
25 *160:12 *555:B 0.000117437
*RES
1 *615:Q *161:14 14.385 
2 *161:14 *555:B 9.03 
3 *161:14 *161:29 2 
4 *161:29 *677:A 1.6 
5 *161:29 *578:A1 4.81 
*END

*D_NET *162 0.00158541
*CONN
*I *536:B I *D sky130_fd_sc_hd__xor2_1
*I *669:A I *D sky130_fd_sc_hd__dlygate4sd3_1
*I *609:Q O *D sky130_fd_sc_hd__dfrtp_1
*CAP
1 *536:B 5.53088e-05
2 *669:A 0
3 *609:Q 0.000126456
4 *162:10 0.000181764
5 *573:S *162:10 8.51879e-05
6 *609:RESET_B *162:10 4.60061e-05
7 *96:37 *162:10 0.000315348
8 *149:14 *536:B 0.000148664
9 *149:14 *162:10 8.30853e-06
10 *149:92 *536:B 4.99581e-05
11 *157:25 *536:B 0.00020779
12 *157:25 *162:10 0.000360618
*RES
1 *609:Q *162:10 8.58 
2 *162:10 *669:A 3.6 
3 *162:10 *536:B 6 
*END

*D_NET *163 0.0033531
*CONN
*I *665:A I *D sky130_fd_sc_hd__dlygate4sd3_1
*I *574:A1 I *D sky130_fd_sc_hd__mux2_1
*I *535:B I *D sky130_fd_sc_hd__xor2_1
*I *610:Q O *D sky130_fd_sc_hd__dfrtp_1
*CAP
1 *665:A 0.000201281
2 *574:A1 0.000234146
3 *535:B 0.000450051
4 *610:Q 0
5 *163:8 0.000745259
6 *163:6 0.000262343
7 *537:A *535:B 0.000155497
8 *539:B1 *535:B 0.000122325
9 *539:C1 *535:B 4.35432e-05
10 *574:A0 *574:A1 4.99619e-05
11 *577:A0 *665:A 7.5431e-05
12 *577:A0 *163:8 2.67022e-05
13 *577:S *535:B 0.000338219
14 *577:S *574:A1 3.64998e-06
15 *607:D *665:A 0
16 *608:D *535:B 0
17 *628:A *535:B 0
18 *631:A *535:B 2.45351e-05
19 *643:A *535:B 0.000112123
20 *655:A *574:A1 9.21168e-05
21 *666:A *665:A 0
22 *97:82 *535:B 0.000415912
23 *102:40 *535:B 0
24 *102:51 *535:B 0
*RES
1 *610:Q *163:6 3.6 
2 *163:6 *163:8 1.125 
3 *163:8 *535:B 14.085 
4 *163:8 *574:A1 7.86 
5 *163:6 *665:A 7.395 
*END

*D_NET *164 0.00199969
*CONN
*I *538:B I *D sky130_fd_sc_hd__nand2_1
*I *650:A I *D sky130_fd_sc_hd__dlygate4sd3_1
*I *537:B I *D sky130_fd_sc_hd__or2_1
*I *611:Q O *D sky130_fd_sc_hd__dfrtp_1
*CAP
1 *538:B 0.000215947
2 *650:A 2.08101e-05
3 *537:B 6.26594e-05
4 *611:Q 5.06455e-05
5 *164:19 0.000365279
6 *164:10 0.000241826
7 *537:A *537:B 0.000124007
8 *537:A *164:19 3.66286e-05
9 *575:A0 *538:B 0.000348699
10 *575:A1 *538:B 0.00018171
11 *575:A1 *164:19 0.000106078
12 *577:S *164:10 0
13 *628:A *164:10 9.54469e-05
14 *93:67 *538:B 5.84828e-05
15 *151:31 *538:B 7.67345e-05
16 *151:35 *538:B 1.47347e-05
*RES
1 *611:Q *164:10 6.725 
2 *164:10 *537:B 2.74 
3 *164:10 *164:19 2.175 
4 *164:19 *650:A 1.96 
5 *164:19 *538:B 7.585 
*END

*D_NET *165 0.0019979
*CONN
*I *523:B I *D sky130_fd_sc_hd__xor2_1
*I *570:A1 I *D sky130_fd_sc_hd__mux2_1
*I *673:A I *D sky130_fd_sc_hd__dlygate4sd3_1
*I *606:Q O *D sky130_fd_sc_hd__dfrtp_1
*CAP
1 *523:B 0.000315927
2 *570:A1 0
3 *673:A 0
4 *606:Q 0.00014079
5 *165:23 0.000596308
6 *165:12 0.000421172
7 *570:A0 *523:B 3.23018e-05
8 *570:A0 *165:23 4.99619e-05
9 *570:S *523:B 0.00027209
10 *570:S *165:23 5.4155e-06
11 *573:A1 *165:12 3.68682e-05
12 *603:CLK *523:B 0
13 *628:A *165:12 0
14 *661:A *165:23 5.07419e-05
15 *97:29 *165:12 0
16 *102:40 *523:B 7.63204e-05
*RES
1 *606:Q *165:12 8.03 
2 *165:12 *673:A 1.6 
3 *165:12 *165:23 4.275 
4 *165:23 *570:A1 1.6 
5 *165:23 *523:B 10.445 
*END

*D_NET *166 0.00224942
*CONN
*I *654:A I *D sky130_fd_sc_hd__dlygate4sd3_1
*I *524:B I *D sky130_fd_sc_hd__xor2_1
*I *607:Q O *D sky130_fd_sc_hd__dfrtp_1
*CAP
1 *654:A 0.00040156
2 *524:B 0.000170219
3 *607:Q 0.000386475
4 *166:8 0.000958254
5 *568:A1 *524:B 0.000154985
6 *604:CLK *166:8 1.47256e-05
7 *604:D *166:8 0.000163204
*RES
1 *607:Q *166:8 8.19 
2 *166:8 *524:B 7.02 
3 *166:8 *654:A 9.81 
*END

*D_NET *167 0.00117272
*CONN
*I *656:A I *D sky130_fd_sc_hd__dlygate4sd3_1
*I *522:B I *D sky130_fd_sc_hd__xor2_1
*I *608:Q O *D sky130_fd_sc_hd__dfrtp_1
*CAP
1 *656:A 9.59674e-05
2 *522:B 0.000407518
3 *608:Q 0
4 *167:4 0.000503485
5 *538:A *522:B 0
6 *608:CLK *522:B 1.56428e-05
7 *93:71 *522:B 0.00011379
8 *102:40 *522:B 0
9 *102:51 *522:B 1.45272e-05
10 *102:65 *522:B 1.0124e-05
11 *102:65 *656:A 1.16646e-05
*RES
1 *608:Q *167:4 1.6 
2 *167:4 *522:B 11.195 
3 *167:4 *656:A 3.01 
*END

*D_NET *168 0.00056827
*CONN
*I *546:B I *D sky130_fd_sc_hd__xor2_1
*I *660:A I *D sky130_fd_sc_hd__dlygate4sd3_1
*I *603:Q O *D sky130_fd_sc_hd__dfrtp_1
*CAP
1 *546:B 2.63234e-05
2 *660:A 0
3 *603:Q 0.000133129
4 *168:12 0.000159452
5 *546:A *168:12 0
6 *570:S *546:B 7.35813e-05
7 *603:CLK *168:12 5.30673e-05
8 *603:RESET_B *168:12 2.66935e-05
9 *102:28 *546:B 7.35813e-05
10 *102:40 *168:12 2.24423e-05
*RES
1 *603:Q *168:12 7.775 
2 *168:12 *660:A 1.6 
3 *168:12 *546:B 2.74 
*END

*D_NET *169 0.00324271
*CONN
*I *662:A I *D sky130_fd_sc_hd__dlygate4sd3_1
*I *548:B I *D sky130_fd_sc_hd__or2_1
*I *547:B I *D sky130_fd_sc_hd__nand2_1
*I *604:Q O *D sky130_fd_sc_hd__dfrtp_1
*CAP
1 *662:A 7.52346e-05
2 *548:B 0
3 *547:B 0.000437015
4 *604:Q 8.03796e-05
5 *169:10 0.000958185
6 *169:6 0.000676784
7 *547:B *550:B 3.71158e-05
8 *169:10 *170:10 0
9 *550:A *547:B 1.37328e-05
10 *569:A1 *547:B 0.000277723
11 *569:A1 *169:10 0.000109016
12 *600:CLK *547:B 0.000100323
13 *601:RESET_B *547:B 0.000120655
14 *604:RESET_B *169:6 7.35729e-05
15 *604:RESET_B *169:10 0.000273695
16 *93:31 *547:B 9.27255e-06
17 *97:93 *169:10 0
*RES
1 *604:Q *169:6 3.085 
2 *169:6 *169:10 12.05 
3 *169:10 *547:B 10.935 
4 *169:10 *548:B 3.6 
5 *169:6 *662:A 2.74 
*END

*D_NET *170 0.00199818
*CONN
*I *667:A I *D sky130_fd_sc_hd__dlygate4sd3_1
*I *549:B I *D sky130_fd_sc_hd__or2_1
*I *550:B I *D sky130_fd_sc_hd__nand2_1
*I *605:Q O *D sky130_fd_sc_hd__dfrtp_1
*CAP
1 *667:A 4.76177e-05
2 *549:B 2.2266e-05
3 *550:B 0.000272262
4 *605:Q 0.000215245
5 *170:12 0.000405081
6 *170:10 0.000373415
7 *547:A *550:B 4.66108e-05
8 *547:B *550:B 3.71158e-05
9 *550:A *550:B 1.24244e-05
10 *551:A2 *549:B 4.82919e-05
11 *557:C *550:B 2.59981e-05
12 *557:C *170:12 5.65627e-05
13 *569:A1 *550:B 0
14 *569:A1 *667:A 0.0001249
15 *569:A1 *170:12 0
16 *93:31 *550:B 0.000195482
17 *97:93 *550:B 4.62396e-05
18 *97:93 *170:10 5.4239e-05
19 *97:93 *170:12 1.44259e-05
20 *169:10 *170:10 0
*RES
1 *605:Q *170:10 6.72 
2 *170:10 *170:12 1.89 
3 *170:12 *550:B 8.73 
4 *170:12 *549:B 4.05 
5 *170:10 *667:A 4.74 
*END

*D_NET *171 0.00169258
*CONN
*I *663:A I *D sky130_fd_sc_hd__dlygate4sd3_1
*I *516:B I *D sky130_fd_sc_hd__or2_1
*I *517:B I *D sky130_fd_sc_hd__nand2_1
*I *599:Q O *D sky130_fd_sc_hd__dfrtp_1
*CAP
1 *663:A 0.000140792
2 *516:B 3.61853e-05
3 *517:B 6.50162e-05
4 *599:Q 0.00012622
5 *171:21 0.000226329
6 *171:8 0.000240588
7 *517:A *517:B 4.82919e-05
8 *519:A *663:A 8.53113e-06
9 *521:B2 *663:A 1.17036e-05
10 *603:CLK *663:A 4.99619e-05
11 *641:A *517:B 9.52646e-05
12 *641:A *171:8 1.45231e-05
13 *98:61 *663:A 4.05234e-05
14 *98:63 *517:B 1.52945e-05
15 *98:63 *663:A 2.97004e-06
16 *98:63 *171:21 6.52819e-05
17 *98:69 *517:B 1.22762e-05
18 *150:23 *663:A 0.000132096
19 *150:23 *171:21 5.56629e-05
20 *150:25 *517:B 2.92496e-05
21 *150:25 *171:21 0.000109989
22 *150:27 *517:B 5.39961e-05
23 *150:66 *517:B 6.52265e-05
24 *150:66 *171:8 4.66108e-05
*RES
1 *599:Q *171:8 5.085 
2 *171:8 *517:B 5.955 
3 *171:8 *171:21 1.89 
4 *171:21 *516:B 4.05 
5 *171:21 *663:A 6.72 
*END

*D_NET *172 0.00247718
*CONN
*I *676:A I *D sky130_fd_sc_hd__dlygate4sd3_1
*I *520:B I *D sky130_fd_sc_hd__xor2_1
*I *591:A1 I *D sky130_fd_sc_hd__mux2_1
*I *600:Q O *D sky130_fd_sc_hd__dfrtp_1
*CAP
1 *676:A 1.97819e-05
2 *520:B 0.000344593
3 *591:A1 0.000418
4 *600:Q 8.4202e-05
5 *172:19 0.000364375
6 *172:8 0.000502202
7 *520:B *519:B 6.77417e-05
8 *520:B *173:14 0.000226431
9 *520:B *173:16 0.000112622
10 *591:A1 *592:A1 0
11 *676:A *173:14 2.75229e-05
12 *172:8 *592:A1 0
13 *172:8 *173:14 5.21046e-05
14 *518:A *520:B 0.000119762
15 *592:A0 *591:A1 3.86529e-05
16 *626:D *591:A1 9.91888e-05
17 *642:A *591:A1 0
18 *642:A *172:8 0
19 *105:19 *591:A1 0
20 *150:79 *591:A1 0
*RES
1 *600:Q *172:8 5.235 
2 *172:8 *591:A1 11.1 
3 *172:8 *172:19 2 
4 *172:19 *520:B 8.95 
5 *172:19 *676:A 2.05 
*END

*D_NET *173 0.00354219
*CONN
*I *672:A I *D sky130_fd_sc_hd__dlygate4sd3_1
*I *592:A1 I *D sky130_fd_sc_hd__mux2_1
*I *518:B I *D sky130_fd_sc_hd__or2_1
*I *519:B I *D sky130_fd_sc_hd__nand2_1
*I *601:Q O *D sky130_fd_sc_hd__dfrtp_1
*CAP
1 *672:A 0
2 *592:A1 0.000165464
3 *518:B 0
4 *519:B 0.000366585
5 *601:Q 8.51447e-05
6 *173:16 0.000436146
7 *173:14 0.000611452
8 *173:8 0.000461572
9 *518:A *519:B 0.000122337
10 *520:A *519:B 8.23457e-05
11 *520:B *519:B 6.77417e-05
12 *520:B *173:14 0.000226431
13 *520:B *173:16 0.000112622
14 *521:A1 *519:B 8.57024e-05
15 *521:A2 *519:B 7.32582e-05
16 *521:C1 *519:B 2.8185e-05
17 *568:A0 *173:14 0.000201508
18 *568:A0 *173:16 8.65905e-05
19 *591:A1 *592:A1 0
20 *642:A *173:14 7.63282e-05
21 *676:A *173:14 2.75229e-05
22 *95:60 *519:B 2.49909e-05
23 *97:118 *592:A1 0
24 *98:61 *519:B 0.000138651
25 *98:63 *519:B 9.50342e-06
26 *150:79 *592:A1 0
27 *172:8 *592:A1 0
28 *172:8 *173:14 5.21046e-05
*RES
1 *601:Q *173:8 4.98 
2 *173:8 *173:14 10.175 
3 *173:14 *173:16 1.83 
4 *173:16 *519:B 12.62 
5 *173:16 *518:B 1.6 
6 *173:14 *592:A1 8 
7 *173:8 *672:A 3.6 
*END

*D_NET *174 0.00257902
*CONN
*I *564:A1 I *D sky130_fd_sc_hd__mux2_1
*I *528:B I *D sky130_fd_sc_hd__or2_1
*I *529:B I *D sky130_fd_sc_hd__nand2_1
*I *664:A I *D sky130_fd_sc_hd__dlygate4sd3_1
*I *624:Q O *D sky130_fd_sc_hd__dfrtp_1
*CAP
1 *564:A1 0.000204765
2 *528:B 6.61494e-05
3 *529:B 2.80245e-05
4 *664:A 4.72665e-05
5 *624:Q 0
6 *174:21 0.000309241
7 *174:8 0.000349723
8 *174:4 0.000292155
9 *174:8 *647:A 0.000158297
10 *174:21 *647:A 8.53113e-06
11 *529:A *528:B 4.82863e-05
12 *530:B2 *528:B 9.80943e-06
13 *530:B2 *529:B 5.83121e-06
14 *546:A *174:21 0.000204545
15 *557:B *664:A 9.4366e-05
16 *557:B *174:21 0
17 *564:S *564:A1 7.3151e-05
18 *629:A *174:8 0
19 *629:A *174:21 0
20 *630:A *664:A 4.99619e-05
21 *89:10 *174:21 0
22 *91:8 *664:A 0.000278111
23 *100:24 *564:A1 0.000143457
24 *150:33 *564:A1 0.000163199
25 *156:27 *564:A1 4.41506e-05
*RES
1 *624:Q *174:4 1.6 
2 *174:4 *174:8 3.89 
3 *174:8 *664:A 6.12 
4 *174:8 *174:21 6.44 
5 *174:21 *529:B 2.05 
6 *174:21 *528:B 2.755 
7 *174:4 *564:A1 6.19 
*END

*D_NET *175 0.00248105
*CONN
*I *674:A I *D sky130_fd_sc_hd__dlygate4sd3_1
*I *527:B I *D sky130_fd_sc_hd__xor2_1
*I *565:A1 I *D sky130_fd_sc_hd__mux2_1
*I *625:Q O *D sky130_fd_sc_hd__dfrtp_1
*CAP
1 *674:A 0.000156474
2 *527:B 2.56379e-05
3 *565:A1 0.000353468
4 *625:Q 0
5 *175:19 0.000325425
6 *175:6 0.000496782
7 *674:A *566:A1 0
8 *674:A *176:23 0
9 *674:A *176:27 7.75867e-05
10 *545:B1 *565:A1 7.23602e-05
11 *545:B1 *175:19 0.000249234
12 *545:B2 *565:A1 7.23602e-05
13 *545:B2 *175:19 0.000238063
14 *565:A0 *565:A1 0.000161829
15 *597:D *565:A1 9.60582e-07
16 *626:CLK *674:A 2.97004e-06
17 *626:CLK *175:19 6.44872e-05
18 *635:A *527:B 1.83756e-05
19 *95:29 *674:A 0
20 *97:118 *674:A 7.26551e-05
21 *97:118 *175:19 1.89685e-05
22 *97:128 *175:19 7.34176e-05
*RES
1 *625:Q *175:6 3.6 
2 *175:6 *565:A1 8.37 
3 *175:6 *175:19 4.95 
4 *175:19 *527:B 4.05 
5 *175:19 *674:A 6.735 
*END

*D_NET *176 0.00384561
*CONN
*I *670:A I *D sky130_fd_sc_hd__dlygate4sd3_1
*I *525:B I *D sky130_fd_sc_hd__or2_1
*I *526:B I *D sky130_fd_sc_hd__nand2_1
*I *566:A1 I *D sky130_fd_sc_hd__mux2_1
*I *626:Q O *D sky130_fd_sc_hd__dfrtp_1
*CAP
1 *670:A 0.000375413
2 *525:B 9.24802e-05
3 *526:B 0
4 *566:A1 0.000346477
5 *626:Q 0.000101058
6 *176:27 0.000225292
7 *176:23 0.000619376
8 *176:8 0.000558686
9 *525:A *525:B 4.66108e-05
10 *530:A2 *525:B 1.17409e-05
11 *545:A2 *566:A1 0.000335156
12 *566:S *566:A1 0.000111285
13 *591:A0 *566:A1 0
14 *591:A0 *176:23 0
15 *598:RESET_B *566:A1 7.97252e-05
16 *625:D *566:A1 0.00023635
17 *626:CLK *566:A1 6.44872e-05
18 *626:CLK *176:8 0.000123225
19 *626:RESET_B *566:A1 5.93505e-05
20 *635:A *566:A1 0.000116158
21 *635:A *176:8 2.50602e-05
22 *674:A *566:A1 0
23 *674:A *176:23 0
24 *674:A *176:27 7.75867e-05
25 *675:A *566:A1 0.000234674
26 *95:29 *525:B 5.4155e-06
27 *97:118 *176:23 0
28 *150:79 *176:23 0
*RES
1 *626:Q *176:8 5.43 
2 *176:8 *566:A1 13.725 
3 *176:8 *176:23 3.635 
4 *176:23 *176:27 2.535 
5 *176:27 *526:B 1.6 
6 *176:27 *525:B 3.1 
7 *176:23 *670:A 6.88 
*END

*D_NET *177 0.00260785
*CONN
*I *647:A I *D sky130_fd_sc_hd__dlygate4sd3_1
*I *540:B I *D sky130_fd_sc_hd__xor2_1
*I *596:Q O *D sky130_fd_sc_hd__dfrtp_1
*CAP
1 *647:A 0.000259884
2 *540:B 0.000121473
3 *596:Q 3.38751e-05
4 *177:8 0.000415232
5 *540:A *540:B 0.000229203
6 *540:A *647:A 0.000183738
7 *546:A *647:A 0.00010596
8 *557:B *647:A 0.000294927
9 *91:8 *647:A 0.000272984
10 *91:59 *647:A 0.000469632
11 *95:8 *647:A 5.83121e-06
12 *100:42 *177:8 4.82863e-05
13 *174:8 *647:A 0.000158297
14 *174:21 *647:A 8.53113e-06
*RES
1 *596:Q *177:8 4.05 
2 *177:8 *540:B 6.255 
3 *177:8 *647:A 13.68 
*END

*D_NET *178 0.00190982
*CONN
*I *543:B I *D sky130_fd_sc_hd__nand2_1
*I *682:A I *D sky130_fd_sc_hd__dlygate4sd3_1
*I *544:B I *D sky130_fd_sc_hd__or2_1
*I *597:Q O *D sky130_fd_sc_hd__dfrtp_1
*CAP
1 *543:B 6.30097e-05
2 *682:A 1.49415e-05
3 *544:B 0
4 *597:Q 0.000290434
5 *178:19 0.000225679
6 *178:12 0.000438162
7 *543:A *543:B 8.65905e-05
8 *543:A *178:19 0.00030873
9 *544:A *178:12 1.22762e-05
10 *544:A *178:19 4.82863e-05
11 *545:B1 *543:B 7.37365e-05
12 *545:B1 *178:19 5.05521e-05
13 *545:B2 *178:19 0.000122331
14 *545:C1 *178:12 2.48374e-05
15 *597:RESET_B *178:12 0.000120741
16 *598:D *543:B 7.00889e-06
17 *97:128 *178:12 2.25075e-05
*RES
1 *597:Q *178:12 9.59 
2 *178:12 *544:B 1.6 
3 *178:12 *178:19 3.9 
4 *178:19 *682:A 1.96 
5 *178:19 *543:B 3.55 
*END

*D_NET *179 0.00310338
*CONN
*I *541:B I *D sky130_fd_sc_hd__or2_1
*I *542:B I *D sky130_fd_sc_hd__nand2_1
*I *684:A I *D sky130_fd_sc_hd__dlygate4sd3_1
*I *598:Q O *D sky130_fd_sc_hd__dfrtp_1
*CAP
1 *541:B 0.000801753
2 *542:B 0
3 *684:A 0.000233576
4 *598:Q 0
5 *179:21 0.000876222
6 *179:6 0.000308045
7 *566:A0 *684:A 0
8 *625:CLK *541:B 0.000220104
9 *625:RESET_B *541:B 3.86929e-05
10 *640:A *541:B 2.49909e-05
11 *688:A *684:A 2.10433e-05
12 *100:6 *541:B 1.35081e-05
13 *100:24 *541:B 0.000155497
14 *105:8 *541:B 7.18817e-05
15 *105:8 *684:A 0.000267279
16 *105:8 *179:21 7.07879e-05
*RES
1 *598:Q *179:6 3.6 
2 *179:6 *684:A 8.85 
3 *179:6 *179:21 1.635 
4 *179:21 *542:B 3.6 
5 *179:21 *541:B 14.895 
*END

*D_NET *180 0.00122001
*CONN
*I *515:B I *D sky130_fd_sc_hd__or3_1
*I *623:Q O *D sky130_fd_sc_hd__dfrtp_1
*CAP
1 *515:B 0.000220275
2 *623:Q 0.000220275
3 *515:C *515:B 4.18603e-06
4 *587:B *515:B 5.2124e-05
5 *620:RESET_B *515:B 0.000226154
6 *99:83 *515:B 9.71067e-05
7 *152:27 *515:B 0.000140852
8 *153:10 *515:B 0.000141606
9 *155:19 *515:B 4.70343e-05
10 *155:32 *515:B 7.04021e-05
*RES
1 *623:Q *515:B 14.19 
*END

*D_NET *181 0.000891484
*CONN
*I *646:A I *D sky130_fd_sc_hd__dlygate4sd3_1
*I *602:Q O *D sky130_fd_sc_hd__dfrtp_1
*CAP
1 *646:A 0.000282247
2 *602:Q 0.000282247
3 *612:D *646:A 0
4 *619:D *646:A 0.000162311
5 *619:RESET_B *646:A 0.000164679
*RES
1 *602:Q *646:A 12.105 
*END

*D_NET *182 0.00143562
*CONN
*I *657:A I *D sky130_fd_sc_hd__dlygate4sd3_1
*I *612:Q O *D sky130_fd_sc_hd__dfrtp_1
*CAP
1 *657:A 0.000310788
2 *612:Q 0.000310788
3 *657:A *679:A 4.89295e-05
4 *560:A_N *657:A 0.000122801
5 *563:A0 *657:A 0.000232403
6 *619:D *657:A 5.83121e-06
7 *619:RESET_B *657:A 0
8 *96:8 *657:A 0.000196376
9 *99:64 *657:A 0
10 *104:8 *657:A 0.000207701
*RES
1 *612:Q *657:A 14.55 
*END

*D_NET *183 0.000806395
*CONN
*I *679:A I *D sky130_fd_sc_hd__dlygate4sd3_1
*I *619:Q O *D sky130_fd_sc_hd__dfrtp_1
*CAP
1 *679:A 0.000284828
2 *619:Q 0.000284828
3 *559:A *679:A 0.000112279
4 *657:A *679:A 4.89295e-05
5 *90:49 *679:A 2.38466e-05
6 *90:66 *679:A 3.90873e-06
7 *104:8 *679:A 4.77757e-05
*RES
1 *619:Q *679:A 11.205 
*END

*D_NET *184 0.00240645
*CONN
*I *558:C I *D sky130_fd_sc_hd__and4b_1
*I *627:Q O *D sky130_fd_sc_hd__dfrtp_1
*CAP
1 *558:C 0.000638756
2 *627:Q 0.000638756
3 *557:D *558:C 7.10578e-05
4 *590:A1 *558:C 0
5 *599:CLK *558:C 0.000116853
6 *599:D *558:C 0
7 *599:RESET_B *558:C 5.20968e-05
8 *603:D *558:C 0.000338226
9 *627:RESET_B *558:C 0.000162311
10 *628:A *558:C 0.000182196
11 *643:A *558:C 8.29686e-05
12 *661:A *558:C 0
13 *89:34 *558:C 0
14 *101:10 *558:C 0
15 *157:48 *558:C 0.000123225
*RES
1 *627:Q *558:C 21.405 
*END
