*SPEF "ieee 1481-1999"
*DESIGN "rng_top"
*DATE "13:29:11 Tuesday February 17, 2026"
*VENDOR "The OpenROAD Project"
*PROGRAM "OpenROAD"
*VERSION "edf00dff99f6c40d67a30c0e22a8191c5d2ed9d6"
*DESIGN_FLOW "NAME_SCOPE LOCAL" "PIN_CAP NONE"
*DIVIDER /
*DELIMITER :
*BUS_DELIMITER []
*T_UNIT 1 NS
*C_UNIT 1 PF
*R_UNIT 1 OHM
*L_UNIT 1 HENRY

*NAME_MAP
*3 clk_i
*4 num_to_send_o[0]
*5 num_to_send_o[1]
*6 num_to_send_o[2]
*7 req_num_i
*8 rst_i
*9 wr_i
*10 _000_
*11 _001_
*12 _002_
*13 _003_
*14 _004_
*15 _005_
*16 _006_
*17 _007_
*18 _008_
*19 _009_
*20 _010_
*21 _011_
*22 _012_
*23 _013_
*24 _014_
*25 _015_
*26 _016_
*27 _017_
*28 _018_
*29 _019_
*30 _020_
*31 _021_
*32 _022_
*33 _023_
*34 _024_
*35 _025_
*36 _026_
*37 _027_
*38 _028_
*39 _029_
*40 _030_
*41 _031_
*42 _032_
*43 _033_
*44 _034_
*45 _035_
*46 _036_
*47 _037_
*48 _038_
*49 _039_
*50 _040_
*51 _041_
*52 _042_
*53 _043_
*54 _044_
*55 _045_
*56 _046_
*57 _047_
*58 _048_
*59 _049_
*60 _050_
*61 _051_
*62 _052_
*63 _053_
*64 _054_
*65 _055_
*66 _056_
*67 _057_
*68 _058_
*69 _059_
*70 _060_
*71 _061_
*72 _062_
*73 _063_
*74 _064_
*75 _065_
*76 _066_
*77 _067_
*78 _068_
*79 _069_
*80 _070_
*81 _071_
*82 _072_
*83 _073_
*84 _074_
*85 _075_
*86 _076_
*87 _077_
*88 _078_
*89 _079_
*90 _080_
*91 _081_
*92 _082_
*93 _083_
*94 _084_
*95 _085_
*96 _086_
*97 _087_
*98 _088_
*99 _089_
*100 _090_
*101 _091_
*102 _092_
*103 _093_
*104 _094_
*105 _095_
*106 _096_
*107 _097_
*108 _098_
*109 _099_
*110 _100_
*111 _101_
*112 _102_
*113 _103_
*114 _104_
*115 _105_
*116 _106_
*117 _107_
*118 _108_
*119 _109_
*120 _110_
*121 _111_
*122 _112_
*123 _113_
*124 _114_
*125 _115_
*126 _116_
*127 _117_
*128 _118_
*129 _119_
*130 _120_
*131 _121_
*132 _122_
*133 _123_
*134 _124_
*135 _125_
*136 _126_
*137 _127_
*138 _128_
*139 _129_
*140 _130_
*141 _131_
*142 _132_
*143 _133_
*144 _134_
*145 _135_
*146 _136_
*147 _137_
*148 _138_
*149 _139_
*150 _140_
*151 _141_
*152 _142_
*153 _143_
*154 _144_
*155 _145_
*156 _146_
*157 _147_
*158 _148_
*159 _149_
*160 _150_
*161 _151_
*162 _152_
*163 _153_
*164 _154_
*165 _155_
*166 _156_
*167 _157_
*168 _158_
*169 _159_
*170 _160_
*171 _161_
*172 _162_
*173 _163_
*174 _164_
*175 _165_
*176 clknet_0_clk_i
*177 clknet_3_0__leaf_clk_i
*178 clknet_3_1__leaf_clk_i
*179 clknet_3_2__leaf_clk_i
*180 clknet_3_3__leaf_clk_i
*181 clknet_3_4__leaf_clk_i
*182 clknet_3_5__leaf_clk_i
*183 clknet_3_6__leaf_clk_i
*184 clknet_3_7__leaf_clk_i
*185 net1
*186 net10
*187 net11
*188 net12
*189 net13
*190 net14
*191 net15
*192 net16
*193 net17
*194 net18
*195 net19
*196 net2
*197 net20
*198 net21
*199 net22
*200 net23
*201 net24
*202 net25
*203 net26
*204 net27
*205 net28
*206 net29
*207 net3
*208 net30
*209 net31
*210 net32
*211 net33
*212 net34
*213 net35
*214 net36
*215 net37
*216 net38
*217 net39
*218 net4
*219 net40
*220 net41
*221 net42
*222 net43
*223 net44
*224 net45
*225 net46
*226 net47
*227 net48
*228 net49
*229 net5
*230 net50
*231 net51
*232 net52
*233 net53
*234 net54
*235 net55
*236 net56
*237 net57
*238 net58
*239 net59
*240 net6
*241 net60
*242 net61
*243 net62
*244 net63
*245 net64
*246 net65
*247 net66
*248 net67
*249 net68
*250 net69
*251 net7
*252 net70
*253 net71
*254 net72
*255 net73
*256 net74
*257 net75
*258 net76
*259 net77
*260 net78
*261 net79
*262 net8
*263 net80
*264 net81
*265 net82
*266 net83
*267 net84
*268 net85
*269 net86
*270 net87
*271 net88
*272 net89
*273 net9
*274 net90
*275 net91
*276 net92
*277 net93
*278 net94
*279 net95
*280 net96
*281 num_i_bar\[0\]
*282 num_i_bar\[1\]
*283 num_i_bar\[2\]
*284 req_num_again
*285 rng_dp\.inst\.next_num_o\[0\]
*286 rng_dp\.inst\.next_num_o\[1\]
*287 rng_dp\.inst\.next_num_o\[2\]
*288 rng_dp\.seed_sel_i\[0\]
*289 rng_dp\.seed_sel_i\[1\]
*290 rng_rd\.mem\[10\]\[0\]
*291 rng_rd\.mem\[10\]\[1\]
*292 rng_rd\.mem\[10\]\[2\]
*293 rng_rd\.mem\[11\]\[0\]
*294 rng_rd\.mem\[11\]\[1\]
*295 rng_rd\.mem\[11\]\[2\]
*296 rng_rd\.mem\[1\]\[0\]
*297 rng_rd\.mem\[1\]\[1\]
*298 rng_rd\.mem\[1\]\[2\]
*299 rng_rd\.mem\[2\]\[0\]
*300 rng_rd\.mem\[2\]\[1\]
*301 rng_rd\.mem\[2\]\[2\]
*302 rng_rd\.mem\[3\]\[0\]
*303 rng_rd\.mem\[3\]\[1\]
*304 rng_rd\.mem\[3\]\[2\]
*305 rng_rd\.mem\[4\]\[0\]
*306 rng_rd\.mem\[4\]\[1\]
*307 rng_rd\.mem\[4\]\[2\]
*308 rng_rd\.mem\[5\]\[0\]
*309 rng_rd\.mem\[5\]\[1\]
*310 rng_rd\.mem\[5\]\[2\]
*311 rng_rd\.mem\[6\]\[0\]
*312 rng_rd\.mem\[6\]\[1\]
*313 rng_rd\.mem\[6\]\[2\]
*314 rng_rd\.mem\[7\]\[0\]
*315 rng_rd\.mem\[7\]\[1\]
*316 rng_rd\.mem\[7\]\[2\]
*317 rng_rd\.mem\[8\]\[0\]
*318 rng_rd\.mem\[8\]\[1\]
*319 rng_rd\.mem\[8\]\[2\]
*320 rng_rd\.mem\[9\]\[0\]
*321 rng_rd\.mem\[9\]\[1\]
*322 rng_rd\.mem\[9\]\[2\]
*323 rng_rd\.vld\[0\]
*324 rng_rd\.vld\[10\]
*325 rng_rd\.vld\[11\]
*326 rng_rd\.vld\[1\]
*327 rng_rd\.vld\[2\]
*328 rng_rd\.vld\[3\]
*329 rng_rd\.vld\[4\]
*330 rng_rd\.vld\[5\]
*331 rng_rd\.vld\[6\]
*332 rng_rd\.vld\[7\]
*333 rng_rd\.vld\[8\]
*334 rng_rd\.vld\[9\]
*335 rng_rd\.wr_ff1
*336 rng_rd\.wr_ff2
*337 rng_rd\.wr_ff2_d
*338 rng_rd\.wr_pulse
*339 FILLER_0_105
*340 FILLER_0_107
*341 FILLER_0_111
*342 FILLER_0_113
*343 FILLER_0_125
*344 FILLER_0_137
*345 FILLER_0_139
*346 FILLER_0_141
*347 FILLER_0_15
*348 FILLER_0_153
*349 FILLER_0_165
*350 FILLER_0_167
*351 FILLER_0_169
*352 FILLER_0_181
*353 FILLER_0_193
*354 FILLER_0_195
*355 FILLER_0_197
*356 FILLER_0_209
*357 FILLER_0_221
*358 FILLER_0_27
*359 FILLER_0_29
*360 FILLER_0_3
*361 FILLER_0_41
*362 FILLER_0_53
*363 FILLER_0_55
*364 FILLER_0_57
*365 FILLER_0_69
*366 FILLER_0_81
*367 FILLER_0_83
*368 FILLER_0_85
*369 FILLER_0_97
*370 FILLER_10_104
*371 FILLER_10_111
*372 FILLER_10_154
*373 FILLER_10_175
*374 FILLER_10_193
*375 FILLER_10_195
*376 FILLER_10_209
*377 FILLER_10_221
*378 FILLER_10_24
*379 FILLER_10_29
*380 FILLER_10_3
*381 FILLER_10_50
*382 FILLER_10_52
*383 FILLER_10_85
*384 FILLER_11_103
*385 FILLER_11_111
*386 FILLER_11_123
*387 FILLER_11_128
*388 FILLER_11_136
*389 FILLER_11_183
*390 FILLER_11_204
*391 FILLER_11_216
*392 FILLER_11_220
*393 FILLER_11_222
*394 FILLER_11_29
*395 FILLER_11_3
*396 FILLER_11_47
*397 FILLER_11_5
*398 FILLER_11_55
*399 FILLER_11_66
*400 FILLER_11_70
*401 FILLER_11_91
*402 FILLER_12_118
*403 FILLER_12_130
*404 FILLER_12_138
*405 FILLER_12_141
*406 FILLER_12_161
*407 FILLER_12_193
*408 FILLER_12_195
*409 FILLER_12_210
*410 FILLER_12_222
*411 FILLER_12_45
*412 FILLER_12_49
*413 FILLER_12_7
*414 FILLER_12_82
*415 FILLER_13_104
*416 FILLER_13_110
*417 FILLER_13_113
*418 FILLER_13_135
*419 FILLER_13_147
*420 FILLER_13_149
*421 FILLER_13_159
*422 FILLER_13_167
*423 FILLER_13_169
*424 FILLER_13_173
*425 FILLER_13_184
*426 FILLER_13_19
*427 FILLER_13_205
*428 FILLER_13_217
*429 FILLER_13_221
*430 FILLER_13_23
*431 FILLER_13_41
*432 FILLER_13_48
*433 FILLER_13_7
*434 FILLER_13_9
*435 FILLER_14_107
*436 FILLER_14_133
*437 FILLER_14_137
*438 FILLER_14_139
*439 FILLER_14_141
*440 FILLER_14_193
*441 FILLER_14_195
*442 FILLER_14_197
*443 FILLER_14_209
*444 FILLER_14_221
*445 FILLER_14_26
*446 FILLER_14_29
*447 FILLER_14_39
*448 FILLER_14_48
*449 FILLER_14_56
*450 FILLER_14_65
*451 FILLER_14_67
*452 FILLER_14_85
*453 FILLER_14_89
*454 FILLER_15_11
*455 FILLER_15_119
*456 FILLER_15_128
*457 FILLER_15_13
*458 FILLER_15_130
*459 FILLER_15_167
*460 FILLER_15_197
*461 FILLER_15_207
*462 FILLER_15_219
*463 FILLER_15_23
*464 FILLER_15_25
*465 FILLER_15_46
*466 FILLER_15_57
*467 FILLER_15_7
*468 FILLER_15_70
*469 FILLER_15_92
*470 FILLER_15_96
*471 FILLER_15_98
*472 FILLER_16_101
*473 FILLER_16_111
*474 FILLER_16_123
*475 FILLER_16_135
*476 FILLER_16_139
*477 FILLER_16_150
*478 FILLER_16_195
*479 FILLER_16_197
*480 FILLER_16_209
*481 FILLER_16_221
*482 FILLER_16_3
*483 FILLER_16_37
*484 FILLER_16_47
*485 FILLER_16_7
*486 FILLER_16_74
*487 FILLER_17_105
*488 FILLER_17_130
*489 FILLER_17_132
*490 FILLER_17_141
*491 FILLER_17_149
*492 FILLER_17_15
*493 FILLER_17_169
*494 FILLER_17_173
*495 FILLER_17_209
*496 FILLER_17_221
*497 FILLER_17_27
*498 FILLER_17_3
*499 FILLER_17_35
*500 FILLER_17_66
*501 FILLER_17_74
*502 FILLER_17_95
*503 FILLER_18_115
*504 FILLER_18_119
*505 FILLER_18_141
*506 FILLER_18_161
*507 FILLER_18_172
*508 FILLER_18_180
*509 FILLER_18_182
*510 FILLER_18_192
*511 FILLER_18_197
*512 FILLER_18_206
*513 FILLER_18_218
*514 FILLER_18_222
*515 FILLER_18_26
*516 FILLER_18_29
*517 FILLER_18_3
*518 FILLER_18_5
*519 FILLER_18_59
*520 FILLER_18_71
*521 FILLER_18_91
*522 FILLER_19_104
*523 FILLER_19_111
*524 FILLER_19_113
*525 FILLER_19_117
*526 FILLER_19_209
*527 FILLER_19_221
*528 FILLER_19_3
*529 FILLER_19_37
*530 FILLER_19_50
*531 FILLER_19_54
*532 FILLER_19_57
*533 FILLER_19_61
*534 FILLER_19_71
*535 FILLER_19_75
*536 FILLER_19_90
*537 FILLER_19_94
*538 FILLER_1_110
*539 FILLER_1_113
*540 FILLER_1_125
*541 FILLER_1_137
*542 FILLER_1_149
*543 FILLER_1_161
*544 FILLER_1_165
*545 FILLER_1_167
*546 FILLER_1_169
*547 FILLER_1_181
*548 FILLER_1_193
*549 FILLER_1_205
*550 FILLER_1_217
*551 FILLER_1_221
*552 FILLER_1_25
*553 FILLER_1_3
*554 FILLER_1_37
*555 FILLER_1_42
*556 FILLER_1_53
*557 FILLER_1_55
*558 FILLER_1_80
*559 FILLER_20_108
*560 FILLER_20_120
*561 FILLER_20_126
*562 FILLER_20_138
*563 FILLER_20_141
*564 FILLER_20_145
*565 FILLER_20_147
*566 FILLER_20_15
*567 FILLER_20_167
*568 FILLER_20_169
*569 FILLER_20_187
*570 FILLER_20_195
*571 FILLER_20_197
*572 FILLER_20_209
*573 FILLER_20_221
*574 FILLER_20_26
*575 FILLER_20_29
*576 FILLER_20_3
*577 FILLER_20_80
*578 FILLER_20_85
*579 FILLER_20_89
*580 FILLER_21_108
*581 FILLER_21_113
*582 FILLER_21_115
*583 FILLER_21_125
*584 FILLER_21_127
*585 FILLER_21_136
*586 FILLER_21_147
*587 FILLER_21_15
*588 FILLER_21_151
*589 FILLER_21_162
*590 FILLER_21_166
*591 FILLER_21_189
*592 FILLER_21_201
*593 FILLER_21_213
*594 FILLER_21_221
*595 FILLER_21_23
*596 FILLER_21_3
*597 FILLER_21_33
*598 FILLER_21_45
*599 FILLER_21_47
*600 FILLER_21_57
*601 FILLER_21_59
*602 FILLER_22_136
*603 FILLER_22_15
*604 FILLER_22_189
*605 FILLER_22_193
*606 FILLER_22_195
*607 FILLER_22_197
*608 FILLER_22_209
*609 FILLER_22_221
*610 FILLER_22_27
*611 FILLER_22_29
*612 FILLER_22_3
*613 FILLER_22_41
*614 FILLER_22_45
*615 FILLER_22_47
*616 FILLER_22_65
*617 FILLER_22_74
*618 FILLER_22_82
*619 FILLER_22_94
*620 FILLER_23_105
*621 FILLER_23_109
*622 FILLER_23_111
*623 FILLER_23_130
*624 FILLER_23_142
*625 FILLER_23_144
*626 FILLER_23_15
*627 FILLER_23_161
*628 FILLER_23_165
*629 FILLER_23_167
*630 FILLER_23_177
*631 FILLER_23_189
*632 FILLER_23_201
*633 FILLER_23_213
*634 FILLER_23_221
*635 FILLER_23_27
*636 FILLER_23_3
*637 FILLER_23_39
*638 FILLER_23_51
*639 FILLER_23_55
*640 FILLER_23_57
*641 FILLER_23_69
*642 FILLER_24_109
*643 FILLER_24_125
*644 FILLER_24_137
*645 FILLER_24_139
*646 FILLER_24_141
*647 FILLER_24_15
*648 FILLER_24_153
*649 FILLER_24_165
*650 FILLER_24_177
*651 FILLER_24_189
*652 FILLER_24_193
*653 FILLER_24_195
*654 FILLER_24_197
*655 FILLER_24_209
*656 FILLER_24_221
*657 FILLER_24_27
*658 FILLER_24_29
*659 FILLER_24_3
*660 FILLER_24_41
*661 FILLER_24_53
*662 FILLER_24_65
*663 FILLER_24_77
*664 FILLER_24_81
*665 FILLER_24_83
*666 FILLER_24_85
*667 FILLER_24_97
*668 FILLER_25_105
*669 FILLER_25_109
*670 FILLER_25_111
*671 FILLER_25_113
*672 FILLER_25_125
*673 FILLER_25_137
*674 FILLER_25_149
*675 FILLER_25_15
*676 FILLER_25_161
*677 FILLER_25_165
*678 FILLER_25_167
*679 FILLER_25_169
*680 FILLER_25_181
*681 FILLER_25_193
*682 FILLER_25_205
*683 FILLER_25_217
*684 FILLER_25_221
*685 FILLER_25_27
*686 FILLER_25_3
*687 FILLER_25_39
*688 FILLER_25_51
*689 FILLER_25_55
*690 FILLER_25_57
*691 FILLER_25_69
*692 FILLER_25_81
*693 FILLER_25_93
*694 FILLER_26_109
*695 FILLER_26_121
*696 FILLER_26_133
*697 FILLER_26_137
*698 FILLER_26_139
*699 FILLER_26_141
*700 FILLER_26_15
*701 FILLER_26_153
*702 FILLER_26_165
*703 FILLER_26_177
*704 FILLER_26_189
*705 FILLER_26_193
*706 FILLER_26_195
*707 FILLER_26_197
*708 FILLER_26_209
*709 FILLER_26_221
*710 FILLER_26_27
*711 FILLER_26_29
*712 FILLER_26_3
*713 FILLER_26_41
*714 FILLER_26_53
*715 FILLER_26_65
*716 FILLER_26_77
*717 FILLER_26_81
*718 FILLER_26_83
*719 FILLER_26_85
*720 FILLER_26_97
*721 FILLER_27_105
*722 FILLER_27_109
*723 FILLER_27_111
*724 FILLER_27_113
*725 FILLER_27_125
*726 FILLER_27_137
*727 FILLER_27_149
*728 FILLER_27_15
*729 FILLER_27_161
*730 FILLER_27_165
*731 FILLER_27_167
*732 FILLER_27_169
*733 FILLER_27_181
*734 FILLER_27_193
*735 FILLER_27_205
*736 FILLER_27_217
*737 FILLER_27_221
*738 FILLER_27_27
*739 FILLER_27_3
*740 FILLER_27_39
*741 FILLER_27_51
*742 FILLER_27_55
*743 FILLER_27_57
*744 FILLER_27_69
*745 FILLER_27_81
*746 FILLER_27_93
*747 FILLER_28_109
*748 FILLER_28_121
*749 FILLER_28_133
*750 FILLER_28_137
*751 FILLER_28_139
*752 FILLER_28_141
*753 FILLER_28_15
*754 FILLER_28_153
*755 FILLER_28_165
*756 FILLER_28_177
*757 FILLER_28_189
*758 FILLER_28_193
*759 FILLER_28_195
*760 FILLER_28_197
*761 FILLER_28_209
*762 FILLER_28_221
*763 FILLER_28_27
*764 FILLER_28_29
*765 FILLER_28_3
*766 FILLER_28_41
*767 FILLER_28_53
*768 FILLER_28_65
*769 FILLER_28_77
*770 FILLER_28_81
*771 FILLER_28_83
*772 FILLER_28_85
*773 FILLER_28_97
*774 FILLER_29_105
*775 FILLER_29_109
*776 FILLER_29_111
*777 FILLER_29_113
*778 FILLER_29_125
*779 FILLER_29_137
*780 FILLER_29_149
*781 FILLER_29_15
*782 FILLER_29_161
*783 FILLER_29_165
*784 FILLER_29_167
*785 FILLER_29_169
*786 FILLER_29_181
*787 FILLER_29_193
*788 FILLER_29_205
*789 FILLER_29_217
*790 FILLER_29_221
*791 FILLER_29_27
*792 FILLER_29_3
*793 FILLER_29_39
*794 FILLER_29_51
*795 FILLER_29_55
*796 FILLER_29_57
*797 FILLER_29_69
*798 FILLER_29_81
*799 FILLER_29_93
*800 FILLER_2_112
*801 FILLER_2_124
*802 FILLER_2_136
*803 FILLER_2_141
*804 FILLER_2_153
*805 FILLER_2_165
*806 FILLER_2_177
*807 FILLER_2_189
*808 FILLER_2_193
*809 FILLER_2_195
*810 FILLER_2_197
*811 FILLER_2_209
*812 FILLER_2_221
*813 FILLER_2_27
*814 FILLER_2_52
*815 FILLER_2_54
*816 FILLER_2_62
*817 FILLER_30_109
*818 FILLER_30_121
*819 FILLER_30_133
*820 FILLER_30_137
*821 FILLER_30_139
*822 FILLER_30_141
*823 FILLER_30_15
*824 FILLER_30_153
*825 FILLER_30_165
*826 FILLER_30_177
*827 FILLER_30_189
*828 FILLER_30_193
*829 FILLER_30_195
*830 FILLER_30_197
*831 FILLER_30_209
*832 FILLER_30_221
*833 FILLER_30_27
*834 FILLER_30_29
*835 FILLER_30_3
*836 FILLER_30_41
*837 FILLER_30_53
*838 FILLER_30_65
*839 FILLER_30_77
*840 FILLER_30_81
*841 FILLER_30_83
*842 FILLER_30_85
*843 FILLER_30_97
*844 FILLER_31_105
*845 FILLER_31_109
*846 FILLER_31_111
*847 FILLER_31_113
*848 FILLER_31_125
*849 FILLER_31_137
*850 FILLER_31_149
*851 FILLER_31_15
*852 FILLER_31_161
*853 FILLER_31_165
*854 FILLER_31_167
*855 FILLER_31_169
*856 FILLER_31_181
*857 FILLER_31_193
*858 FILLER_31_205
*859 FILLER_31_217
*860 FILLER_31_221
*861 FILLER_31_27
*862 FILLER_31_3
*863 FILLER_31_39
*864 FILLER_31_51
*865 FILLER_31_55
*866 FILLER_31_57
*867 FILLER_31_69
*868 FILLER_31_81
*869 FILLER_31_93
*870 FILLER_32_109
*871 FILLER_32_121
*872 FILLER_32_133
*873 FILLER_32_137
*874 FILLER_32_139
*875 FILLER_32_141
*876 FILLER_32_15
*877 FILLER_32_153
*878 FILLER_32_165
*879 FILLER_32_177
*880 FILLER_32_189
*881 FILLER_32_193
*882 FILLER_32_195
*883 FILLER_32_197
*884 FILLER_32_209
*885 FILLER_32_221
*886 FILLER_32_27
*887 FILLER_32_29
*888 FILLER_32_3
*889 FILLER_32_41
*890 FILLER_32_53
*891 FILLER_32_65
*892 FILLER_32_77
*893 FILLER_32_81
*894 FILLER_32_83
*895 FILLER_32_85
*896 FILLER_32_97
*897 FILLER_33_109
*898 FILLER_33_111
*899 FILLER_33_113
*900 FILLER_33_125
*901 FILLER_33_137
*902 FILLER_33_139
*903 FILLER_33_141
*904 FILLER_33_15
*905 FILLER_33_153
*906 FILLER_33_165
*907 FILLER_33_167
*908 FILLER_33_169
*909 FILLER_33_181
*910 FILLER_33_193
*911 FILLER_33_195
*912 FILLER_33_197
*913 FILLER_33_209
*914 FILLER_33_221
*915 FILLER_33_27
*916 FILLER_33_29
*917 FILLER_33_3
*918 FILLER_33_41
*919 FILLER_33_53
*920 FILLER_33_55
*921 FILLER_33_57
*922 FILLER_33_69
*923 FILLER_33_81
*924 FILLER_33_83
*925 FILLER_33_85
*926 FILLER_33_97
*927 FILLER_3_101
*928 FILLER_3_109
*929 FILLER_3_11
*930 FILLER_3_111
*931 FILLER_3_113
*932 FILLER_3_125
*933 FILLER_3_137
*934 FILLER_3_149
*935 FILLER_3_161
*936 FILLER_3_165
*937 FILLER_3_167
*938 FILLER_3_169
*939 FILLER_3_181
*940 FILLER_3_193
*941 FILLER_3_205
*942 FILLER_3_217
*943 FILLER_3_221
*944 FILLER_3_24
*945 FILLER_3_3
*946 FILLER_3_40
*947 FILLER_3_42
*948 FILLER_3_55
*949 FILLER_3_73
*950 FILLER_3_77
*951 FILLER_3_86
*952 FILLER_3_94
*953 FILLER_4_129
*954 FILLER_4_137
*955 FILLER_4_139
*956 FILLER_4_141
*957 FILLER_4_15
*958 FILLER_4_159
*959 FILLER_4_171
*960 FILLER_4_183
*961 FILLER_4_195
*962 FILLER_4_197
*963 FILLER_4_209
*964 FILLER_4_221
*965 FILLER_4_3
*966 FILLER_4_41
*967 FILLER_4_45
*968 FILLER_4_49
*969 FILLER_4_57
*970 FILLER_4_64
*971 FILLER_4_77
*972 FILLER_4_81
*973 FILLER_4_83
*974 FILLER_4_85
*975 FILLER_4_97
*976 FILLER_5_15
*977 FILLER_5_166
*978 FILLER_5_169
*979 FILLER_5_173
*980 FILLER_5_175
*981 FILLER_5_196
*982 FILLER_5_208
*983 FILLER_5_220
*984 FILLER_5_222
*985 FILLER_5_3
*986 FILLER_5_37
*987 FILLER_5_45
*988 FILLER_5_55
*989 FILLER_5_65
*990 FILLER_5_67
*991 FILLER_5_91
*992 FILLER_6_150
*993 FILLER_6_152
*994 FILLER_6_193
*995 FILLER_6_195
*996 FILLER_6_205
*997 FILLER_6_217
*998 FILLER_6_221
*999 FILLER_6_3
*1000 FILLER_6_33
*1001 FILLER_6_45
*1002 FILLER_6_7
*1003 FILLER_6_78
*1004 FILLER_6_82
*1005 FILLER_6_85
*1006 FILLER_7_102
*1007 FILLER_7_15
*1008 FILLER_7_155
*1009 FILLER_7_178
*1010 FILLER_7_182
*1011 FILLER_7_212
*1012 FILLER_7_3
*1013 FILLER_7_41
*1014 FILLER_7_53
*1015 FILLER_7_55
*1016 FILLER_7_61
*1017 FILLER_8_124
*1018 FILLER_8_131
*1019 FILLER_8_139
*1020 FILLER_8_144
*1021 FILLER_8_146
*1022 FILLER_8_161
*1023 FILLER_8_190
*1024 FILLER_8_194
*1025 FILLER_8_220
*1026 FILLER_8_222
*1027 FILLER_8_23
*1028 FILLER_8_27
*1029 FILLER_8_49
*1030 FILLER_8_53
*1031 FILLER_8_62
*1032 FILLER_8_64
*1033 FILLER_8_71
*1034 FILLER_8_81
*1035 FILLER_8_83
*1036 FILLER_8_99
*1037 FILLER_9_10
*1038 FILLER_9_141
*1039 FILLER_9_208
*1040 FILLER_9_21
*1041 FILLER_9_220
*1042 FILLER_9_222
*1043 FILLER_9_54
*1044 FILLER_9_6
*1045 PHY_EDGE_ROW_0_Left_34
*1046 PHY_EDGE_ROW_0_Right_0
*1047 PHY_EDGE_ROW_10_Left_44
*1048 PHY_EDGE_ROW_10_Right_10
*1049 PHY_EDGE_ROW_11_Left_45
*1050 PHY_EDGE_ROW_11_Right_11
*1051 PHY_EDGE_ROW_12_Left_46
*1052 PHY_EDGE_ROW_12_Right_12
*1053 PHY_EDGE_ROW_13_Left_47
*1054 PHY_EDGE_ROW_13_Right_13
*1055 PHY_EDGE_ROW_14_Left_48
*1056 PHY_EDGE_ROW_14_Right_14
*1057 PHY_EDGE_ROW_15_Left_49
*1058 PHY_EDGE_ROW_15_Right_15
*1059 PHY_EDGE_ROW_16_Left_50
*1060 PHY_EDGE_ROW_16_Right_16
*1061 PHY_EDGE_ROW_17_Left_51
*1062 PHY_EDGE_ROW_17_Right_17
*1063 PHY_EDGE_ROW_18_Left_52
*1064 PHY_EDGE_ROW_18_Right_18
*1065 PHY_EDGE_ROW_19_Left_53
*1066 PHY_EDGE_ROW_19_Right_19
*1067 PHY_EDGE_ROW_1_Left_35
*1068 PHY_EDGE_ROW_1_Right_1
*1069 PHY_EDGE_ROW_20_Left_54
*1070 PHY_EDGE_ROW_20_Right_20
*1071 PHY_EDGE_ROW_21_Left_55
*1072 PHY_EDGE_ROW_21_Right_21
*1073 PHY_EDGE_ROW_22_Left_56
*1074 PHY_EDGE_ROW_22_Right_22
*1075 PHY_EDGE_ROW_23_Left_57
*1076 PHY_EDGE_ROW_23_Right_23
*1077 PHY_EDGE_ROW_24_Left_58
*1078 PHY_EDGE_ROW_24_Right_24
*1079 PHY_EDGE_ROW_25_Left_59
*1080 PHY_EDGE_ROW_25_Right_25
*1081 PHY_EDGE_ROW_26_Left_60
*1082 PHY_EDGE_ROW_26_Right_26
*1083 PHY_EDGE_ROW_27_Left_61
*1084 PHY_EDGE_ROW_27_Right_27
*1085 PHY_EDGE_ROW_28_Left_62
*1086 PHY_EDGE_ROW_28_Right_28
*1087 PHY_EDGE_ROW_29_Left_63
*1088 PHY_EDGE_ROW_29_Right_29
*1089 PHY_EDGE_ROW_2_Left_36
*1090 PHY_EDGE_ROW_2_Right_2
*1091 PHY_EDGE_ROW_30_Left_64
*1092 PHY_EDGE_ROW_30_Right_30
*1093 PHY_EDGE_ROW_31_Left_65
*1094 PHY_EDGE_ROW_31_Right_31
*1095 PHY_EDGE_ROW_32_Left_66
*1096 PHY_EDGE_ROW_32_Right_32
*1097 PHY_EDGE_ROW_33_Left_67
*1098 PHY_EDGE_ROW_33_Right_33
*1099 PHY_EDGE_ROW_3_Left_37
*1100 PHY_EDGE_ROW_3_Right_3
*1101 PHY_EDGE_ROW_4_Left_38
*1102 PHY_EDGE_ROW_4_Right_4
*1103 PHY_EDGE_ROW_5_Left_39
*1104 PHY_EDGE_ROW_5_Right_5
*1105 PHY_EDGE_ROW_6_Left_40
*1106 PHY_EDGE_ROW_6_Right_6
*1107 PHY_EDGE_ROW_7_Left_41
*1108 PHY_EDGE_ROW_7_Right_7
*1109 PHY_EDGE_ROW_8_Left_42
*1110 PHY_EDGE_ROW_8_Right_8
*1111 PHY_EDGE_ROW_9_Left_43
*1112 PHY_EDGE_ROW_9_Right_9
*1113 TAP_TAPCELL_ROW_0_68
*1114 TAP_TAPCELL_ROW_0_69
*1115 TAP_TAPCELL_ROW_0_70
*1116 TAP_TAPCELL_ROW_0_71
*1117 TAP_TAPCELL_ROW_0_72
*1118 TAP_TAPCELL_ROW_0_73
*1119 TAP_TAPCELL_ROW_0_74
*1120 TAP_TAPCELL_ROW_10_106
*1121 TAP_TAPCELL_ROW_10_107
*1122 TAP_TAPCELL_ROW_10_108
*1123 TAP_TAPCELL_ROW_10_109
*1124 TAP_TAPCELL_ROW_11_110
*1125 TAP_TAPCELL_ROW_11_111
*1126 TAP_TAPCELL_ROW_11_112
*1127 TAP_TAPCELL_ROW_12_113
*1128 TAP_TAPCELL_ROW_12_114
*1129 TAP_TAPCELL_ROW_12_115
*1130 TAP_TAPCELL_ROW_12_116
*1131 TAP_TAPCELL_ROW_13_117
*1132 TAP_TAPCELL_ROW_13_118
*1133 TAP_TAPCELL_ROW_13_119
*1134 TAP_TAPCELL_ROW_14_120
*1135 TAP_TAPCELL_ROW_14_121
*1136 TAP_TAPCELL_ROW_14_122
*1137 TAP_TAPCELL_ROW_14_123
*1138 TAP_TAPCELL_ROW_15_124
*1139 TAP_TAPCELL_ROW_15_125
*1140 TAP_TAPCELL_ROW_15_126
*1141 TAP_TAPCELL_ROW_16_127
*1142 TAP_TAPCELL_ROW_16_128
*1143 TAP_TAPCELL_ROW_16_129
*1144 TAP_TAPCELL_ROW_16_130
*1145 TAP_TAPCELL_ROW_17_131
*1146 TAP_TAPCELL_ROW_17_132
*1147 TAP_TAPCELL_ROW_17_133
*1148 TAP_TAPCELL_ROW_18_134
*1149 TAP_TAPCELL_ROW_18_135
*1150 TAP_TAPCELL_ROW_18_136
*1151 TAP_TAPCELL_ROW_18_137
*1152 TAP_TAPCELL_ROW_19_138
*1153 TAP_TAPCELL_ROW_19_139
*1154 TAP_TAPCELL_ROW_19_140
*1155 TAP_TAPCELL_ROW_1_75
*1156 TAP_TAPCELL_ROW_1_76
*1157 TAP_TAPCELL_ROW_1_77
*1158 TAP_TAPCELL_ROW_20_141
*1159 TAP_TAPCELL_ROW_20_142
*1160 TAP_TAPCELL_ROW_20_143
*1161 TAP_TAPCELL_ROW_20_144
*1162 TAP_TAPCELL_ROW_21_145
*1163 TAP_TAPCELL_ROW_21_146
*1164 TAP_TAPCELL_ROW_21_147
*1165 TAP_TAPCELL_ROW_22_148
*1166 TAP_TAPCELL_ROW_22_149
*1167 TAP_TAPCELL_ROW_22_150
*1168 TAP_TAPCELL_ROW_22_151
*1169 TAP_TAPCELL_ROW_23_152
*1170 TAP_TAPCELL_ROW_23_153
*1171 TAP_TAPCELL_ROW_23_154
*1172 TAP_TAPCELL_ROW_24_155
*1173 TAP_TAPCELL_ROW_24_156
*1174 TAP_TAPCELL_ROW_24_157
*1175 TAP_TAPCELL_ROW_24_158
*1176 TAP_TAPCELL_ROW_25_159
*1177 TAP_TAPCELL_ROW_25_160
*1178 TAP_TAPCELL_ROW_25_161
*1179 TAP_TAPCELL_ROW_26_162
*1180 TAP_TAPCELL_ROW_26_163
*1181 TAP_TAPCELL_ROW_26_164
*1182 TAP_TAPCELL_ROW_26_165
*1183 TAP_TAPCELL_ROW_27_166
*1184 TAP_TAPCELL_ROW_27_167
*1185 TAP_TAPCELL_ROW_27_168
*1186 TAP_TAPCELL_ROW_28_169
*1187 TAP_TAPCELL_ROW_28_170
*1188 TAP_TAPCELL_ROW_28_171
*1189 TAP_TAPCELL_ROW_28_172
*1190 TAP_TAPCELL_ROW_29_173
*1191 TAP_TAPCELL_ROW_29_174
*1192 TAP_TAPCELL_ROW_29_175
*1193 TAP_TAPCELL_ROW_2_78
*1194 TAP_TAPCELL_ROW_2_79
*1195 TAP_TAPCELL_ROW_2_80
*1196 TAP_TAPCELL_ROW_2_81
*1197 TAP_TAPCELL_ROW_30_176
*1198 TAP_TAPCELL_ROW_30_177
*1199 TAP_TAPCELL_ROW_30_178
*1200 TAP_TAPCELL_ROW_30_179
*1201 TAP_TAPCELL_ROW_31_180
*1202 TAP_TAPCELL_ROW_31_181
*1203 TAP_TAPCELL_ROW_31_182
*1204 TAP_TAPCELL_ROW_32_183
*1205 TAP_TAPCELL_ROW_32_184
*1206 TAP_TAPCELL_ROW_32_185
*1207 TAP_TAPCELL_ROW_32_186
*1208 TAP_TAPCELL_ROW_33_187
*1209 TAP_TAPCELL_ROW_33_188
*1210 TAP_TAPCELL_ROW_33_189
*1211 TAP_TAPCELL_ROW_33_190
*1212 TAP_TAPCELL_ROW_33_191
*1213 TAP_TAPCELL_ROW_33_192
*1214 TAP_TAPCELL_ROW_33_193
*1215 TAP_TAPCELL_ROW_3_82
*1216 TAP_TAPCELL_ROW_3_83
*1217 TAP_TAPCELL_ROW_3_84
*1218 TAP_TAPCELL_ROW_4_85
*1219 TAP_TAPCELL_ROW_4_86
*1220 TAP_TAPCELL_ROW_4_87
*1221 TAP_TAPCELL_ROW_4_88
*1222 TAP_TAPCELL_ROW_5_89
*1223 TAP_TAPCELL_ROW_5_90
*1224 TAP_TAPCELL_ROW_5_91
*1225 TAP_TAPCELL_ROW_6_92
*1226 TAP_TAPCELL_ROW_6_93
*1227 TAP_TAPCELL_ROW_6_94
*1228 TAP_TAPCELL_ROW_6_95
*1229 TAP_TAPCELL_ROW_7_96
*1230 TAP_TAPCELL_ROW_7_97
*1231 TAP_TAPCELL_ROW_7_98
*1232 TAP_TAPCELL_ROW_8_100
*1233 TAP_TAPCELL_ROW_8_101
*1234 TAP_TAPCELL_ROW_8_102
*1235 TAP_TAPCELL_ROW_8_99
*1236 TAP_TAPCELL_ROW_9_103
*1237 TAP_TAPCELL_ROW_9_104
*1238 TAP_TAPCELL_ROW_9_105
*1239 _166_
*1240 _167_
*1241 _168_
*1242 _169_
*1243 _170_
*1244 _171_
*1245 _172_
*1246 _173_
*1247 _174_
*1248 _175_
*1249 _176_
*1250 _177_
*1251 _178_
*1252 _179_
*1253 _180_
*1254 _181_
*1255 _182_
*1256 _183_
*1257 _184_
*1258 _185_
*1259 _186_
*1260 _187_
*1261 _188_
*1262 _189_
*1263 _190_
*1264 _191_
*1265 _192_
*1266 _193_
*1267 _194_
*1268 _195_
*1269 _196_
*1270 _197_
*1271 _198_
*1272 _199_
*1273 _200_
*1274 _201_
*1275 _202_
*1276 _203_
*1277 _204_
*1278 _205_
*1279 _206_
*1280 _207_
*1281 _208_
*1282 _209_
*1283 _210_
*1284 _211_
*1285 _212_
*1286 _213_
*1287 _214_
*1288 _215_
*1289 _216_
*1290 _217_
*1291 _218_
*1292 _219_
*1293 _220_
*1294 _221_
*1295 _222_
*1296 _223_
*1297 _224_
*1298 _225_
*1299 _226_
*1300 _227_
*1301 _228_
*1302 _229_
*1303 _230_
*1304 _231_
*1305 _232_
*1306 _233_
*1307 _234_
*1308 _235_
*1309 _236_
*1310 _237_
*1311 _238_
*1312 _239_
*1313 _240_
*1314 _241_
*1315 _242_
*1316 _243_
*1317 _244_
*1318 _245_
*1319 _246_
*1320 _247_
*1321 _248_
*1322 _249_
*1323 _250_
*1324 _251_
*1325 _252_
*1326 _253_
*1327 _254_
*1328 _255_
*1329 _256_
*1330 _257_
*1331 _258_
*1332 _259_
*1333 _260_
*1334 _261_
*1335 _262_
*1336 _263_
*1337 _264_
*1338 _265_
*1339 _266_
*1340 _267_
*1341 _268_
*1342 _269_
*1343 _270_
*1344 _271_
*1345 _272_
*1346 _273_
*1347 _274_
*1348 _275_
*1349 _276_
*1350 _277_
*1351 _278_
*1352 _279_
*1353 _280_
*1354 _281_
*1355 _282_
*1356 _283_
*1357 _284_
*1358 _285_
*1359 _286_
*1360 _287_
*1361 _288_
*1362 _289_
*1363 _290_
*1364 _291_
*1365 _292_
*1366 _293_
*1367 _294_
*1368 _295_
*1369 _296_
*1370 _297_
*1371 _298_
*1372 _299_
*1373 _300_
*1374 _301_
*1375 _302_
*1376 _303_
*1377 _304_
*1378 _305_
*1379 _306_
*1380 _307_
*1381 _308_
*1382 _309_
*1383 _310_
*1384 _311_
*1385 _312_
*1386 _313_
*1387 _314_
*1388 _315_
*1389 _316_
*1390 _317_
*1391 _318_
*1392 _319_
*1393 _320_
*1394 _321_
*1395 _322_
*1396 _323_
*1397 _324_
*1398 _325_
*1399 _326_
*1400 _327_
*1401 _328_
*1402 _329_
*1403 _330_
*1404 _331_
*1405 _332_
*1406 _333_
*1407 _334_
*1408 _335_
*1409 _336_
*1410 _337_
*1411 _338_
*1412 _339_
*1413 _340_
*1414 _341_
*1415 _342_
*1416 _343_
*1417 _344_
*1418 _345_
*1419 _346_
*1420 _347_
*1421 _348_
*1422 _349_
*1423 _350_
*1424 _351_
*1425 _352_
*1426 _353_
*1427 _354_
*1428 _355_
*1429 _356_
*1430 _357_
*1431 _358_
*1432 _359_
*1433 _360_
*1434 _361_
*1435 _362_
*1436 _363_
*1437 _364_
*1438 _365_
*1439 _366_
*1440 _367_
*1441 _368_
*1442 _369_
*1443 _370_
*1444 _371_
*1445 _372_
*1446 _373_
*1447 _374_
*1448 _375_
*1449 _376_
*1450 _377_
*1451 _378_
*1452 _379_
*1453 _380_
*1454 _381_
*1455 _382_
*1456 _383_
*1457 _384_
*1458 _385_
*1459 _386_
*1460 _387_
*1461 _388_
*1462 _389_
*1463 _390_
*1464 _391_
*1465 _392_
*1466 clkbuf_0_clk_i
*1467 clkbuf_3_0__f_clk_i
*1468 clkbuf_3_1__f_clk_i
*1469 clkbuf_3_2__f_clk_i
*1470 clkbuf_3_3__f_clk_i
*1471 clkbuf_3_4__f_clk_i
*1472 clkbuf_3_5__f_clk_i
*1473 clkbuf_3_6__f_clk_i
*1474 clkbuf_3_7__f_clk_i
*1475 clkload0
*1476 clkload1
*1477 clkload2
*1478 clkload3
*1479 clkload4
*1480 clkload5
*1481 clkload6
*1482 fanout10
*1483 fanout11
*1484 fanout12
*1485 fanout13
*1486 fanout14
*1487 fanout15
*1488 fanout16
*1489 fanout17
*1490 fanout18
*1491 fanout19
*1492 fanout20
*1493 fanout21
*1494 fanout22
*1495 fanout23
*1496 fanout24
*1497 fanout25
*1498 fanout26
*1499 fanout27
*1500 fanout7
*1501 fanout8
*1502 fanout9
*1503 hold1
*1504 hold10
*1505 hold11
*1506 hold12
*1507 hold13
*1508 hold14
*1509 hold15
*1510 hold16
*1511 hold17
*1512 hold18
*1513 hold19
*1514 hold2
*1515 hold20
*1516 hold21
*1517 hold22
*1518 hold23
*1519 hold24
*1520 hold25
*1521 hold26
*1522 hold27
*1523 hold28
*1524 hold29
*1525 hold3
*1526 hold30
*1527 hold31
*1528 hold32
*1529 hold33
*1530 hold34
*1531 hold35
*1532 hold36
*1533 hold37
*1534 hold38
*1535 hold39
*1536 hold4
*1537 hold40
*1538 hold41
*1539 hold42
*1540 hold43
*1541 hold44
*1542 hold45
*1543 hold46
*1544 hold47
*1545 hold48
*1546 hold49
*1547 hold5
*1548 hold50
*1549 hold51
*1550 hold52
*1551 hold53
*1552 hold54
*1553 hold55
*1554 hold56
*1555 hold57
*1556 hold58
*1557 hold59
*1558 hold6
*1559 hold60
*1560 hold61
*1561 hold62
*1562 hold63
*1563 hold64
*1564 hold65
*1565 hold66
*1566 hold67
*1567 hold68
*1568 hold69
*1569 hold7
*1570 hold8
*1571 hold9
*1572 input1
*1573 input2
*1574 input3
*1575 output4
*1576 output5
*1577 output6

*PORTS
clk_i I
num_to_send_o[0] O
num_to_send_o[1] O
num_to_send_o[2] O
req_num_i I
rst_i I
wr_i I

*D_NET *3 0.0120922
*CONN
*P clk_i I
*I *1466:A I *D sky130_fd_sc_hd__clkbuf_16
*CAP
1 clk_i 0.00218381
2 *1466:A 0
3 *3:21 0.00176641
4 *3:15 0.00395023
5 *3:15 num_to_send_o[0] 0
6 *3:15 num_to_send_o[1] 0
7 *3:15 num_to_send_o[2] 0
8 *3:21 num_to_send_o[2] 0.000319676
9 *3:21 *1282:A 9.83442e-05
10 *3:21 *1297:B 0.000216862
11 *3:21 *1370:A0 0.000229456
12 *3:21 *1370:A1 0.000465411
13 *3:21 *1373:A1 0.000274294
14 *3:21 *1381:A1 0.000703898
15 *3:21 *1381:S 0.000167885
16 *3:21 *1441:CLK 9.90367e-05
17 *3:21 *1441:D 5.23057e-05
18 *3:21 *1576:A 5.62995e-05
19 *3:21 *109:18 0.000244431
20 *3:21 *198:10 5.33005e-05
21 *3:21 *229:19 0.000334542
22 *3:21 *229:36 0.000209297
23 *3:21 *245:12 5.71472e-05
24 *3:21 *262:28 0.000252529
25 *3:21 *301:16 0.000357054
*RES
1 clk_i *3:15 47.1331 
2 *3:15 *3:21 45.75 
3 *3:21 *1466:A 9.3 
*END

*D_NET *4 0.00072676
*CONN
*P num_to_send_o[0] O
*I *1575:X O *D sky130_fd_sc_hd__buf_2
*CAP
1 num_to_send_o[0] 0.000345061
2 *1575:X 0.000345061
3 num_to_send_o[0] num_to_send_o[1] 2.25951e-05
4 num_to_send_o[0] *1437:CLK 1.40415e-05
5 *3:15 num_to_send_o[0] 0
*RES
1 *1575:X num_to_send_o[0] 20.891 
*END

*D_NET *5 0.000642678
*CONN
*P num_to_send_o[1] O
*I *1576:X O *D sky130_fd_sc_hd__buf_2
*CAP
1 num_to_send_o[1] 0.000285274
2 *1576:X 0.000285274
3 num_to_send_o[1] num_to_send_o[2] 4.95345e-05
4 num_to_send_o[0] num_to_send_o[1] 2.25951e-05
5 *3:15 num_to_send_o[1] 0
*RES
1 *1576:X num_to_send_o[1] 20.891 
*END

*D_NET *6 0.000846548
*CONN
*P num_to_send_o[2] O
*I *1577:X O *D sky130_fd_sc_hd__buf_2
*CAP
1 num_to_send_o[2] 0.000238669
2 *1577:X 0.000238669
3 num_to_send_o[1] num_to_send_o[2] 4.95345e-05
4 *3:15 num_to_send_o[2] 0
5 *3:21 num_to_send_o[2] 0.000319676
*RES
1 *1577:X num_to_send_o[2] 20.891 
*END

*D_NET *7 0.000941071
*CONN
*P req_num_i I
*I *1572:A I *D sky130_fd_sc_hd__clkbuf_1
*CAP
1 req_num_i 0.000470535
2 *1572:A 0.000470535
*RES
1 req_num_i *1572:A 22.6571 
*END

*D_NET *8 0.00044186
*CONN
*P rst_i I
*I *1573:A I *D sky130_fd_sc_hd__clkbuf_1
*CAP
1 rst_i 0.00022093
2 *1573:A 0.00022093
3 *1573:A *1511:A 0
*RES
1 rst_i *1573:A 18.4264 
*END

*D_NET *9 0.000938731
*CONN
*P wr_i I
*I *1574:A I *D sky130_fd_sc_hd__clkbuf_1
*CAP
1 wr_i 0.000354664
2 *1574:A 0.000354664
3 *1574:A *1429:D 4.15914e-05
4 *1574:A *1442:CLK 0.000187812
*RES
1 wr_i *1574:A 20.8556 
*END

*D_NET *10 0.00178544
*CONN
*I *1465:D I *D sky130_fd_sc_hd__dfrtp_1
*I *1321:X O *D sky130_fd_sc_hd__and2b_1
*CAP
1 *1465:D 0.000384728
2 *1321:X 0.000384728
3 *1465:D *1321:A_N 7.61932e-05
4 *1465:D *1321:B 5.71472e-05
5 *1465:D *1435:RESET_B 0.000114759
6 *1465:D *1465:CLK 8.54718e-05
7 *1465:D *1491:A 7.60306e-05
8 *1465:D *193:102 8.86129e-06
9 *1465:D *197:51 0.000328655
10 *1465:D *198:32 0.000218741
11 *1465:D *281:33 0
12 *1465:D *301:10 5.01213e-05
*RES
1 *1321:X *1465:D 38.1045 
*END

*D_NET *11 0.00218201
*CONN
*I *1323:B I *D sky130_fd_sc_hd__nand2_1
*I *1322:B I *D sky130_fd_sc_hd__or2_1
*I *1412:D I *D sky130_fd_sc_hd__dfrtp_2
*I *1249:Y O *D sky130_fd_sc_hd__inv_2
*CAP
1 *1323:B 0
2 *1322:B 1.22537e-05
3 *1412:D 0.000543745
4 *1249:Y 0
5 *11:29 0.00027007
6 *11:6 0.000801561
7 *1322:B *1322:A 5.52238e-05
8 *1322:B *1324:B 2.28499e-05
9 *1412:D *1412:RESET_B 2.81497e-05
10 *1412:D *288:10 3.67142e-05
11 *11:29 *1322:A 2.42554e-05
12 *11:29 *1324:B 5.33005e-05
13 *11:29 *1351:A 0.00010884
14 *11:29 *1352:A2 8.11307e-05
15 *11:29 *1412:RESET_B 0
16 *11:29 *148:21 1.5424e-05
17 *11:29 *197:93 0
18 *11:29 *288:10 0
19 *11:29 *289:10 3.4323e-05
20 *11:29 *289:21 5.33005e-05
21 *11:29 *289:28 4.08637e-05
22 *11:29 *289:34 0
*RES
1 *1249:Y *11:6 13.8 
2 *11:6 *1412:D 23.2643 
3 *11:6 *11:29 10.1071 
4 *11:29 *1322:B 9.83571 
5 *11:29 *1323:B 9.3 
*END

*D_NET *12 0.000869256
*CONN
*I *1413:D I *D sky130_fd_sc_hd__dfrtp_2
*I *1324:Y O *D sky130_fd_sc_hd__nand2_1
*CAP
1 *1413:D 0.000421798
2 *1324:Y 0.000421798
3 *1413:D *147:29 2.56601e-05
4 *1413:D *197:93 0
*RES
1 *1324:Y *1413:D 33.8679 
*END

*D_NET *13 0.000979464
*CONN
*I *1516:A I *D sky130_fd_sc_hd__dlygate4sd3_1
*I *1326:X O *D sky130_fd_sc_hd__mux2_1
*CAP
1 *1516:A 0.00017473
2 *1326:X 0.00017473
3 *1516:A *1245:A 3.06376e-05
4 *1516:A *1326:A1 5.52302e-05
5 *1516:A *1394:A1 0.000140933
6 *1516:A *1478:A 2.89114e-05
7 *1516:A *181:14 2.32517e-05
8 *1516:A *181:18 2.07382e-05
9 *1516:A *201:62 2.11419e-05
10 *1516:A *201:78 0.000139157
11 *1516:A *324:6 9.90431e-05
12 *1516:A *324:19 7.09608e-05
*RES
1 *1326:X *1516:A 33.0464 
*END

*D_NET *14 0.00136029
*CONN
*I *1407:D I *D sky130_fd_sc_hd__dfrtp_1
*I *1327:X O *D sky130_fd_sc_hd__mux2_1
*CAP
1 *1407:D 0.000330775
2 *1327:X 0.000330775
3 *1407:D *176:28 0.000125724
4 *1407:D *197:51 0.000445577
5 *1407:D *281:33 0.000127439
*RES
1 *1327:X *1407:D 33.475 
*END

*D_NET *15 0.000862451
*CONN
*I *1521:A I *D sky130_fd_sc_hd__dlygate4sd3_1
*I *1328:X O *D sky130_fd_sc_hd__mux2_1
*CAP
1 *1521:A 0.000290942
2 *1328:X 0.000290942
3 *1521:A *1284:A 3.18676e-05
4 *1521:A *1286:B2 2.32517e-05
5 *1521:A *1492:A 0
6 *1521:A *197:12 0.000123903
7 *1521:A *197:24 0.000101545
8 *1521:A *281:23 0
*RES
1 *1328:X *1521:A 33.0286 
*END

*D_NET *16 0.000673565
*CONN
*I *1409:D I *D sky130_fd_sc_hd__dfrtp_4
*I *1341:X O *D sky130_fd_sc_hd__o32a_1
*CAP
1 *1409:D 0.000248462
2 *1341:X 0.000248462
3 *1409:D *1341:A2 0.000144773
4 *1409:D *1341:A3 3.18676e-05
5 *1409:D *1459:CLK 0
6 *1409:D *146:78 0
*RES
1 *1341:X *1409:D 31.4214 
*END

*D_NET *17 0.000535671
*CONN
*I *1410:D I *D sky130_fd_sc_hd__dfrtp_1
*I *1348:X O *D sky130_fd_sc_hd__o2bb2a_1
*CAP
1 *1410:D 0.000178714
2 *1348:X 0.000178714
3 *1410:D *1347:A3 5.71472e-05
4 *1410:D *1348:A2_N 1.02504e-05
5 *1410:D *1348:B2 3.15739e-05
6 *1410:D *1410:CLK 7.48091e-05
7 *1410:D *146:88 4.46186e-06
*RES
1 *1348:X *1410:D 30.8321 
*END

*D_NET *18 0.000657203
*CONN
*I *1411:D I *D sky130_fd_sc_hd__dfrtp_1
*I *1355:X O *D sky130_fd_sc_hd__o2bb2a_1
*CAP
1 *1411:D 0.000305584
2 *1355:X 0.000305584
3 *1411:D *1355:A2_N 1.02504e-05
4 *1411:D *1355:B2 0
5 *1411:D *197:93 3.57844e-05
*RES
1 *1355:X *1411:D 32.9571 
*END

*D_NET *19 0.000119455
*CONN
*I *1537:A I *D sky130_fd_sc_hd__dlygate4sd3_1
*I *1356:X O *D sky130_fd_sc_hd__mux2_1
*CAP
1 *1537:A 4.83569e-05
2 *1356:X 4.83569e-05
3 *1537:A *1356:A0 2.27416e-05
*RES
1 *1356:X *1537:A 19.5643 
*END

*D_NET *20 0.000332272
*CONN
*I *1415:D I *D sky130_fd_sc_hd__dfrtp_1
*I *1357:X O *D sky130_fd_sc_hd__mux2_1
*CAP
1 *1415:D 0.000113816
2 *1357:X 0.000113816
3 *1415:D *1357:A1 0
4 *1415:D *1363:A0 2.45592e-05
5 *1415:D *184:88 8.00806e-05
*RES
1 *1357:X *1415:D 29.4973 
*END

*D_NET *21 0.0016858
*CONN
*I *1523:A I *D sky130_fd_sc_hd__dlygate4sd3_1
*I *1358:X O *D sky130_fd_sc_hd__mux2_1
*CAP
1 *1523:A 0.000176218
2 *1358:X 0.000176218
3 *1523:A *1241:A 0.000218026
4 *1523:A *1264:A 1.21289e-05
5 *1523:A *1266:B2 0.000123295
6 *1523:A *1455:CLK 0.00018077
7 *1523:A *187:52 0.000577016
8 *1523:A *192:106 5.59013e-05
9 *1523:A *192:117 2.14378e-05
10 *1523:A *316:38 0.000144788
*RES
1 *1358:X *1523:A 35.9214 
*END

*D_NET *22 0.0021462
*CONN
*I *1556:A I *D sky130_fd_sc_hd__dlygate4sd3_1
*I *1359:X O *D sky130_fd_sc_hd__mux2_1
*CAP
1 *1556:A 0.000410168
2 *1359:X 0.000410168
3 *1556:A *1359:A1 0.000137635
4 *1556:A *1452:CLK 5.52302e-05
5 *1556:A *1452:RESET_B 2.0714e-05
6 *1556:A *1511:A 0.000320024
7 *1556:A *201:20 0.000101967
8 *1556:A *201:32 7.32272e-05
9 *1556:A *334:8 0.000617066
*RES
1 *1359:X *1556:A 32.7071 
*END

*D_NET *23 0.000343407
*CONN
*I *1418:D I *D sky130_fd_sc_hd__dfrtp_1
*I *1360:X O *D sky130_fd_sc_hd__mux2_1
*CAP
1 *1418:D 0.000171704
2 *1360:X 0.000171704
*RES
1 *1360:X *1418:D 21.2071 
*END

*D_NET *24 0.00125273
*CONN
*I *1419:D I *D sky130_fd_sc_hd__dfrtp_1
*I *1361:X O *D sky130_fd_sc_hd__mux2_1
*CAP
1 *1419:D 0.000411981
2 *1361:X 0.000411981
3 *1419:D *1361:A1 0.000428771
*RES
1 *1361:X *1419:D 34.2964 
*END

*D_NET *25 0.00124383
*CONN
*I *1554:A I *D sky130_fd_sc_hd__dlygate4sd3_1
*I *1362:X O *D sky130_fd_sc_hd__mux2_1
*CAP
1 *1554:A 0.00036598
2 *1362:X 0.00036598
3 *1554:A *1362:S 0.000135028
4 *1554:A *1390:A1 0
5 *1554:A *1420:RESET_B 4.90803e-05
6 *1554:A *186:74 0.000140933
7 *1554:A *186:98 0.000110189
8 *1554:A *202:53 7.6644e-05
*RES
1 *1362:X *1554:A 34.2607 
*END

*D_NET *26 0.00110278
*CONN
*I *1542:A I *D sky130_fd_sc_hd__dlygate4sd3_1
*I *1363:X O *D sky130_fd_sc_hd__mux2_1
*CAP
1 *1542:A 0.00034041
2 *1363:X 0.00034041
3 *1542:A *1389:A0 0
4 *1542:A *1390:A1 0.000293742
5 *1542:A *1508:A 0.000128214
*RES
1 *1363:X *1542:A 35.0821 
*END

*D_NET *27 0.000777973
*CONN
*I *1422:D I *D sky130_fd_sc_hd__dfrtp_1
*I *1364:X O *D sky130_fd_sc_hd__mux2_1
*CAP
1 *1422:D 0.000150398
2 *1364:X 0.000150398
3 *1422:D *1312:A2_N 0
4 *1422:D *1316:C1 0
5 *1422:D *1482:A 0.00015105
6 *1422:D *1524:A 0.000175502
7 *1422:D *195:56 0.000150625
*RES
1 *1364:X *1422:D 32.5464 
*END

*D_NET *28 0.000396071
*CONN
*I *1423:D I *D sky130_fd_sc_hd__dfrtp_1
*I *1365:X O *D sky130_fd_sc_hd__mux2_1
*CAP
1 *1423:D 0.000142931
2 *1365:X 0.000142931
3 *1423:D *1257:B1 0
4 *1423:D *1425:RESET_B 0
5 *1423:D *176:86 0.00010096
6 *1423:D *183:16 9.25014e-06
*RES
1 *1365:X *1423:D 29.8857 
*END

*D_NET *29 0.00088944
*CONN
*I *1544:A I *D sky130_fd_sc_hd__dlygate4sd3_1
*I *1366:X O *D sky130_fd_sc_hd__mux2_1
*CAP
1 *1544:A 0.000350427
2 *1366:X 0.000350427
3 *1544:A *1389:A1 0.000188586
4 *1544:A *1519:A 0
*RES
1 *1366:X *1544:A 33.4393 
*END

*D_NET *30 0.000527433
*CONN
*I *1425:D I *D sky130_fd_sc_hd__dfrtp_1
*I *1367:X O *D sky130_fd_sc_hd__mux2_1
*CAP
1 *1425:D 0.000115811
2 *1367:X 0.000115811
3 *1425:D *1278:D 0.000100823
4 *1425:D *1367:A1 9.41642e-05
5 *1425:D *190:46 0.000100823
*RES
1 *1367:X *1425:D 29.8857 
*END

*D_NET *31 0.00118564
*CONN
*I *1565:A I *D sky130_fd_sc_hd__dlygate4sd3_1
*I *1368:X O *D sky130_fd_sc_hd__mux2_1
*CAP
1 *1565:A 0.000362028
2 *1368:X 0.000362028
3 *1565:A *1260:A1 0
4 *1565:A *1368:A0 9.60875e-05
5 *1565:A *1564:A 4.3049e-05
6 *1565:A *188:59 0.000322453
7 *1565:A *305:10 0
*RES
1 *1368:X *1565:A 34.2607 
*END

*D_NET *32 0.000590442
*CONN
*I *1527:A I *D sky130_fd_sc_hd__dlygate4sd3_1
*I *1369:X O *D sky130_fd_sc_hd__mux2_1
*CAP
1 *1527:A 0.000153893
2 *1369:X 0.000153893
3 *1527:A *1427:D 5.71472e-05
4 *1527:A *188:59 9.90367e-05
5 *1527:A *194:89 0.000126472
*RES
1 *1369:X *1527:A 22.0286 
*END

*D_NET *33 0.000499934
*CONN
*I *1428:D I *D sky130_fd_sc_hd__dfrtp_1
*I *1370:X O *D sky130_fd_sc_hd__mux2_1
*CAP
1 *1428:D 0.000136625
2 *1370:X 0.000136625
3 *1428:D *109:18 0.00010096
4 *1428:D *200:12 0.000125724
*RES
1 *1370:X *1428:D 30.1893 
*END

*D_NET *34 0.00138357
*CONN
*I *1546:A I *D sky130_fd_sc_hd__dlygate4sd3_1
*I *1371:X O *D sky130_fd_sc_hd__mux2_1
*CAP
1 *1546:A 0.000168933
2 *1371:X 0.000168933
3 *1546:A *1260:C1 5.03772e-05
4 *1546:A *1545:A 0.000143625
5 *1546:A *189:61 0.000706531
6 *1546:A *190:81 4.4208e-05
7 *1546:A *257:6 0.00010096
*RES
1 *1371:X *1546:A 25.725 
*END

*D_NET *35 0.000795163
*CONN
*I *1431:D I *D sky130_fd_sc_hd__dfrtp_1
*I *1372:X O *D sky130_fd_sc_hd__mux2_1
*CAP
1 *1431:D 0.000338209
2 *1372:X 0.000338209
3 *1431:D *1431:CLK 4.03855e-05
4 *1431:D *1512:A 7.83587e-05
5 *1431:D *200:64 0
*RES
1 *1372:X *1431:D 32.1045 
*END

*D_NET *36 0.000165632
*CONN
*I *1534:A I *D sky130_fd_sc_hd__dlygate4sd3_1
*I *1373:X O *D sky130_fd_sc_hd__mux2_1
*CAP
1 *1534:A 2.4936e-05
2 *1373:X 2.4936e-05
3 *1534:A *109:18 6.75704e-05
4 *1534:A *262:28 4.81894e-05
*RES
1 *1373:X *1534:A 19.5643 
*END

*D_NET *37 0.000926454
*CONN
*I *1433:D I *D sky130_fd_sc_hd__dfrtp_1
*I *1374:X O *D sky130_fd_sc_hd__mux2_1
*CAP
1 *1433:D 0.000243476
2 *1374:X 0.000243476
3 *1433:D *1433:CLK 4.25622e-05
4 *1433:D *1551:A 0.000125717
5 *1433:D *179:19 2.8266e-06
6 *1433:D *251:29 0.000268396
*RES
1 *1374:X *1433:D 31.8321 
*END

*D_NET *38 0.000862272
*CONN
*I *1434:D I *D sky130_fd_sc_hd__dfrtp_1
*I *1375:X O *D sky130_fd_sc_hd__mux2_1
*CAP
1 *1434:D 0.000352303
2 *1375:X 0.000352303
3 *1434:D *1434:RESET_B 0.000141729
4 *1434:D *179:23 1.59373e-05
5 *1434:D *251:31 0
6 *1434:D *251:87 0
*RES
1 *1375:X *1434:D 33.2607 
*END

*D_NET *39 0.000927862
*CONN
*I *1540:A I *D sky130_fd_sc_hd__dlygate4sd3_1
*I *1376:X O *D sky130_fd_sc_hd__mux2_1
*CAP
1 *1540:A 0.000247234
2 *1376:X 0.000247234
3 *1540:A *1297:B 0.000125731
4 *1540:A *1376:A0 2.44318e-05
5 *1540:A *262:28 0
6 *1540:A *298:21 0.000225616
7 *1540:A *301:16 5.7616e-05
*RES
1 *1376:X *1540:A 31.8321 
*END

*D_NET *40 0.000486181
*CONN
*I *1436:D I *D sky130_fd_sc_hd__dfrtp_1
*I *1377:X O *D sky130_fd_sc_hd__mux2_1
*CAP
1 *1436:D 0.000170704
2 *1377:X 0.000170704
3 *1436:D *1437:CLK 0.000144773
4 *1436:D *179:46 0
5 *1436:D *199:64 0
*RES
1 *1377:X *1436:D 30.2964 
*END

*D_NET *41 0.000312592
*CONN
*I *1437:D I *D sky130_fd_sc_hd__dfrtp_1
*I *1378:X O *D sky130_fd_sc_hd__mux2_1
*CAP
1 *1437:D 0.000127394
2 *1378:X 0.000127394
3 *1437:D *1299:C1 2.89016e-05
4 *1437:D *1375:A1 0
5 *1437:D *1377:A0 2.89016e-05
6 *1437:D *1378:A0 0
7 *1437:D *218:19 0
*RES
1 *1378:X *1437:D 29.7786 
*END

*D_NET *42 0.00099905
*CONN
*I *1550:A I *D sky130_fd_sc_hd__dlygate4sd3_1
*I *1379:X O *D sky130_fd_sc_hd__mux2_1
*CAP
1 *1550:A 0.000353018
2 *1379:X 0.000353018
3 *1550:A *1379:A0 0.000293013
4 *1550:A *262:42 0
*RES
1 *1379:X *1550:A 34.1 
*END

*D_NET *43 0.00047733
*CONN
*I *1440:D I *D sky130_fd_sc_hd__dfrtp_1
*I *1380:X O *D sky130_fd_sc_hd__mux2_1
*CAP
1 *1440:D 0.000238665
2 *1380:X 0.000238665
*RES
1 *1380:X *1440:D 30.7071 
*END

*D_NET *44 0.000460604
*CONN
*I *1441:D I *D sky130_fd_sc_hd__dfrtp_1
*I *1381:X O *D sky130_fd_sc_hd__mux2_1
*CAP
1 *1441:D 0.000177482
2 *1381:X 0.000177482
3 *1441:D *1441:CLK 5.33334e-05
4 *3:21 *1441:D 5.23057e-05
*RES
1 *1381:X *1441:D 21.2071 
*END

*D_NET *45 0.000715117
*CONN
*I *1442:D I *D sky130_fd_sc_hd__dfrtp_1
*I *1382:X O *D sky130_fd_sc_hd__mux2_1
*CAP
1 *1442:D 0.000212594
2 *1382:X 0.000212594
3 *1442:D *1279:A 0.000289928
4 *1442:D *1442:CLK 0
*RES
1 *1382:X *1442:D 31.1179 
*END

*D_NET *46 0.000704373
*CONN
*I *1443:D I *D sky130_fd_sc_hd__dfrtp_1
*I *1383:X O *D sky130_fd_sc_hd__or2_1
*CAP
1 *1443:D 0.000288872
2 *1383:X 0.000288872
3 *1443:D *1444:CLK 0.000126629
4 *1443:D *179:44 0
*RES
1 *1383:X *1443:D 32.0286 
*END

*D_NET *47 0.000578012
*CONN
*I *1444:D I *D sky130_fd_sc_hd__dfrtp_1
*I *1384:X O *D sky130_fd_sc_hd__mux2_1
*CAP
1 *1444:D 0.00024449
2 *1384:X 0.00024449
3 *1444:D *1383:B 8.90314e-05
*RES
1 *1384:X *1444:D 31.1179 
*END

*D_NET *48 0.000885945
*CONN
*I *1445:D I *D sky130_fd_sc_hd__dfrtp_1
*I *1385:X O *D sky130_fd_sc_hd__mux2_1
*CAP
1 *1445:D 0.000265108
2 *1385:X 0.000265108
3 *1445:D *1385:A1 0.000317782
4 *1445:D *1445:CLK 3.79467e-05
*RES
1 *1385:X *1445:D 31.9393 
*END

*D_NET *49 0.000126601
*CONN
*I *1513:A I *D sky130_fd_sc_hd__dlygate4sd3_1
*I *1386:X O *D sky130_fd_sc_hd__mux2_1
*CAP
1 *1513:A 4.73665e-05
2 *1386:X 4.73665e-05
3 *1513:A *1386:S 3.18676e-05
*RES
1 *1386:X *1513:A 19.5643 
*END

*D_NET *50 0.000547044
*CONN
*I *1447:D I *D sky130_fd_sc_hd__dfrtp_1
*I *1387:X O *D sky130_fd_sc_hd__mux2_1
*CAP
1 *1447:D 0.000135576
2 *1387:X 0.000135576
3 *1447:D *1447:CLK 0.000152289
4 *1447:D *1447:RESET_B 0.000123603
*RES
1 *1387:X *1447:D 31.4214 
*END

*D_NET *51 0.000909469
*CONN
*I *1448:D I *D sky130_fd_sc_hd__dfrtp_1
*I *1388:X O *D sky130_fd_sc_hd__mux2_1
*CAP
1 *1448:D 0.00044066
2 *1388:X 0.00044066
3 *1448:D *1388:S 0
4 *1448:D *1448:RESET_B 2.81497e-05
*RES
1 *1388:X *1448:D 35.1179 
*END

*D_NET *52 0.000771986
*CONN
*I *1509:A I *D sky130_fd_sc_hd__dlygate4sd3_1
*I *1389:X O *D sky130_fd_sc_hd__mux2_1
*CAP
1 *1509:A 0.000339778
2 *1389:X 0.000339778
3 *1509:A *1255:A 0
4 *1509:A *1389:A0 0
5 *1509:A *1449:CLK 0
6 *1509:A *1449:D 9.24299e-05
*RES
1 *1389:X *1509:A 33.85 
*END

*D_NET *53 0.000352384
*CONN
*I *1450:D I *D sky130_fd_sc_hd__dfrtp_1
*I *1390:X O *D sky130_fd_sc_hd__mux2_1
*CAP
1 *1450:D 0.000114353
2 *1390:X 0.000114353
3 *1450:D *1357:S 0
4 *1450:D *186:74 5.71472e-05
5 *1450:D *194:110 6.65302e-05
*RES
1 *1390:X *1450:D 29.7786 
*END

*D_NET *54 0.000721155
*CONN
*I *1504:A I *D sky130_fd_sc_hd__dlygate4sd3_1
*I *1391:X O *D sky130_fd_sc_hd__mux2_1
*CAP
1 *1504:A 0.000117089
2 *1391:X 0.000117089
3 *1504:A *1306:A 0.00018372
4 *1504:A *1391:S 0.000303258
*RES
1 *1391:X *1504:A 22.0286 
*END

*D_NET *55 0.00125797
*CONN
*I *1452:D I *D sky130_fd_sc_hd__dfrtp_1
*I *1392:X O *D sky130_fd_sc_hd__mux2_1
*CAP
1 *1452:D 0.00033992
2 *1392:X 0.00033992
3 *1452:D *1359:A1 7.6644e-05
4 *1452:D *1462:D 4.75715e-05
5 *1452:D *182:70 0
6 *1452:D *201:32 1.02504e-05
7 *1452:D *203:22 0.00044366
*RES
1 *1392:X *1452:D 33.1714 
*END

*D_NET *56 0.000538049
*CONN
*I *1506:A I *D sky130_fd_sc_hd__dlygate4sd3_1
*I *1393:X O *D sky130_fd_sc_hd__mux2_1
*CAP
1 *1506:A 0.000130627
2 *1393:X 0.000130627
3 *1506:A *1294:C1 2.58997e-05
4 *1506:A *1393:A1 4.15914e-05
5 *1506:A *1472:A 9.47028e-05
6 *1506:A *292:33 6.42242e-05
7 *1506:A *334:8 5.03772e-05
*RES
1 *1393:X *1506:A 31.0107 
*END

*D_NET *57 0.000631197
*CONN
*I *1570:A I *D sky130_fd_sc_hd__dlygate4sd3_1
*I *1394:X O *D sky130_fd_sc_hd__mux2_1
*CAP
1 *1570:A 0.000285969
2 *1394:X 0.000285969
3 *1570:A *1454:D 5.52238e-05
4 *1570:A *197:24 4.0342e-06
*RES
1 *1394:X *1570:A 22.3321 
*END

*D_NET *58 0.000653736
*CONN
*I *1455:D I *D sky130_fd_sc_hd__dfrtp_1
*I *1395:X O *D sky130_fd_sc_hd__mux2_1
*CAP
1 *1455:D 0.000137919
2 *1395:X 0.000137919
3 *1455:D *1265:B2 0
4 *1455:D *1267:C 8.59056e-05
5 *1455:D *1391:A1 0.000291993
*RES
1 *1395:X *1455:D 31.3679 
*END

*D_NET *59 0.000304541
*CONN
*I *1456:D I *D sky130_fd_sc_hd__dfrtp_1
*I *1396:X O *D sky130_fd_sc_hd__mux2_1
*CAP
1 *1456:D 0.0001409
2 *1396:X 0.0001409
3 *1456:D *1395:S 2.27416e-05
4 *1456:D *1456:RESET_B 0
5 *1456:D *315:23 0
*RES
1 *1396:X *1456:D 29.7786 
*END

*D_NET *60 0.000939375
*CONN
*I *1530:A I *D sky130_fd_sc_hd__dlygate4sd3_1
*I *1397:X O *D sky130_fd_sc_hd__mux2_1
*CAP
1 *1530:A 0.000376866
2 *1397:X 0.000376866
3 *1530:A *1391:S 0
4 *1530:A *1397:A1 0.000185643
5 *1530:A *1457:CLK 0
6 *1530:A *182:26 0
*RES
1 *1397:X *1530:A 33.4393 
*END

*D_NET *61 0.000684016
*CONN
*I *1459:D I *D sky130_fd_sc_hd__dfrtp_4
*I *1398:Y O *D sky130_fd_sc_hd__xnor2_1
*CAP
1 *1459:D 0.000251162
2 *1398:Y 0.000251162
3 *1459:D *1459:CLK 8.07313e-05
4 *1459:D *74:6 0.00010096
*RES
1 *1398:Y *1459:D 23.6714 
*END

*D_NET *62 0.00164065
*CONN
*I *1460:D I *D sky130_fd_sc_hd__dfrtp_4
*I *1401:Y O *D sky130_fd_sc_hd__nor2_1
*CAP
1 *1460:D 0.000794664
2 *1401:Y 0.000794664
3 *1460:D *1460:CLK 0
4 *1460:D *146:46 2.40379e-05
5 *1460:D *181:37 0
6 *1460:D *197:12 2.72859e-05
7 *1460:D *198:44 0
8 *1460:D *198:50 0
*RES
1 *1401:Y *1460:D 38.7964 
*END

*D_NET *63 0.00156012
*CONN
*I *1461:D I *D sky130_fd_sc_hd__dfrtp_2
*I *1402:Y O *D sky130_fd_sc_hd__xnor2_1
*CAP
1 *1461:D 0.000621501
2 *1402:Y 0.000621501
3 *1461:D *1400:A2 0.000192582
4 *1461:D *1461:RESET_B 5.60106e-05
5 *1461:D *146:23 6.85301e-05
*RES
1 *1402:Y *1461:D 27.9393 
*END

*D_NET *64 0.00135869
*CONN
*I *1462:D I *D sky130_fd_sc_hd__dfrtp_1
*I *1403:X O *D sky130_fd_sc_hd__mux2_1
*CAP
1 *1462:D 0.000523687
2 *1403:X 0.000523687
3 *1462:D *1359:A1 6.67033e-05
4 *1462:D *1462:CLK 0
5 *1462:D *1463:D 2.56694e-05
6 *1462:D *182:76 0
7 *1462:D *201:32 0.000171375
8 *1462:D *267:12 0
9 *1452:D *1462:D 4.75715e-05
*RES
1 *1403:X *1462:D 37.5821 
*END

*D_NET *65 0.000138324
*CONN
*I *1559:A I *D sky130_fd_sc_hd__dlygate4sd3_1
*I *1404:X O *D sky130_fd_sc_hd__mux2_1
*CAP
1 *1559:A 5.47061e-05
2 *1404:X 5.47061e-05
3 *1559:A *1557:A 2.89114e-05
*RES
1 *1404:X *1559:A 19.5643 
*END

*D_NET *66 0.000548257
*CONN
*I *1464:D I *D sky130_fd_sc_hd__dfrtp_1
*I *1405:X O *D sky130_fd_sc_hd__mux2_1
*CAP
1 *1464:D 0.000125383
2 *1405:X 0.000125383
3 *1464:D *1243:A 5.71472e-05
4 *1464:D *1361:A1 0
5 *1464:D *1419:CLK 4.1331e-06
6 *1464:D *1472:A 3.14193e-05
7 *1464:D *182:26 5.16852e-05
8 *1464:D *201:44 1.02504e-05
9 *1464:D *334:8 0.000142856
*RES
1 *1405:X *1464:D 30.9036 
*END

*D_NET *67 0.0038831
*CONN
*I *1487:A I *D sky130_fd_sc_hd__clkbuf_2
*I *1486:A I *D sky130_fd_sc_hd__buf_2
*I *1239:Y O *D sky130_fd_sc_hd__inv_2
*CAP
1 *1487:A 0.000199161
2 *1486:A 0.000282126
3 *1239:Y 0.000474169
4 *67:14 0.000955457
5 *1486:A *190:46 9.90431e-05
6 *1486:A *195:44 6.86153e-05
7 *1486:A *195:56 0.000237599
8 *1487:A *1244:A 9.65091e-05
9 *1487:A *1276:A1 7.53309e-05
10 *1487:A *1277:C1 7.53309e-05
11 *1487:A *1296:D 5.33005e-05
12 *1487:A *1308:A 5.33005e-05
13 *1487:A *191:10 0.000306359
14 *1487:A *191:32 6.98302e-05
15 *1487:A *291:31 4.04618e-05
16 *67:14 *1418:CLK 0
17 *67:14 *192:81 0.000490416
18 *67:14 *195:56 0.000263524
19 *67:14 *201:78 4.25622e-05
*RES
1 *1239:Y *67:14 27.175 
2 *67:14 *1486:A 14.4071 
3 *67:14 *1487:A 24.7286 
*END

*D_NET *68 0.0010798
*CONN
*I *1266:A1 I *D sky130_fd_sc_hd__o221a_1
*I *1240:Y O *D sky130_fd_sc_hd__inv_2
*CAP
1 *1266:A1 0.000127204
2 *1240:Y 0.000127204
3 *1266:A1 *1265:B1 5.52302e-05
4 *1266:A1 *1266:A2 1.97695e-05
5 *1266:A1 *1266:C1 0.000436723
6 *1266:A1 *1267:C 5.01368e-05
7 *1266:A1 *1291:A 9.41642e-05
8 *1266:A1 *1291:C_N 9.90431e-05
9 *1266:A1 *1391:A1 4.38128e-05
10 *1266:A1 *118:12 2.65105e-05
*RES
1 *1240:Y *1266:A1 23.6714 
*END

*D_NET *69 0.00346559
*CONN
*I *1309:B2 I *D sky130_fd_sc_hd__a22o_1
*I *1310:A1 I *D sky130_fd_sc_hd__o221a_1
*I *1485:A I *D sky130_fd_sc_hd__buf_2
*I *1241:Y O *D sky130_fd_sc_hd__inv_2
*CAP
1 *1309:B2 0.00022335
2 *1310:A1 0
3 *1485:A 0.000535383
4 *1241:Y 0
5 *69:29 0.000390535
6 *69:4 0.000702569
7 *1309:B2 *1311:A_N 0.000103253
8 *1309:B2 *1311:B 8.56716e-05
9 *1309:B2 *1404:A1 1.41706e-05
10 *1309:B2 *1455:CLK 5.52302e-05
11 *1309:B2 *187:52 2.61337e-05
12 *1309:B2 *192:106 0
13 *1309:B2 *192:117 2.8266e-06
14 *1309:B2 *318:22 0.00010323
15 *1485:A *1360:A1 0.000185643
16 *1485:A *1397:A1 2.14658e-05
17 *1485:A *1404:S 0.000353086
18 *1485:A *182:20 6.28203e-05
19 *1485:A *182:26 6.2589e-06
20 *1485:A *273:31 0.00026347
21 *1485:A *273:38 0.000137983
22 *69:29 *1404:A1 6.1075e-05
23 *69:29 *1404:S 0.000131439
24 *69:29 *192:106 0
*RES
1 *1241:Y *69:4 9.3 
2 *69:4 *1485:A 28.05 
3 *69:4 *69:29 8.10714 
4 *69:29 *1310:A1 13.8 
5 *69:29 *1309:B2 19.3179 
*END

*D_NET *70 0.00894333
*CONN
*I *1287:A1 I *D sky130_fd_sc_hd__a211o_1
*I *1305:A1 I *D sky130_fd_sc_hd__o211a_1
*I *1303:A1_N I *D sky130_fd_sc_hd__o2bb2a_1
*I *1312:A1_N I *D sky130_fd_sc_hd__o2bb2a_1
*I *1316:A1 I *D sky130_fd_sc_hd__o211a_1
*I *1285:B2 I *D sky130_fd_sc_hd__o22ai_1
*I *1242:Y O *D sky130_fd_sc_hd__inv_2
*CAP
1 *1287:A1 0.000154282
2 *1305:A1 1.20576e-05
3 *1303:A1_N 9.57842e-05
4 *1312:A1_N 0.000156397
5 *1316:A1 0
6 *1285:B2 9.81874e-05
7 *1242:Y 0.000489045
8 *70:65 0.000328578
9 *70:39 0.000833953
10 *70:31 0.00116617
11 *70:27 0.000680801
12 *70:10 0.000845877
13 *1285:B2 *1285:A1 1.76135e-05
14 *1285:B2 *1287:A2 8.91726e-05
15 *1285:B2 *1327:A0 4.06782e-05
16 *1287:A1 *1287:A2 0.000191636
17 *1287:A1 *1568:A 5.33005e-05
18 *1303:A1_N *1278:C 1.6704e-05
19 *1303:A1_N *1305:A2 0.000299928
20 *1303:A1_N *1305:B1 5.23142e-05
21 *1303:A1_N *190:58 1.15603e-05
22 *1303:A1_N *304:25 0
23 *1305:A1 *1305:A2 1.04232e-05
24 *1312:A1_N *1312:B1 5.52238e-05
25 *1312:A1_N *1312:B2 3.92854e-05
26 *1312:A1_N *1367:S 0
27 *1312:A1_N *1422:CLK 0.000275717
28 *1312:A1_N *1425:RESET_B 0.000193118
29 *1312:A1_N *1482:A 0.000122956
30 *1312:A1_N *191:32 3.34687e-05
31 *70:10 *1242:A 0.000567019
32 *70:10 *262:10 1.32552e-05
33 *70:27 *1242:A 2.89114e-05
34 *70:27 *1287:A2 0.000310259
35 *70:27 *1318:C 3.99846e-05
36 *70:31 *1318:C 0.000261227
37 *70:31 *105:12 3.92645e-05
38 *70:31 *144:8 0.000265385
39 *70:31 *176:10 0.000168301
40 *70:31 *176:86 0.000161458
41 *70:39 *1317:D 0.000238718
42 *70:39 *1425:RESET_B 0.000123295
43 *70:39 *191:32 6.42338e-05
44 *70:65 *1278:C 5.74499e-06
45 *70:65 *1305:A2 3.69047e-06
46 *70:65 *1370:A0 6.57815e-05
47 *70:65 *1538:A 0.000139913
48 *70:65 *105:12 3.15739e-05
49 *70:65 *176:86 5.10822e-05
*RES
1 *1242:Y *70:10 16.9607 
2 *70:10 *1285:B2 20.55 
3 *70:10 *70:27 5.19643 
4 *70:27 *70:31 12.8214 
5 *70:31 *70:39 18.1607 
6 *70:39 *1316:A1 13.8 
7 *70:39 *1312:A1_N 19.3848 
8 *70:31 *70:65 8.83929 
9 *70:65 *1303:A1_N 12.4652 
10 *70:65 *1305:A1 9.72857 
11 *70:27 *1287:A1 12.8714 
*END

*D_NET *71 0.00168156
*CONN
*I *1294:A2 I *D sky130_fd_sc_hd__o221a_1
*I *1293:A2 I *D sky130_fd_sc_hd__a22o_1
*I *1243:Y O *D sky130_fd_sc_hd__inv_2
*CAP
1 *1294:A2 8.78085e-05
2 *1293:A2 0
3 *1243:Y 0.000268843
4 *71:16 0.000356651
5 *1294:A2 *1293:A1 0.000324613
6 *1294:A2 *1294:B1 0.000128317
7 *1294:A2 *1295:C_N 9.22103e-06
8 *1294:A2 *189:18 2.89016e-05
9 *71:16 *1293:A1 1.21258e-05
10 *71:16 *1293:B1 9.7049e-06
11 *71:16 *1294:B1 6.77198e-05
12 *71:16 *1405:A1 0
13 *71:16 *1472:A 0.00010096
14 *71:16 *182:26 0.000286692
15 *71:16 *192:87 0
16 *71:16 *244:10 0
*RES
1 *1243:Y *71:16 24.2821 
2 *71:16 *1293:A2 9.3 
3 *71:16 *1294:A2 13.2911 
*END

*D_NET *72 0.000743937
*CONN
*I *1277:A2 I *D sky130_fd_sc_hd__o211a_1
*I *1244:Y O *D sky130_fd_sc_hd__inv_2
*CAP
1 *1277:A2 0.000135269
2 *1244:Y 0.000135269
3 *1277:A2 *1244:A 0.000190185
4 *1277:A2 *190:46 0.000160463
5 *1277:A2 *291:31 0.000122751
*RES
1 *1244:Y *1277:A2 31.6714 
*END

*D_NET *73 0.00328282
*CONN
*I *1286:C1 I *D sky130_fd_sc_hd__a221o_1
*I *1245:Y O *D sky130_fd_sc_hd__inv_2
*CAP
1 *1286:C1 0.00119025
2 *1245:Y 0.00119025
3 *1286:C1 *1286:B2 0.000107353
4 *1286:C1 *1328:A0 0.000296284
5 *1286:C1 *1328:S 0.000184719
6 *1286:C1 *1406:D 6.62983e-05
7 *1286:C1 *1492:A 3.38229e-05
8 *1286:C1 *1505:A 9.05499e-05
9 *1286:C1 *197:24 0
10 *1286:C1 *295:8 0.000123295
*RES
1 *1245:Y *1286:C1 45.6357 
*END

*D_NET *74 0.0012327
*CONN
*I *1337:A1 I *D sky130_fd_sc_hd__a211o_1
*I *1334:A I *D sky130_fd_sc_hd__nor2_1
*I *1398:A I *D sky130_fd_sc_hd__xnor2_1
*I *1246:Y O *D sky130_fd_sc_hd__inv_2
*CAP
1 *1337:A1 8.0383e-05
2 *1334:A 5.00033e-05
3 *1398:A 0
4 *1246:Y 0.00012302
5 *74:15 0.000249895
6 *74:6 0.000242529
7 *1334:A *1334:B 0
8 *1334:A *155:10 3.1367e-05
9 *1337:A1 *1398:B 5.63882e-05
10 *1337:A1 *155:10 8.06427e-05
11 *74:6 *1334:B 5.28345e-05
12 *74:15 *1334:B 0.000164675
13 *1459:D *74:6 0.00010096
*RES
1 *1246:Y *74:6 11.8893 
2 *74:6 *1398:A 9.3 
3 *74:6 *74:15 2.60714 
4 *74:15 *1334:A 10.2643 
5 *74:15 *1337:A1 20.2464 
*END

*D_NET *75 0.00472786
*CONN
*I *1402:A I *D sky130_fd_sc_hd__xnor2_1
*I *1329:A I *D sky130_fd_sc_hd__nor2_1
*I *1343:A1 I *D sky130_fd_sc_hd__a22o_1
*I *1334:B I *D sky130_fd_sc_hd__nor2_1
*I *1247:Y O *D sky130_fd_sc_hd__inv_2
*CAP
1 *1402:A 0.000105153
2 *1329:A 0.000107971
3 *1343:A1 0
4 *1334:B 0.000366617
5 *1247:Y 0
6 *75:31 0.000194359
7 *75:10 0.000948062
8 *75:4 0.00060021
9 *1329:A *1342:B 9.10431e-06
10 *1329:A *286:66 7.83366e-05
11 *1334:B *1246:A 0
12 *1334:B *1342:A 1.15916e-05
13 *1334:B *1342:B 1.65558e-05
14 *1334:B *1398:B 0.000150618
15 *1334:B *158:10 9.11048e-06
16 *1402:A *1400:A2 0.000155374
17 *1402:A *287:12 0.000331135
18 *75:10 *1338:B1 0.000569207
19 *75:10 *1347:B1 5.52302e-05
20 *75:10 *147:29 0.00044366
21 *75:10 *152:12 5.52302e-05
22 *75:10 *287:12 6.56534e-05
23 *75:10 *287:20 1.32552e-05
24 *75:31 *1342:B 5.63101e-05
25 *75:31 *1343:B1 7.70035e-05
26 *75:31 *158:10 9.06059e-05
27 *1334:A *1334:B 0
28 *74:6 *1334:B 5.28345e-05
29 *74:15 *1334:B 0.000164675
*RES
1 *1247:Y *75:4 9.3 
2 *75:4 *75:10 15.3214 
3 *75:10 *1334:B 21.3714 
4 *75:10 *75:31 2.25 
5 *75:31 *1343:A1 13.8 
6 *75:31 *1329:A 16.05 
7 *75:4 *1402:A 13.1393 
*END

*D_NET *76 0.00198867
*CONN
*I *1330:B I *D sky130_fd_sc_hd__nor2_1
*I *1339:A2 I *D sky130_fd_sc_hd__a22o_1
*I *1345:A2 I *D sky130_fd_sc_hd__a211o_1
*I *1248:Y O *D sky130_fd_sc_hd__inv_2
*CAP
1 *1330:B 4.72695e-05
2 *1339:A2 7.82004e-05
3 *1345:A2 9.6497e-05
4 *1248:Y 0.000119087
5 *76:10 0.000216146
6 *76:8 0.000207804
7 *1330:B *1332:B 0.000114045
8 *1330:B *1347:A2 1.02504e-05
9 *1330:B *1347:B1 0.000123295
10 *1339:A2 *1339:A1 2.08721e-05
11 *1339:A2 *1339:B1 9.41642e-05
12 *1339:A2 *1339:B2 0.000141506
13 *1339:A2 *1459:CLK 5.31113e-05
14 *1339:A2 *285:33 1.76135e-05
15 *1339:A2 *285:64 1.01075e-05
16 *1345:A2 *1338:B1 9.90367e-05
17 *1345:A2 *1339:B2 1.7845e-05
18 *1345:A2 *1344:A 4.75521e-05
19 *1345:A2 *1347:B1 9.91086e-05
20 *1345:A2 *1459:CLK 3.25078e-05
21 *1345:A2 *285:33 0.00010096
22 *76:8 *1339:B1 2.16156e-05
23 *76:8 *1339:B2 3.29418e-05
24 *76:10 *1332:B 8.55772e-05
25 *76:10 *1339:B2 9.86249e-07
26 *76:10 *1347:B1 0.000100567
*RES
1 *1248:Y *76:8 15.1571 
2 *76:8 *76:10 1.33929 
3 *76:10 *1345:A2 16.9964 
4 *76:10 *1339:A2 25.1214 
5 *76:8 *1330:B 15.4429 
*END

*D_NET *77 0.00161237
*CONN
*I *1280:A2 I *D sky130_fd_sc_hd__a22o_1
*I *1281:A2 I *D sky130_fd_sc_hd__o221a_1
*I *1250:Y O *D sky130_fd_sc_hd__inv_2
*CAP
1 *1280:A2 0.000300109
2 *1281:A2 0
3 *1250:Y 0.00028739
4 *77:12 0.000587499
5 *1280:A2 *1281:B1 4.43256e-05
6 *1280:A2 *1281:B2 0.000182418
7 *1280:A2 *229:57 9.1407e-06
8 *1280:A2 *281:66 9.58181e-05
9 *77:12 *1281:B1 3.4323e-06
10 *77:12 *1281:C1 0
11 *77:12 *1380:A1 1.76135e-05
12 *77:12 *1380:S 0
13 *77:12 *229:36 4.36551e-06
14 *77:12 *229:57 0
15 *77:12 *251:45 8.02593e-05
*RES
1 *1250:Y *77:12 22.425 
2 *77:12 *1281:A2 9.3 
3 *77:12 *1280:A2 22.8 
*END

*D_NET *78 0.00130728
*CONN
*I *1299:B1 I *D sky130_fd_sc_hd__o221a_1
*I *1298:B1 I *D sky130_fd_sc_hd__a22o_1
*I *1251:Y O *D sky130_fd_sc_hd__inv_2
*CAP
1 *1299:B1 0.000189962
2 *1298:B1 0.000138849
3 *1251:Y 5.76521e-05
4 *78:8 0.000386462
5 *1298:B1 *1298:A2 7.43578e-06
6 *1298:B1 *1298:B2 5.52238e-05
7 *1298:B1 *1528:A 6.05161e-06
8 *1299:B1 *1251:A 4.70792e-05
9 *1299:B1 *1299:C1 2.50566e-05
10 *1299:B1 *1377:A0 0.000142856
11 *1299:B1 *194:32 0
12 *1299:B1 *194:43 0
13 *1299:B1 *251:41 2.21728e-05
14 *1299:B1 *297:8 0.000125599
15 *78:8 *1251:A 0.00010288
16 *78:8 *194:32 0
*RES
1 *1251:Y *78:8 15.1393 
2 *78:8 *1298:B1 15.9786 
3 *78:8 *1299:B1 18.4429 
*END

*D_NET *79 0.000477479
*CONN
*I *1304:A2 I *D sky130_fd_sc_hd__o221a_1
*I *1252:Y O *D sky130_fd_sc_hd__inv_2
*CAP
1 *1304:A2 0.000182724
2 *1252:Y 0.000182724
3 *1304:A2 *180:64 4.25716e-05
4 *1304:A2 *194:74 1.52978e-05
5 *1304:A2 *262:87 5.41609e-05
6 *1304:A2 *281:98 0
*RES
1 *1252:Y *1304:A2 30.6 
*END

*D_NET *80 0.00116582
*CONN
*I *1260:A2 I *D sky130_fd_sc_hd__o221a_1
*I *1253:Y O *D sky130_fd_sc_hd__inv_2
*CAP
1 *1260:A2 0.000435972
2 *1253:Y 0.000435972
3 *1260:A2 *1253:A 5.84741e-05
4 *1260:A2 *1257:B1 5.52238e-05
5 *1260:A2 *1257:B2 1.98839e-05
6 *1260:A2 *1261:B 7.16452e-05
7 *1260:A2 *189:30 1.51444e-05
8 *1260:A2 *189:61 7.35098e-05
*RES
1 *1253:Y *1260:A2 25.8679 
*END

*D_NET *81 0.00148094
*CONN
*I *1315:A2 I *D sky130_fd_sc_hd__o221a_1
*I *1254:Y O *D sky130_fd_sc_hd__inv_2
*CAP
1 *1315:A2 0.000444779
2 *1254:Y 0.000444779
3 *1315:A2 *1314:B 5.23057e-05
4 *1315:A2 *1480:A 0.000274294
5 *1315:A2 *183:16 5.58941e-05
6 *1315:A2 *183:51 7.83659e-05
7 *1315:A2 *194:110 0.00010096
8 *1315:A2 *309:14 2.95641e-05
*RES
1 *1254:Y *1315:A2 34.7071 
*END

*D_NET *82 0.00168396
*CONN
*I *1290:B1 I *D sky130_fd_sc_hd__o221a_1
*I *1289:B1 I *D sky130_fd_sc_hd__a22o_1
*I *1255:Y O *D sky130_fd_sc_hd__inv_2
*CAP
1 *1290:B1 8.44479e-05
2 *1289:B1 0.000146239
3 *1255:Y 0.000155965
4 *82:8 0.000386652
5 *1289:B1 *1290:B2 0.000103267
6 *1289:B1 *1362:A0 1.52978e-05
7 *1289:B1 *1473:A 9.24491e-05
8 *1289:B1 *1474:A 4.46186e-06
9 *1289:B1 *186:40 3.48705e-05
10 *1289:B1 *186:59 0
11 *1289:B1 *195:56 5.52238e-05
12 *1290:B1 *1290:B2 7.2753e-05
13 *1290:B1 *1362:A0 9.71197e-05
14 *1290:B1 *1362:S 0.000200697
15 *1290:B1 *202:26 0
16 *82:8 *1362:A0 7.90459e-05
17 *82:8 *1420:D 5.56943e-05
18 *82:8 *1449:CLK 0
19 *82:8 *1473:A 9.97744e-05
*RES
1 *1255:Y *82:8 17.8714 
2 *82:8 *1289:B1 17.4071 
3 *82:8 *1290:B1 16.7107 
*END

*D_NET *83 0.000787295
*CONN
*I *1261:A I *D sky130_fd_sc_hd__and3_1
*I *1256:Y O *D sky130_fd_sc_hd__nand2_1
*CAP
1 *1261:A 0.000266087
2 *1256:Y 0.000266087
3 *1261:A *1256:A 7.83659e-05
4 *1261:A *1261:C 1.95435e-05
5 *1261:A *1368:A1 0.000101982
6 *1261:A *176:86 5.52302e-05
*RES
1 *1256:Y *1261:A 31.6536 
*END

*D_NET *84 0.000764717
*CONN
*I *1261:B I *D sky130_fd_sc_hd__and3_1
*I *1257:X O *D sky130_fd_sc_hd__o22a_1
*CAP
1 *1261:B 0.000141274
2 *1257:X 0.000141274
3 *1261:B *1260:A1 2.39779e-05
4 *1261:B *1261:C 7.6644e-05
5 *1261:B *1278:A 0.000121573
6 *1261:B *189:61 0.000135028
7 *1261:B *305:16 5.33005e-05
8 *1260:A2 *1261:B 7.16452e-05
*RES
1 *1257:X *1261:B 31.1357 
*END

*D_NET *85 0.000411158
*CONN
*I *1260:B1 I *D sky130_fd_sc_hd__o221a_1
*I *1258:X O *D sky130_fd_sc_hd__and2_1
*CAP
1 *1260:B1 7.9183e-05
2 *1258:X 7.9183e-05
3 *1260:B1 *1259:A 5.71472e-05
4 *1260:B1 *1260:B2 0.000128154
5 *1260:B1 *188:42 6.74911e-05
*RES
1 *1258:X *1260:B1 29.7786 
*END

*D_NET *86 0.000258182
*CONN
*I *1260:B2 I *D sky130_fd_sc_hd__o221a_1
*I *1259:Y O *D sky130_fd_sc_hd__nor2_1
*CAP
1 *1260:B2 6.29476e-05
2 *1259:Y 6.29476e-05
3 *1260:B2 *1260:A1 4.1331e-06
4 *1260:B2 *1278:A 0
5 *1260:B1 *1260:B2 0.000128154
*RES
1 *1259:Y *1260:B2 29.2429 
*END

*D_NET *87 0.000618604
*CONN
*I *1261:C I *D sky130_fd_sc_hd__and3_1
*I *1260:X O *D sky130_fd_sc_hd__o221a_1
*CAP
1 *1261:C 0.000124765
2 *1260:X 0.000124765
3 *1261:C *1260:A1 0.000170661
4 *1261:C *1368:A1 1.95435e-05
5 *1261:C *176:86 2.74584e-05
6 *1261:C *189:61 5.52238e-05
7 *1261:A *1261:C 1.95435e-05
8 *1261:B *1261:C 7.6644e-05
*RES
1 *1260:X *1261:C 30.5821 
*END

*D_NET *88 0.000677058
*CONN
*I *1278:A I *D sky130_fd_sc_hd__nor4_1
*I *1261:X O *D sky130_fd_sc_hd__and3_1
*CAP
1 *1278:A 0.000126723
2 *1261:X 0.000126723
3 *1278:A *1260:A1 1.00375e-05
4 *1278:A *176:86 0.000292
5 *1278:A *188:42 0
6 *1260:B2 *1278:A 0
7 *1261:B *1278:A 0.000121573
*RES
1 *1261:X *1278:A 31.3679 
*END

*D_NET *89 0.000154934
*CONN
*I *1267:A I *D sky130_fd_sc_hd__and3_1
*I *1262:Y O *D sky130_fd_sc_hd__nand2_1
*CAP
1 *1267:A 5.02798e-05
2 *1262:Y 5.02798e-05
3 *1267:A *1262:A 2.89114e-05
4 *1267:A *1262:B 2.54632e-05
*RES
1 *1262:Y *1267:A 19.5464 
*END

*D_NET *90 0.000626125
*CONN
*I *1266:B1 I *D sky130_fd_sc_hd__o221a_1
*I *1263:X O *D sky130_fd_sc_hd__and2_1
*CAP
1 *1266:B1 0.000118939
2 *1263:X 0.000118939
3 *1266:B1 *1241:A 0.000152333
4 *1266:B1 *1266:B2 0.000125724
5 *1266:B1 *1288:A 1.41029e-05
6 *1266:B1 *191:40 9.60875e-05
*RES
1 *1263:X *1266:B1 30.4929 
*END

*D_NET *91 0.000928346
*CONN
*I *1266:B2 I *D sky130_fd_sc_hd__o221a_1
*I *1264:Y O *D sky130_fd_sc_hd__nor2_1
*CAP
1 *1266:B2 0.000158799
2 *1264:Y 0.000158799
3 *1266:B2 *1241:A 3.32442e-05
4 *1266:B2 *1264:B 6.05161e-06
5 *1266:B2 *1288:A 0.000187012
6 *1266:B2 *1455:CLK 1.21258e-05
7 *1266:B2 *192:117 0.000123295
8 *1266:B1 *1266:B2 0.000125724
9 *1523:A *1266:B2 0.000123295
*RES
1 *1264:Y *1266:B2 32.2071 
*END

*D_NET *92 0.000342306
*CONN
*I *1267:B I *D sky130_fd_sc_hd__and3_1
*I *1265:X O *D sky130_fd_sc_hd__o22a_1
*CAP
1 *1267:B 0.000101712
2 *1265:X 0.000101712
3 *1267:B *1262:B 0.000138881
*RES
1 *1265:X *1267:B 19.9571 
*END

*D_NET *93 0.00114989
*CONN
*I *1267:C I *D sky130_fd_sc_hd__and3_1
*I *1266:X O *D sky130_fd_sc_hd__o221a_1
*CAP
1 *1267:C 0.000314267
2 *1266:X 0.000314267
3 *1267:C *1262:A 2.04134e-05
4 *1267:C *1265:B1 0.000194874
5 *1267:C *1265:B2 0
6 *1267:C *1291:A 4.87854e-05
7 *1267:C *1291:C_N 5.62995e-05
8 *1267:C *1391:A1 7.79781e-06
9 *1267:C *118:12 5.71472e-05
10 *1266:A1 *1267:C 5.01368e-05
11 *1455:D *1267:C 8.59056e-05
*RES
1 *1266:X *1267:C 34.3679 
*END

*D_NET *94 0.00709366
*CONN
*I *1278:B I *D sky130_fd_sc_hd__nor4_1
*I *1267:X O *D sky130_fd_sc_hd__and3_1
*CAP
1 *1278:B 0.000162998
2 *1267:X 0.00211495
3 *94:18 0.00227795
4 *1278:B *1278:D 0.00030926
5 *1278:B *1422:CLK 6.42095e-05
6 *1278:B *1482:A 0.0001399
7 *1278:B *186:8 2.14757e-05
8 *94:18 *1262:A 1.02936e-05
9 *94:18 *1263:A 0.000431857
10 *94:18 *1265:A1 6.09112e-05
11 *94:18 *1265:B1 8.07313e-05
12 *94:18 *1316:A2 0.000236039
13 *94:18 *1316:B1 8.16625e-05
14 *94:18 *1367:A0 0.000248149
15 *94:18 *1367:S 0.000195072
16 *94:18 *1416:CLK 1.02821e-05
17 *94:18 *1416:D 0.000188586
18 *94:18 *190:46 6.87203e-05
19 *94:18 *190:127 0.000185914
20 *94:18 *191:32 0
21 *94:18 *191:40 5.6547e-05
22 *94:18 *316:10 0.000148153
*RES
1 *1267:X *94:18 48.9607 
2 *94:18 *1278:B 13.5321 
*END

*D_NET *95 0.000995824
*CONN
*I *1272:B1 I *D sky130_fd_sc_hd__o211a_1
*I *1268:Y O *D sky130_fd_sc_hd__a22oi_1
*CAP
1 *1272:B1 0.00012896
2 *1268:Y 0.00012896
3 *1272:B1 *1271:A2 0.000171375
4 *1272:B1 *1272:A2 0.000414033
5 *1272:B1 *1272:C1 8.15843e-05
6 *1272:B1 *189:77 1.50087e-05
7 *1272:B1 *300:10 5.59013e-05
*RES
1 *1268:Y *1272:B1 32.8857 
*END

*D_NET *96 0.000474896
*CONN
*I *1271:B1 I *D sky130_fd_sc_hd__o221a_1
*I *1269:X O *D sky130_fd_sc_hd__and2_1
*CAP
1 *1271:B1 0.000108387
2 *1269:X 0.000108387
3 *1271:B1 *1270:B 0.000150625
4 *1271:B1 *1300:B 2.56601e-05
5 *1271:B1 *1377:A0 5.59013e-05
6 *1271:B1 *189:77 2.59355e-05
*RES
1 *1269:X *1271:B1 30.0821 
*END

*D_NET *97 0.000404917
*CONN
*I *1271:B2 I *D sky130_fd_sc_hd__o221a_1
*I *1270:Y O *D sky130_fd_sc_hd__nor2_1
*CAP
1 *1271:B2 8.44833e-05
2 *1270:Y 8.44833e-05
3 *1271:B2 *1270:B 9.31011e-05
4 *1271:B2 *1377:A0 0.00014285
*RES
1 *1270:Y *1271:B2 20.7786 
*END

*D_NET *98 0.000442255
*CONN
*I *1272:C1 I *D sky130_fd_sc_hd__o211a_1
*I *1271:X O *D sky130_fd_sc_hd__o221a_1
*CAP
1 *1272:C1 0.000101799
2 *1271:X 0.000101799
3 *1272:C1 *1271:A2 2.89114e-05
4 *1272:C1 *189:77 0.000128161
5 *1272:B1 *1272:C1 8.15843e-05
*RES
1 *1271:X *1272:C1 30.0821 
*END

*D_NET *99 0.00315854
*CONN
*I *1278:C I *D sky130_fd_sc_hd__nor4_1
*I *1272:X O *D sky130_fd_sc_hd__o211a_1
*CAP
1 *1278:C 0.00114055
2 *1272:X 0.00114055
3 *1278:C *1303:B1 2.42516e-05
4 *1278:C *1303:B2 9.90367e-05
5 *1278:C *1305:A2 5.33005e-05
6 *1278:C *1305:B1 0.000138881
7 *1278:C *1370:A0 0.000117553
8 *1278:C *105:12 3.92854e-05
9 *1278:C *176:86 2.56694e-05
10 *1278:C *190:58 0.000140933
11 *1278:C *190:96 3.69047e-06
12 *1278:C *304:25 0.000212382
13 *1303:A1_N *1278:C 1.6704e-05
14 *70:65 *1278:C 5.74499e-06
*RES
1 *1272:X *1278:C 42.725 
*END

*D_NET *100 0.000364406
*CONN
*I *1277:B1 I *D sky130_fd_sc_hd__o211a_1
*I *1273:X O *D sky130_fd_sc_hd__o2bb2a_1
*CAP
1 *1277:B1 0.000148836
2 *1273:X 0.000148836
3 *1277:B1 *195:44 1.97695e-05
4 *1277:B1 *195:56 1.90213e-05
5 *1277:B1 *291:31 2.79421e-05
*RES
1 *1273:X *1277:B1 20.6893 
*END

*D_NET *101 0.000331669
*CONN
*I *1276:B1 I *D sky130_fd_sc_hd__o221a_1
*I *1274:X O *D sky130_fd_sc_hd__and2_1
*CAP
1 *1276:B1 4.04426e-05
2 *1274:X 4.04426e-05
3 *1276:B1 *1276:C1 0.00020192
4 *1276:B1 *176:60 4.88637e-05
*RES
1 *1274:X *1276:B1 20.3857 
*END

*D_NET *102 0.000943695
*CONN
*I *1276:B2 I *D sky130_fd_sc_hd__o221a_1
*I *1275:Y O *D sky130_fd_sc_hd__nor2_1
*CAP
1 *1276:B2 0.000369624
2 *1275:Y 0.000369624
3 *1276:B2 *1276:A1 0
4 *1276:B2 *1277:C1 2.56601e-05
5 *1276:B2 *1328:A0 0
6 *1276:B2 *292:33 1.98839e-05
7 *1276:B2 *292:45 0.000158902
*RES
1 *1275:Y *1276:B2 32.6536 
*END

*D_NET *103 0.00090031
*CONN
*I *1277:C1 I *D sky130_fd_sc_hd__o211a_1
*I *1276:X O *D sky130_fd_sc_hd__o221a_1
*CAP
1 *1277:C1 0.000269451
2 *1276:X 0.000269451
3 *1277:C1 *1274:A 0
4 *1277:C1 *1276:A1 0.000129015
5 *1277:C1 *1568:A 0
6 *1277:C1 *176:60 9.90367e-05
7 *1277:C1 *190:46 0
8 *1277:C1 *291:31 3.23658e-05
9 *1277:C1 *292:45 0
10 *1276:B2 *1277:C1 2.56601e-05
11 *1487:A *1277:C1 7.53309e-05
*RES
1 *1276:X *1277:C1 32.9214 
*END

*D_NET *104 0.00327743
*CONN
*I *1278:D I *D sky130_fd_sc_hd__nor4_1
*I *1277:X O *D sky130_fd_sc_hd__o211a_1
*CAP
1 *1278:D 0.000646965
2 *1277:X 0.000646965
3 *1278:D *1258:B 1.97695e-05
4 *1278:D *1296:B 3.81e-05
5 *1278:D *1296:C 0.000100823
6 *1278:D *1422:CLK 9.41642e-05
7 *1278:D *1494:A 0.000568924
8 *1278:D *190:46 0.000414721
9 *1278:D *190:127 7.72569e-05
10 *1278:D *192:53 0.000259656
11 *1278:B *1278:D 0.00030926
12 *1425:D *1278:D 0.000100823
*RES
1 *1277:X *1278:D 46.0464 
*END

*D_NET *105 0.00186887
*CONN
*I *1325:B I *D sky130_fd_sc_hd__and4_1
*I *1318:A I *D sky130_fd_sc_hd__and3_1
*I *1278:Y O *D sky130_fd_sc_hd__nor4_1
*CAP
1 *1325:B 0
2 *1318:A 0.000185249
3 *1278:Y 0.000342954
4 *105:12 0.000528202
5 *1318:A *1318:B 6.32633e-05
6 *1318:A *1318:C 3.38136e-05
7 *1318:A *1325:C 4.02277e-05
8 *1318:A *1492:A 7.41454e-05
9 *105:12 *1317:B 0.000129868
10 *105:12 *1325:C 2.21972e-05
11 *105:12 *1370:A0 0.000107241
12 *105:12 *138:12 8.00806e-05
13 *105:12 *144:8 5.91379e-05
14 *105:12 *176:86 0
15 *105:12 *188:21 0
16 *105:12 *307:10 2.26327e-05
17 *105:12 *307:23 6.97349e-05
18 *1278:C *105:12 3.92854e-05
19 *70:31 *105:12 3.92645e-05
20 *70:65 *105:12 3.15739e-05
*RES
1 *1278:Y *105:12 22.7821 
2 *105:12 *1318:A 17.5679 
3 *105:12 *1325:B 13.8 
*END

*D_NET *106 0.00231973
*CONN
*I *1282:A I *D sky130_fd_sc_hd__or3b_1
*I *1279:X O *D sky130_fd_sc_hd__xor2_1
*CAP
1 *1282:A 0.000639263
2 *1279:X 0.000639263
3 *1282:A *1282:C_N 1.02504e-05
4 *1282:A *1381:A0 6.71755e-05
5 *1282:A *1381:S 0
6 *1282:A *1438:D 2.59355e-05
7 *1282:A *193:55 0.000197391
8 *1282:A *240:23 7.77652e-05
9 *1282:A *240:27 0.000206887
10 *1282:A *262:36 0.00035746
11 *3:21 *1282:A 9.83442e-05
*RES
1 *1279:X *1282:A 42.4393 
*END

*D_NET *107 0.000143229
*CONN
*I *1282:B I *D sky130_fd_sc_hd__or3b_1
*I *1280:X O *D sky130_fd_sc_hd__a22o_1
*CAP
1 *1282:B 5.19767e-05
2 *1280:X 5.19767e-05
3 *1282:B *1282:C_N 3.92757e-05
*RES
1 *1280:X *1282:B 28.6357 
*END

*D_NET *108 0.00076782
*CONN
*I *1282:C_N I *D sky130_fd_sc_hd__or3b_1
*I *1281:X O *D sky130_fd_sc_hd__o221a_1
*CAP
1 *1282:C_N 0.000276082
2 *1281:X 0.000276082
3 *1282:C_N *1281:B2 9.92207e-05
4 *1282:C_N *1381:S 0
5 *1282:C_N *189:77 6.69097e-05
6 *1282:A *1282:C_N 1.02504e-05
7 *1282:B *1282:C_N 3.92757e-05
*RES
1 *1281:X *1282:C_N 31.725 
*END

*D_NET *109 0.00599615
*CONN
*I *1296:A I *D sky130_fd_sc_hd__and4_1
*I *1282:X O *D sky130_fd_sc_hd__or3b_1
*CAP
1 *1296:A 0
2 *1282:X 0.00152858
3 *109:18 0.00152858
4 *109:18 *1297:B 0.000400867
5 *109:18 *1300:C 0.000273269
6 *109:18 *1370:A0 0.000227738
7 *109:18 *1370:A1 0.000468359
8 *109:18 *1432:D 0.00010096
9 *109:18 *1483:A 0.00013224
10 *109:18 *1494:A 0.000190177
11 *109:18 *138:12 0.000265447
12 *109:18 *176:10 0.000104974
13 *109:18 *176:86 0.000105689
14 *109:18 *262:14 4.87854e-05
15 *109:18 *262:28 0.000207525
16 *1428:D *109:18 0.00010096
17 *1534:A *109:18 6.75704e-05
18 *3:21 *109:18 0.000244431
*RES
1 *1282:X *109:18 45.925 
2 *109:18 *1296:A 13.8 
*END

*D_NET *110 0.00148438
*CONN
*I *1286:B1 I *D sky130_fd_sc_hd__a221o_1
*I *1283:X O *D sky130_fd_sc_hd__or2_1
*CAP
1 *1286:B1 0.000249434
2 *1283:X 0.000249434
3 *1286:B1 *1283:A 0.000146523
4 *1286:B1 *1285:A1 8.50146e-05
5 *1286:B1 *1286:A1 0
6 *1286:B1 *1286:B2 2.84269e-05
7 *1286:B1 *1327:A0 9.60875e-05
8 *1286:B1 *1327:A1 0.000277922
9 *1286:B1 *1328:S 6.42592e-05
10 *1286:B1 *197:51 0.00019119
11 *1286:B1 *262:119 9.60875e-05
*RES
1 *1283:X *1286:B1 26.6714 
*END

*D_NET *111 0.00173648
*CONN
*I *1286:B2 I *D sky130_fd_sc_hd__a221o_1
*I *1284:Y O *D sky130_fd_sc_hd__nand2_1
*CAP
1 *1286:B2 0.000418929
2 *1284:Y 0.000418929
3 *1286:B2 *1284:A 5.33334e-05
4 *1286:B2 *1285:A1 2.84269e-05
5 *1286:B2 *1328:A0 0.000146533
6 *1286:B2 *1492:A 0.000331064
7 *1286:B2 *293:10 5.52238e-05
8 *1286:B2 *295:8 0.00012501
9 *1286:B1 *1286:B2 2.84269e-05
10 *1286:C1 *1286:B2 0.000107353
11 *1521:A *1286:B2 2.32517e-05
*RES
1 *1284:Y *1286:B2 37.3143 
*END

*D_NET *112 0.00161452
*CONN
*I *1287:B1 I *D sky130_fd_sc_hd__a211o_1
*I *1285:Y O *D sky130_fd_sc_hd__o22ai_1
*CAP
1 *1287:B1 0.000316641
2 *1285:Y 0.000316641
3 *1287:B1 *1287:C1 0.000150632
4 *1287:B1 *1558:A 8.75403e-05
5 *1287:B1 *1568:A 0.000103267
6 *1287:B1 *192:53 2.49484e-05
7 *1287:B1 *195:14 0.000216036
8 *1287:B1 *195:44 0.000398815
*RES
1 *1285:Y *1287:B1 35.3232 
*END

*D_NET *113 0.00143361
*CONN
*I *1287:C1 I *D sky130_fd_sc_hd__a211o_1
*I *1286:X O *D sky130_fd_sc_hd__a221o_1
*CAP
1 *1287:C1 0.00031332
2 *1286:X 0.00031332
3 *1287:C1 *1274:A 9.25014e-06
4 *1287:C1 *1520:A 0.000267377
5 *1287:C1 *1568:A 7.2091e-05
6 *1287:C1 *176:10 0.000307622
7 *1287:B1 *1287:C1 0.000150632
*RES
1 *1286:X *1287:C1 34.2607 
*END

*D_NET *114 0.000754257
*CONN
*I *1296:B I *D sky130_fd_sc_hd__and4_1
*I *1287:X O *D sky130_fd_sc_hd__a211o_1
*CAP
1 *1296:B 0.000213726
2 *1287:X 0.000213726
3 *1296:B *1287:A2 4.87854e-05
4 *1296:B *1494:A 5.41794e-05
5 *1296:B *1568:A 8.27184e-06
6 *1296:B *192:53 7.6644e-05
7 *1296:B *204:27 0.000100823
8 *1278:D *1296:B 3.81e-05
*RES
1 *1287:X *1296:B 31.3143 
*END

*D_NET *115 0.00248047
*CONN
*I *1291:A I *D sky130_fd_sc_hd__or3b_1
*I *1288:X O *D sky130_fd_sc_hd__xor2_1
*CAP
1 *1291:A 0.000364612
2 *1288:X 0.000364612
3 *1291:A *1288:A 0.000256698
4 *1291:A *1356:A1 0.000526414
5 *1291:A *184:8 0.000227539
6 *1291:A *187:88 0.000193833
7 *1291:A *311:18 0.00040381
8 *1266:A1 *1291:A 9.41642e-05
9 *1267:C *1291:A 4.87854e-05
*RES
1 *1288:X *1291:A 39.85 
*END

*D_NET *116 0.0025192
*CONN
*I *1291:B I *D sky130_fd_sc_hd__or3b_1
*I *1289:X O *D sky130_fd_sc_hd__a22o_1
*CAP
1 *1291:B 0.000715827
2 *1289:X 0.000715827
3 *1291:B *1290:A1 1.55885e-05
4 *1291:B *1481:A 0.000241284
5 *1291:B *187:88 0.000267099
6 *1291:B *187:101 9.16119e-05
7 *1291:B *314:6 6.20656e-05
8 *1291:B *314:14 0.000409896
*RES
1 *1289:X *1291:B 42.8679 
*END

*D_NET *117 0.00343271
*CONN
*I *1291:C_N I *D sky130_fd_sc_hd__or3b_1
*I *1290:X O *D sky130_fd_sc_hd__o221a_1
*CAP
1 *1291:C_N 0.000853188
2 *1290:X 0.000853188
3 *1291:C_N *1265:B1 2.8266e-06
4 *1291:C_N *202:26 0.000963516
5 *1291:C_N *314:14 0.000439641
6 *1291:C_N *332:16 0.000165011
7 *1266:A1 *1291:C_N 9.90431e-05
8 *1267:C *1291:C_N 5.62995e-05
*RES
1 *1290:X *1291:C_N 44.2071 
*END

*D_NET *118 0.00584927
*CONN
*I *1296:C I *D sky130_fd_sc_hd__and4_1
*I *1291:X O *D sky130_fd_sc_hd__or3b_1
*CAP
1 *1296:C 0.000815093
2 *1291:X 0.000622725
3 *118:12 0.00143782
4 *1296:C *1391:S 0.000140933
5 *1296:C *1457:D 9.90431e-05
6 *1296:C *1483:A 0.00122153
7 *1296:C *1494:A 5.24274e-05
8 *1296:C *138:12 0.000604622
9 *118:12 *1241:A 0.000276605
10 *118:12 *1266:A2 2.72887e-05
11 *118:12 *1266:C1 1.25363e-05
12 *118:12 *1391:S 9.69119e-06
13 *118:12 *1455:CLK 0.000218741
14 *118:12 *184:10 0.000125731
15 *1266:A1 *118:12 2.65105e-05
16 *1267:C *118:12 5.71472e-05
17 *1278:D *1296:C 0.000100823
*RES
1 *1291:X *118:12 29.6393 
2 *118:12 *1296:C 41.1214 
*END

*D_NET *119 0.000339805
*CONN
*I *1295:A I *D sky130_fd_sc_hd__or3b_1
*I *1292:X O *D sky130_fd_sc_hd__xor2_1
*CAP
1 *1295:A 7.95172e-05
2 *1292:X 7.95172e-05
3 *1295:A *192:81 0.00018077
*RES
1 *1292:X *1295:A 20.3679 
*END

*D_NET *120 0.000264861
*CONN
*I *1295:B I *D sky130_fd_sc_hd__or3b_1
*I *1293:X O *D sky130_fd_sc_hd__a22o_1
*CAP
1 *1295:B 3.54027e-05
2 *1293:X 3.54027e-05
3 *1295:B *1294:C1 0.000102545
4 *1295:B *1295:C_N 7.83587e-05
5 *1295:B *182:26 1.31516e-05
*RES
1 *1293:X *1295:B 28.9393 
*END

*D_NET *121 0.0012451
*CONN
*I *1295:C_N I *D sky130_fd_sc_hd__or3b_1
*I *1294:X O *D sky130_fd_sc_hd__o221a_1
*CAP
1 *1295:C_N 0.000379724
2 *1294:X 0.000379724
3 *1295:C_N *1294:B1 9.94863e-05
4 *1295:C_N *1294:C1 3.57844e-05
5 *1295:C_N *182:26 0.000148189
6 *1295:C_N *189:18 0.000114609
7 *1294:A2 *1295:C_N 9.22103e-06
8 *1295:B *1295:C_N 7.83587e-05
*RES
1 *1294:X *1295:C_N 33.7786 
*END

*D_NET *122 0.00366498
*CONN
*I *1296:D I *D sky130_fd_sc_hd__and4_1
*I *1295:X O *D sky130_fd_sc_hd__or3b_1
*CAP
1 *1296:D 0.000961088
2 *1295:X 0.000961088
3 *1296:D *1239:A 0.000146049
4 *1296:D *1294:C1 0
5 *1296:D *1308:A 0.000650234
6 *1296:D *1360:A0 3.92854e-05
7 *1296:D *1418:CLK 0
8 *1296:D *1483:A 3.34295e-05
9 *1296:D *1502:A 0.000181796
10 *1296:D *187:8 1.87097e-05
11 *1296:D *189:12 0
12 *1296:D *192:81 2.65105e-05
13 *1296:D *195:56 0.000451718
14 *1296:D *273:14 0.000125241
15 *1296:D *281:154 1.65337e-05
16 *1487:A *1296:D 5.33005e-05
*RES
1 *1295:X *1296:D 48.7964 
*END

*D_NET *123 0.00166268
*CONN
*I *1325:C I *D sky130_fd_sc_hd__and4_1
*I *1318:B I *D sky130_fd_sc_hd__and3_1
*I *1296:X O *D sky130_fd_sc_hd__and4_1
*CAP
1 *1325:C 7.91542e-05
2 *1318:B 5.39797e-05
3 *1296:X 0.000158756
4 *123:8 0.00029189
5 *1318:B *1318:C 0.000123288
6 *1325:C *1318:C 7.6644e-05
7 *1325:C *144:8 1.12323e-05
8 *123:8 *1308:A 0.000438745
9 *123:8 *192:53 3.97677e-05
10 *123:8 *204:35 0.00026353
11 *1318:A *1318:B 6.32633e-05
12 *1318:A *1325:C 4.02277e-05
13 *105:12 *1325:C 2.21972e-05
*RES
1 *1296:X *123:8 18.4429 
2 *123:8 *1318:B 15.4429 
3 *123:8 *1325:C 15.8 
*END

*D_NET *124 0.00100151
*CONN
*I *1300:C I *D sky130_fd_sc_hd__and3b_1
*I *1297:Y O *D sky130_fd_sc_hd__xnor2_1
*CAP
1 *1300:C 0.000258417
2 *1297:Y 0.000258417
3 *1300:C *1300:B 0.000101545
4 *1300:C *189:77 1.78874e-05
5 *1300:C *193:74 3.34783e-05
6 *1300:C *281:49 2.09897e-05
7 *1300:C *301:16 3.75052e-05
8 *109:18 *1300:C 0.000273269
*RES
1 *1297:Y *1300:C 32.4393 
*END

*D_NET *125 0.000449617
*CONN
*I *1300:A_N I *D sky130_fd_sc_hd__and3b_1
*I *1298:X O *D sky130_fd_sc_hd__a22o_1
*CAP
1 *1300:A_N 9.15372e-05
2 *1298:X 9.15372e-05
3 *1300:A_N *176:34 6.65398e-05
4 *1300:A_N *189:77 0.00010096
5 *1300:A_N *193:74 0
6 *1300:A_N *281:49 9.90431e-05
*RES
1 *1298:X *1300:A_N 30.1893 
*END

*D_NET *126 0.00150422
*CONN
*I *1300:B I *D sky130_fd_sc_hd__and3b_1
*I *1299:X O *D sky130_fd_sc_hd__o221a_1
*CAP
1 *1300:B 0.000373353
2 *1299:X 0.000373353
3 *1300:B *1270:A 7.4826e-05
4 *1300:B *1270:B 0
5 *1300:B *1377:A0 0.000227532
6 *1300:B *189:77 8.26012e-05
7 *1300:B *193:74 0.000245349
8 *1271:B1 *1300:B 2.56601e-05
9 *1300:C *1300:B 0.000101545
*RES
1 *1299:X *1300:B 35.2964 
*END

*D_NET *127 0.00347234
*CONN
*I *1317:A I *D sky130_fd_sc_hd__nor4_1
*I *1300:X O *D sky130_fd_sc_hd__and3b_1
*CAP
1 *1317:A 0.0014425
2 *1300:X 0.0014425
3 *1317:A *1428:RESET_B 7.07903e-05
4 *1317:A *1432:CLK 0.000131511
5 *1317:A *180:20 2.61337e-05
6 *1317:A *189:77 6.05161e-06
7 *1317:A *200:12 1.63058e-05
8 *1317:A *200:26 0.000210476
9 *1317:A *262:87 8.71989e-05
10 *1317:A *281:49 3.99614e-06
11 *1317:A *307:10 3.4879e-05
*RES
1 *1300:X *1317:A 49.0821 
*END

*D_NET *128 0.000308327
*CONN
*I *1304:B1 I *D sky130_fd_sc_hd__o221a_1
*I *1301:X O *D sky130_fd_sc_hd__and2_1
*CAP
1 *1304:B1 4.8218e-05
2 *1301:X 4.8218e-05
3 *1304:B1 *1304:C1 3.76337e-05
4 *1304:B1 *194:74 0.00014285
5 *1304:B1 *199:30 3.14078e-05
6 *1304:B1 *281:98 0
*RES
1 *1301:X *1304:B1 20.3857 
*END

*D_NET *129 0.000513825
*CONN
*I *1304:B2 I *D sky130_fd_sc_hd__o221a_1
*I *1302:Y O *D sky130_fd_sc_hd__nor2_1
*CAP
1 *1304:B2 0.00014601
2 *1302:Y 0.00014601
3 *1304:B2 *1372:A0 9.60875e-05
4 *1304:B2 *180:64 0
5 *1304:B2 *194:74 0.000125717
*RES
1 *1302:Y *1304:B2 30.1893 
*END

*D_NET *130 0.000376737
*CONN
*I *1305:B1 I *D sky130_fd_sc_hd__o211a_1
*I *1303:X O *D sky130_fd_sc_hd__o2bb2a_1
*CAP
1 *1305:B1 6.29708e-05
2 *1303:X 6.29708e-05
3 *1305:B1 *1305:A2 5.96006e-05
4 *1278:C *1305:B1 0.000138881
5 *1303:A1_N *1305:B1 5.23142e-05
*RES
1 *1303:X *1305:B1 20.6893 
*END

*D_NET *131 0.00245856
*CONN
*I *1305:C1 I *D sky130_fd_sc_hd__o211a_1
*I *1304:X O *D sky130_fd_sc_hd__o221a_1
*CAP
1 *1305:C1 0.000669426
2 *1304:X 0.000669426
3 *1305:C1 *1260:C1 0.000289682
4 *1305:C1 *1426:D 5.33005e-05
5 *1305:C1 *180:10 0
6 *1305:C1 *188:42 0.000125217
7 *1305:C1 *188:59 0.00018524
8 *1305:C1 *190:58 8.22793e-06
9 *1305:C1 *190:81 0
10 *1305:C1 *192:29 0.000221299
11 *1305:C1 *281:107 0.000236746
*RES
1 *1304:X *1305:C1 43.7964 
*END

*D_NET *132 0.000308816
*CONN
*I *1317:B I *D sky130_fd_sc_hd__nor4_1
*I *1305:X O *D sky130_fd_sc_hd__o211a_1
*CAP
1 *1317:B 3.66684e-05
2 *1305:X 3.66684e-05
3 *1317:B *1370:A0 2.72449e-05
4 *1317:B *307:10 7.83659e-05
5 *105:12 *1317:B 0.000129868
*RES
1 *1305:X *1317:B 29.2429 
*END

*D_NET *133 0.00309154
*CONN
*I *1311:C I *D sky130_fd_sc_hd__and3b_1
*I *1306:X O *D sky130_fd_sc_hd__or2_1
*CAP
1 *1311:C 0.000904167
2 *1306:X 0.000904167
3 *1311:C *1306:A 2.17375e-05
4 *1311:C *1391:A0 0.000404707
5 *1311:C *1391:S 0.000534464
6 *1311:C *1392:A1 0.000138574
7 *1311:C *1451:D 0.00018372
*RES
1 *1306:X *1311:C 34.8857 
*END

*D_NET *134 0.00236833
*CONN
*I *1310:B1 I *D sky130_fd_sc_hd__o221a_1
*I *1307:Y O *D sky130_fd_sc_hd__nor2_1
*CAP
1 *1310:B1 0.000613066
2 *1307:Y 0.000613066
3 *1310:B1 *1265:B2 0.000269258
4 *1310:B1 *1404:A1 0.000199223
5 *1310:B1 *1451:CLK 1.77672e-05
6 *1310:B1 *1557:A 0
7 *1310:B1 *182:8 8.78006e-05
8 *1310:B1 *182:68 3.98131e-05
9 *1310:B1 *192:106 0
10 *1310:B1 *321:14 0.00052833
*RES
1 *1307:Y *1310:B1 41.1179 
*END

*D_NET *135 0.000411422
*CONN
*I *1310:B2 I *D sky130_fd_sc_hd__o221a_1
*I *1308:X O *D sky130_fd_sc_hd__and2_1
*CAP
1 *1310:B2 0.000196071
2 *1308:X 0.000196071
3 *1310:B2 *1310:A2 1.92789e-05
*RES
1 *1308:X *1310:B2 21.6179 
*END

*D_NET *136 0.0010893
*CONN
*I *1311:A_N I *D sky130_fd_sc_hd__and3b_1
*I *1309:X O *D sky130_fd_sc_hd__a22o_1
*CAP
1 *1311:A_N 0.000297967
2 *1309:X 0.000297967
3 *1311:A_N *1311:B 3.34295e-05
4 *1311:A_N *1455:CLK 1.54142e-05
5 *1311:A_N *187:52 0.000139907
6 *1311:A_N *192:106 2.05938e-05
7 *1311:A_N *318:20 0.00018077
8 *1309:B2 *1311:A_N 0.000103253
*RES
1 *1309:X *1311:A_N 32.35 
*END

*D_NET *137 0.000646948
*CONN
*I *1311:B I *D sky130_fd_sc_hd__and3b_1
*I *1310:X O *D sky130_fd_sc_hd__o221a_1
*CAP
1 *1311:B 0.00018786
2 *1310:X 0.00018786
3 *1311:B *1391:S 4.88515e-05
4 *1311:B *192:106 0.000103275
5 *1309:B2 *1311:B 8.56716e-05
6 *1311:A_N *1311:B 3.34295e-05
*RES
1 *1310:X *1311:B 31.5107 
*END

*D_NET *138 0.00501019
*CONN
*I *1317:C I *D sky130_fd_sc_hd__nor4_1
*I *1311:X O *D sky130_fd_sc_hd__and3b_1
*CAP
1 *1317:C 0
2 *1311:X 0.00197203
3 *138:12 0.00197203
4 *138:12 *1391:S 6.62983e-05
5 *138:12 *1483:A 1.04066e-05
6 *138:12 *144:8 3.92854e-05
7 *1296:C *138:12 0.000604622
8 *105:12 *138:12 8.00806e-05
9 *109:18 *138:12 0.000265447
*RES
1 *1311:X *138:12 44.925 
2 *138:12 *1317:C 9.3 
*END

*D_NET *139 0.00135659
*CONN
*I *1316:B1 I *D sky130_fd_sc_hd__o211a_1
*I *1312:X O *D sky130_fd_sc_hd__o2bb2a_1
*CAP
1 *1316:B1 0.00033161
2 *1312:X 0.00033161
3 *1316:B1 *1312:B2 6.81083e-05
4 *1316:B1 *1316:A2 4.04514e-05
5 *1316:B1 *1367:A0 0.000221641
6 *1316:B1 *1367:S 0
7 *1316:B1 *1422:CLK 0.000225609
8 *1316:B1 *191:32 5.59013e-05
9 *94:18 *1316:B1 8.16625e-05
*RES
1 *1312:X *1316:B1 34.042 
*END

*D_NET *140 0.00185736
*CONN
*I *1315:B1 I *D sky130_fd_sc_hd__o221a_1
*I *1313:Y O *D sky130_fd_sc_hd__nor2_1
*CAP
1 *1315:B1 0.000473277
2 *1313:Y 0.000473277
3 *1315:B1 *1314:B 0
4 *1315:B1 *1315:A1 3.18676e-05
5 *1315:B1 *1315:B2 9.16931e-05
6 *1315:B1 *1315:C1 0.000249486
7 *1315:B1 *183:16 2.59093e-05
8 *1315:B1 *183:51 1.08359e-05
9 *1315:B1 *194:89 0.00018099
10 *1315:B1 *194:102 0.000320024
*RES
1 *1313:Y *1315:B1 36.35 
*END

*D_NET *141 0.000397528
*CONN
*I *1315:B2 I *D sky130_fd_sc_hd__o221a_1
*I *1314:X O *D sky130_fd_sc_hd__and2_1
*CAP
1 *1315:B2 9.76746e-05
2 *1314:X 9.76746e-05
3 *1315:B2 *1315:A1 1.79687e-05
4 *1315:B2 *183:8 1.24368e-05
5 *1315:B2 *183:16 1.02504e-05
6 *1315:B2 *183:51 6.98302e-05
7 *1315:B1 *1315:B2 9.16931e-05
*RES
1 *1314:X *1315:B2 30.0286 
*END

*D_NET *142 0.00210022
*CONN
*I *1316:C1 I *D sky130_fd_sc_hd__o211a_1
*I *1315:X O *D sky130_fd_sc_hd__o221a_1
*CAP
1 *1316:C1 0.000647349
2 *1315:X 0.000647349
3 *1316:C1 *1254:A 0
4 *1316:C1 *1312:A2_N 6.49413e-05
5 *1316:C1 *1312:B1 8.2395e-05
6 *1316:C1 *1425:RESET_B 5.75896e-05
7 *1316:C1 *183:8 2.61853e-05
8 *1316:C1 *183:16 0
9 *1316:C1 *189:30 0.000409889
10 *1316:C1 *195:56 0
11 *1316:C1 *202:69 8.71535e-05
12 *1316:C1 *308:12 0
13 *1316:C1 *310:21 7.73662e-05
14 *1422:D *1316:C1 0
*RES
1 *1315:X *1316:C1 41.4393 
*END

*D_NET *143 0.00129424
*CONN
*I *1317:D I *D sky130_fd_sc_hd__nor4_1
*I *1316:X O *D sky130_fd_sc_hd__o211a_1
*CAP
1 *1317:D 0.000452448
2 *1316:X 0.000452448
3 *1317:D *190:46 0
4 *1317:D *191:32 0.000150625
5 *70:39 *1317:D 0.000238718
*RES
1 *1316:X *1317:D 36.6714 
*END

*D_NET *144 0.00154453
*CONN
*I *1325:D I *D sky130_fd_sc_hd__and4_1
*I *1318:C I *D sky130_fd_sc_hd__and3_1
*I *1317:Y O *D sky130_fd_sc_hd__nor4_1
*CAP
1 *1325:D 4.36033e-05
2 *1318:C 0.000139005
3 *1317:Y 0.000104574
4 *144:8 0.000287182
5 *1318:C *176:10 6.8646e-06
6 *1325:D *1484:A 5.33005e-05
7 *1318:A *1318:C 3.38136e-05
8 *1318:B *1318:C 0.000123288
9 *1325:C *1318:C 7.6644e-05
10 *1325:C *144:8 1.12323e-05
11 *70:27 *1318:C 3.99846e-05
12 *70:31 *1318:C 0.000261227
13 *70:31 *144:8 0.000265385
14 *105:12 *144:8 5.91379e-05
15 *138:12 *144:8 3.92854e-05
*RES
1 *1317:Y *144:8 17.2643 
2 *144:8 *1318:C 17.9607 
3 *144:8 *1325:D 14.3357 
*END

*D_NET *145 0.00284676
*CONN
*I *1320:A_N I *D sky130_fd_sc_hd__and2b_1
*I *1318:X O *D sky130_fd_sc_hd__and3_1
*CAP
1 *1320:A_N 0.000881248
2 *1318:X 0.000881248
3 *1320:A_N *1274:A 0
4 *1320:A_N *1326:A0 0
5 *1320:A_N *1328:A0 0
6 *1320:A_N *1406:RESET_B 0.000129636
7 *1320:A_N *1454:D 0
8 *1320:A_N *1454:RESET_B 0.000257075
9 *1320:A_N *1492:A 0
10 *1320:A_N *146:12 3.34295e-05
11 *1320:A_N *176:10 0.000243828
12 *1320:A_N *181:37 0
13 *1320:A_N *281:139 0.000420293
*RES
1 *1318:X *1320:A_N 46.7786 
*END

*D_NET *146 0.0122721
*CONN
*I *1399:C I *D sky130_fd_sc_hd__and3_1
*I *1347:C1 I *D sky130_fd_sc_hd__o311a_1
*I *1348:B1 I *D sky130_fd_sc_hd__o2bb2a_1
*I *1354:B1 I *D sky130_fd_sc_hd__o31a_1
*I *1355:B1 I *D sky130_fd_sc_hd__o2bb2a_1
*I *1398:B I *D sky130_fd_sc_hd__xnor2_1
*I *1340:A I *D sky130_fd_sc_hd__nand2_1
*I *1341:B1 I *D sky130_fd_sc_hd__o32a_1
*I *1400:A2 I *D sky130_fd_sc_hd__a21oi_1
*I *1320:B I *D sky130_fd_sc_hd__and2b_1
*I *1319:X O *D sky130_fd_sc_hd__or2_2
*CAP
1 *1399:C 0
2 *1347:C1 3.21587e-05
3 *1348:B1 0
4 *1354:B1 0
5 *1355:B1 0.000114055
6 *1398:B 0.000613957
7 *1340:A 0
8 *1341:B1 5.45676e-05
9 *1400:A2 0.000305027
10 *1320:B 0
11 *1319:X 0.000174768
12 *146:127 0.000435335
13 *146:94 0.00108842
14 *146:88 0.000594809
15 *146:78 0.00119236
16 *146:56 0.000109561
17 *146:52 0.000940937
18 *146:46 0.000401486
19 *146:23 0.00128526
20 *146:12 0.000920877
21 *1341:B1 *1341:A3 5.17614e-05
22 *1341:B1 *1341:B2 0.0001616
23 *1347:C1 *1347:A3 1.3701e-05
24 *1355:B1 *1347:A3 5.00917e-05
25 *1355:B1 *1353:B 1.8461e-05
26 *1355:B1 *1354:A1 1.55885e-05
27 *1355:B1 *1354:A3 5.52238e-05
28 *1355:B1 *1355:A1_N 5.71472e-05
29 *1355:B1 *1355:B2 9.90367e-05
30 *1398:B *1342:A 6.15612e-05
31 *1398:B *1351:A 1.24368e-05
32 *1398:B *1353:A 0.000293415
33 *1398:B *155:10 0.000102919
34 *1398:B *155:19 1.3142e-05
35 *1398:B *287:26 0.000213384
36 *1400:A2 *1401:B 4.46186e-06
37 *1400:A2 *1402:B 0.00010096
38 *1400:A2 *198:44 7.22594e-05
39 *1400:A2 *198:50 9.25014e-06
40 *1400:A2 *287:12 0.000109856
41 *1400:A2 *287:20 1.3701e-05
42 *146:12 *1319:B 0
43 *146:12 *1460:CLK 0
44 *146:12 *181:37 0
45 *146:23 *1319:B 5.39629e-06
46 *146:23 *1461:RESET_B 3.40725e-05
47 *146:46 *1401:A 5.71472e-05
48 *146:46 *1401:B 7.38652e-05
49 *146:46 *198:44 0.000173797
50 *146:52 *1340:B 0
51 *146:52 *1399:B 1.72894e-05
52 *146:52 *198:44 0
53 *146:56 *1341:B2 7.03295e-05
54 *146:78 *1408:D 0
55 *146:78 *1409:CLK 1.92905e-05
56 *146:78 *1459:CLK 4.8843e-05
57 *146:78 *198:44 0
58 *146:88 *1347:A1 9.90431e-05
59 *146:88 *1347:A3 0.000403085
60 *146:88 *1348:A1_N 0.000114727
61 *146:88 *1348:A2_N 2.47186e-05
62 *146:88 *1348:B2 9.90367e-05
63 *146:88 *1459:CLK 1.92905e-05
64 *146:94 *1347:A3 0.000171666
65 *146:94 *1353:A 4.90803e-05
66 *146:127 *1347:A3 5.90455e-05
67 *146:127 *1353:A 1.21258e-05
68 *146:127 *1353:B 8.97257e-05
69 *146:127 *1354:A1 7.6997e-05
70 *146:127 *1354:A3 7.45886e-05
71 *1320:A_N *146:12 3.34295e-05
72 *1334:B *1398:B 0.000150618
73 *1337:A1 *1398:B 5.63882e-05
74 *1402:A *1400:A2 0.000155374
75 *1409:D *146:78 0
76 *1410:D *146:88 4.46186e-06
77 *1460:D *146:46 2.40379e-05
78 *1461:D *1400:A2 0.000192582
79 *1461:D *146:23 6.85301e-05
*RES
1 *1319:X *146:12 21.3893 
2 *146:12 *1320:B 9.3 
3 *146:12 *146:23 13.6786 
4 *146:23 *1400:A2 21.6929 
5 *146:23 *146:46 9.60714 
6 *146:46 *146:52 7.125 
7 *146:52 *146:56 5.85714 
8 *146:56 *1341:B1 11.5143 
9 *146:56 *1340:A 9.3 
10 *146:52 *146:78 14.25 
11 *146:78 *146:88 17.2679 
12 *146:88 *146:94 8.23214 
13 *146:94 *1398:B 34.9964 
14 *146:94 *146:127 18.0714 
15 *146:127 *1355:B1 12.3179 
16 *146:127 *1354:B1 9.3 
17 *146:88 *1348:B1 9.3 
18 *146:78 *1347:C1 10.0321 
19 *146:46 *1399:C 9.3 
*END

*D_NET *147 0.00593539
*CONN
*I *1338:B1 I *D sky130_fd_sc_hd__a21o_1
*I *1345:B1 I *D sky130_fd_sc_hd__a211o_1
*I *1324:A I *D sky130_fd_sc_hd__nand2_1
*I *1322:X O *D sky130_fd_sc_hd__or2_1
*CAP
1 *1338:B1 0.000203992
2 *1345:B1 2.03441e-05
3 *1324:A 0.000145793
4 *1322:X 0
5 *147:29 0.00127112
6 *147:4 0.00119258
7 *1324:A *1324:B 0.000118197
8 *1338:B1 *1338:A1 0.000140885
9 *1338:B1 *285:33 0.000193374
10 *1338:B1 *285:35 4.58976e-05
11 *1338:B1 *285:64 9.71123e-06
12 *1338:B1 *287:16 5.59013e-05
13 *1338:B1 *287:20 5.23057e-05
14 *1345:B1 *1331:A 0
15 *1345:B1 *1331:B 0
16 *1345:B1 *1345:A1 5.7661e-06
17 *147:29 *1324:B 5.52238e-05
18 *147:29 *1331:A 2.89016e-05
19 *147:29 *1331:B 5.65357e-05
20 *147:29 *1337:B1 0.000699134
21 *147:29 *1342:A 0.000140088
22 *147:29 *1351:A 2.97829e-05
23 *147:29 *1413:RESET_B 2.52688e-05
24 *147:29 *158:10 9.83442e-05
25 *147:29 *285:35 0.000102207
26 *147:29 *287:24 1.21289e-05
27 *147:29 *287:26 9.43439e-05
28 *1345:A2 *1338:B1 9.90367e-05
29 *1413:D *147:29 2.56601e-05
30 *75:10 *1338:B1 0.000569207
31 *75:10 *147:29 0.00044366
*RES
1 *1322:X *147:4 9.3 
2 *147:4 *1324:A 11.8179 
3 *147:4 *147:29 27.5714 
4 *147:29 *1345:B1 9.72857 
5 *147:29 *1338:B1 26.3179 
*END

*D_NET *148 0.00399225
*CONN
*I *1332:A I *D sky130_fd_sc_hd__or3_1
*I *1342:A I *D sky130_fd_sc_hd__or2_1
*I *1324:B I *D sky130_fd_sc_hd__nand2_1
*I *1323:Y O *D sky130_fd_sc_hd__nand2_1
*CAP
1 *1332:A 0.000127835
2 *1342:A 0.000126377
3 *1324:B 0.000168759
4 *1323:Y 0
5 *148:21 0.000819107
6 *148:4 0.000733655
7 *1324:B *1322:A 3.48705e-05
8 *1332:A *1339:B1 0.000275845
9 *1332:A *1348:A2_N 1.02936e-05
10 *1332:A *152:20 0.000276258
11 *1332:A *286:58 1.33343e-05
12 *1342:A *1343:B2 0.000101227
13 *1342:A *158:10 1.08936e-05
14 *1342:A *287:26 0.000143652
15 *148:21 *1336:B1 5.90825e-05
16 *148:21 *1349:B1 1.59373e-05
17 *148:21 *1350:D 3.08664e-05
18 *148:21 *1352:A2 0.000226513
19 *148:21 *152:20 0.00016954
20 *148:21 *152:28 9.77423e-05
21 *148:21 *289:34 7.22199e-05
22 *1322:B *1324:B 2.28499e-05
23 *1324:A *1324:B 0.000118197
24 *1334:B *1342:A 1.15916e-05
25 *1398:B *1342:A 6.15612e-05
26 *11:29 *1324:B 5.33005e-05
27 *11:29 *148:21 1.5424e-05
28 *147:29 *1324:B 5.52238e-05
29 *147:29 *1342:A 0.000140088
*RES
1 *1323:Y *148:4 9.3 
2 *148:4 *1324:B 13.0321 
3 *148:4 *148:21 9.73214 
4 *148:21 *1342:A 21.9071 
5 *148:21 *1332:A 13.2643 
*END

*D_NET *149 0.00144712
*CONN
*I *1484:A I *D sky130_fd_sc_hd__clkbuf_2
*I *1325:X O *D sky130_fd_sc_hd__and4_1
*CAP
1 *1484:A 0.000205209
2 *1325:X 0.000205209
3 *1484:A *1308:A 0.000525381
4 *1484:A *188:21 0.000315165
5 *1484:A *193:102 0.000142856
6 *1325:D *1484:A 5.33005e-05
*RES
1 *1325:X *1484:A 24.8857 
*END

*D_NET *150 0.00406445
*CONN
*I *1333:A2 I *D sky130_fd_sc_hd__a21oi_1
*I *1347:A1 I *D sky130_fd_sc_hd__o311a_1
*I *1342:B I *D sky130_fd_sc_hd__or2_1
*I *1350:C I *D sky130_fd_sc_hd__or4_1
*I *1329:Y O *D sky130_fd_sc_hd__nor2_1
*CAP
1 *1333:A2 0
2 *1347:A1 0.000246592
3 *1342:B 0.000241447
4 *1350:C 0.000643539
5 *1329:Y 0
6 *150:38 0.00036642
7 *150:21 0.000414064
8 *150:4 0.000696328
9 *1342:B *1345:C1 0
10 *1342:B *152:12 0.000146474
11 *1342:B *286:58 6.42242e-05
12 *1342:B *286:66 0.000126446
13 *1347:A1 *1345:C1 2.69614e-05
14 *1347:A1 *1347:A2 0
15 *1347:A1 *1347:A3 4.06366e-05
16 *1347:A1 *1348:A1_N 4.88637e-05
17 *1347:A1 *1348:A2_N 0.000177227
18 *1350:C *1335:A2 0.000225995
19 *1350:C *1336:B1 0
20 *1350:C *1341:A2 2.64384e-05
21 *1350:C *152:28 0
22 *1350:C *155:23 8.2607e-05
23 *1350:C *288:41 0.000127446
24 *150:21 *1341:A2 1.15172e-05
25 *150:21 *286:58 5.33005e-05
26 *150:38 *1341:A2 1.97865e-05
27 *150:38 *151:8 0
28 *150:38 *286:58 9.71197e-05
29 *1329:A *1342:B 9.10431e-06
30 *1334:B *1342:B 1.65558e-05
31 *75:31 *1342:B 5.63101e-05
32 *146:88 *1347:A1 9.90431e-05
*RES
1 *1329:Y *150:4 9.3 
2 *150:4 *1350:C 27.0679 
3 *150:4 *150:21 0.946429 
4 *150:21 *1342:B 23.5143 
5 *150:21 *150:38 2.19643 
6 *150:38 *1347:A1 23.8714 
7 *150:38 *1333:A2 9.3 
*END

*D_NET *151 0.00194647
*CONN
*I *1344:B I *D sky130_fd_sc_hd__nor2_1
*I *1347:A2 I *D sky130_fd_sc_hd__o311a_1
*I *1332:B I *D sky130_fd_sc_hd__or3_1
*I *1330:Y O *D sky130_fd_sc_hd__nor2_1
*CAP
1 *1344:B 0
2 *1347:A2 0.000100643
3 *1332:B 0.00042829
4 *1330:Y 5.24175e-05
5 *151:10 0.000528933
6 *151:8 5.24175e-05
7 *1332:B *1339:B2 4.04292e-05
8 *1332:B *1344:A 8.18848e-05
9 *1332:B *1345:C1 1.26352e-05
10 *1332:B *152:12 2.07158e-05
11 *1332:B *286:46 0.000161433
12 *1347:A2 *1345:C1 2.07158e-05
13 *1347:A2 *1347:B1 8.2395e-05
14 *151:8 *1333:A1 0.000107865
15 *151:8 *1341:A1 4.58194e-05
16 *1330:B *1332:B 0.000114045
17 *1330:B *1347:A2 1.02504e-05
18 *1347:A1 *1347:A2 0
19 *76:10 *1332:B 8.55772e-05
20 *150:38 *151:8 0
*RES
1 *1330:Y *151:8 10.675 
2 *151:8 *151:10 4.5 
3 *151:10 *1332:B 24.5292 
4 *151:10 *1347:A2 16.05 
5 *151:8 *1344:B 9.3 
*END

*D_NET *152 0.0037033
*CONN
*I *1332:C I *D sky130_fd_sc_hd__or3_1
*I *1349:A1 I *D sky130_fd_sc_hd__o21a_1
*I *1354:A1 I *D sky130_fd_sc_hd__o31a_1
*I *1335:A1 I *D sky130_fd_sc_hd__o21ai_1
*I *1336:A1 I *D sky130_fd_sc_hd__o211a_1
*I *1331:Y O *D sky130_fd_sc_hd__nor2_1
*CAP
1 *1332:C 0
2 *1349:A1 0
3 *1354:A1 0.000274847
4 *1335:A1 5.16427e-05
5 *1336:A1 0
6 *1331:Y 0.000152561
7 *152:39 0.000480217
8 *152:28 0.0002928
9 *152:20 0.000293363
10 *152:12 0.000306851
11 *1335:A1 *1336:B1 3.4846e-06
12 *1335:A1 *288:41 1.76039e-05
13 *1354:A1 *1347:A3 0.000134773
14 *1354:A1 *1355:B2 0
15 *1354:A1 *166:12 7.83366e-05
16 *152:20 *1343:A2 9.96411e-06
17 *152:20 *1343:B2 5.49489e-05
18 *152:20 *1348:A2_N 2.55226e-05
19 *152:20 *1349:B1 7.43578e-06
20 *152:20 *286:58 1.04232e-05
21 *152:20 *286:66 3.01392e-05
22 *152:20 *286:68 0.000146579
23 *152:28 *1336:B1 6.93944e-05
24 *152:28 *1349:B1 4.87953e-05
25 *152:28 *1353:B 2.36422e-05
26 *152:28 *155:10 3.27526e-05
27 *152:28 *155:19 0.000135444
28 *152:28 *288:41 0
29 *152:39 *1335:A2 2.8078e-05
30 *152:39 *1336:A2 1.02132e-05
31 *152:39 *1336:C1 0.000106638
32 *152:39 *155:23 1.83053e-05
33 *1332:A *152:20 0.000276258
34 *1332:B *152:12 2.07158e-05
35 *1342:B *152:12 0.000146474
36 *1350:C *152:28 0
37 *1355:B1 *1354:A1 1.55885e-05
38 *75:10 *152:12 5.52302e-05
39 *146:127 *1354:A1 7.6997e-05
40 *148:21 *152:20 0.00016954
41 *148:21 *152:28 9.77423e-05
*RES
1 *1331:Y *152:12 20.7821 
2 *152:12 *152:20 5.32143 
3 *152:20 *152:28 12.5 
4 *152:28 *1336:A1 9.3 
5 *152:28 *152:39 7.41071 
6 *152:39 *1335:A1 14.5321 
7 *152:39 *1354:A1 18.7464 
8 *152:20 *1349:A1 9.3 
9 *152:12 *1332:C 9.3 
*END

*D_NET *153 0.000441583
*CONN
*I *1333:B1 I *D sky130_fd_sc_hd__a21oi_1
*I *1332:X O *D sky130_fd_sc_hd__or3_1
*CAP
1 *1333:B1 0.000119435
2 *1332:X 0.000119435
3 *1333:B1 *1344:A 5.01213e-05
4 *1333:B1 *1345:C1 0.000100831
5 *1333:B1 *286:58 5.17614e-05
*RES
1 *1332:X *1333:B1 29.8857 
*END

*D_NET *154 0.00115057
*CONN
*I *1341:A1 I *D sky130_fd_sc_hd__o32a_1
*I *1333:Y O *D sky130_fd_sc_hd__a21oi_1
*CAP
1 *1341:A1 0.000185849
2 *1333:Y 0.000185849
3 *1341:A1 *1333:A1 6.75805e-05
4 *1341:A1 *1341:A2 0.000520539
5 *1341:A1 *1341:B2 3.99614e-06
6 *1341:A1 *285:83 0.000140933
7 *151:8 *1341:A1 4.58194e-05
*RES
1 *1333:Y *1341:A1 24.5107 
*END

*D_NET *155 0.00295336
*CONN
*I *1353:B I *D sky130_fd_sc_hd__nor2_1
*I *1336:A2 I *D sky130_fd_sc_hd__o211a_1
*I *1335:A2 I *D sky130_fd_sc_hd__o21ai_1
*I *1349:A2 I *D sky130_fd_sc_hd__o21a_1
*I *1334:Y O *D sky130_fd_sc_hd__nor2_1
*CAP
1 *1353:B 0.000189852
2 *1336:A2 1.05101e-05
3 *1335:A2 6.8365e-05
4 *1349:A2 0
5 *1334:Y 0.000356159
6 *155:23 0.000116566
7 *155:19 0.000282468
8 *155:10 0.000411086
9 *1335:A2 *1336:C1 0.000112627
10 *1335:A2 *1352:A1 0
11 *1335:A2 *1352:B1 0
12 *1336:A2 *1336:C1 5.96135e-06
13 *1353:B *1347:A3 4.73286e-05
14 *1353:B *1353:A 0.000321931
15 *1353:B *1354:A3 1.32056e-05
16 *155:10 *288:10 0
17 *155:10 *288:30 0
18 *155:10 *288:41 0
19 *155:19 *1353:A 0.00012401
20 *1334:A *155:10 3.1367e-05
21 *1337:A1 *155:10 8.06427e-05
22 *1350:C *1335:A2 0.000225995
23 *1350:C *155:23 8.2607e-05
24 *1355:B1 *1353:B 1.8461e-05
25 *1398:B *155:10 0.000102919
26 *1398:B *155:19 1.3142e-05
27 *146:127 *1353:B 8.97257e-05
28 *152:28 *1353:B 2.36422e-05
29 *152:28 *155:10 3.27526e-05
30 *152:28 *155:19 0.000135444
31 *152:39 *1335:A2 2.8078e-05
32 *152:39 *1336:A2 1.02132e-05
33 *152:39 *155:23 1.83053e-05
*RES
1 *1334:Y *155:10 20.0321 
2 *155:10 *1349:A2 13.8 
3 *155:10 *155:19 1.94643 
4 *155:19 *155:23 5.44643 
5 *155:23 *1335:A2 11.9071 
6 *155:23 *1336:A2 9.72857 
7 *155:19 *1353:B 18.8536 
*END

*D_NET *156 0.000459608
*CONN
*I *1352:A1 I *D sky130_fd_sc_hd__a32o_1
*I *1335:Y O *D sky130_fd_sc_hd__o21ai_1
*CAP
1 *1352:A1 0.000181401
2 *1335:Y 0.000181401
3 *1352:A1 *1346:B 3.14592e-05
4 *1352:A1 *1352:B2 2.89016e-05
5 *1352:A1 *288:45 3.64465e-05
6 *1335:A2 *1352:A1 0
*RES
1 *1335:Y *1352:A1 21.2071 
*END

*D_NET *157 0.00245419
*CONN
*I *1341:A2 I *D sky130_fd_sc_hd__o32a_1
*I *1336:X O *D sky130_fd_sc_hd__o211a_1
*CAP
1 *1341:A2 0.000787896
2 *1336:X 0.000787896
3 *1341:A2 *1333:A1 7.52646e-06
4 *1341:A2 *1345:C1 9.71197e-05
5 *1341:A2 *286:58 5.06983e-05
6 *1341:A1 *1341:A2 0.000520539
7 *1350:C *1341:A2 2.64384e-05
8 *1409:D *1341:A2 0.000144773
9 *150:21 *1341:A2 1.15172e-05
10 *150:38 *1341:A2 1.97865e-05
*RES
1 *1336:X *1341:A2 31.1893 
*END

*D_NET *158 0.00239354
*CONN
*I *1343:B1 I *D sky130_fd_sc_hd__a22o_1
*I *1339:B1 I *D sky130_fd_sc_hd__a22o_1
*I *1337:X O *D sky130_fd_sc_hd__a211o_1
*CAP
1 *1343:B1 3.09244e-05
2 *1339:B1 0.000493406
3 *1337:X 8.99801e-05
4 *158:10 0.00061431
5 *1339:B1 *1339:A1 1.1147e-05
6 *1339:B1 *1339:B2 8.58444e-05
7 *1339:B1 *286:58 0.00024487
8 *1343:B1 *1343:B2 6.69638e-05
9 *158:10 *1343:B2 7.85137e-05
10 *1332:A *1339:B1 0.000275845
11 *1334:B *158:10 9.11048e-06
12 *1339:A2 *1339:B1 9.41642e-05
13 *1342:A *158:10 1.08936e-05
14 *75:31 *1343:B1 7.70035e-05
15 *75:31 *158:10 9.06059e-05
16 *76:8 *1339:B1 2.16156e-05
17 *147:29 *158:10 9.83442e-05
*RES
1 *1337:X *158:10 16.0857 
2 *158:10 *1339:B1 23.5143 
3 *158:10 *1343:B1 14.8357 
*END

*D_NET *159 0.00110746
*CONN
*I *1339:B2 I *D sky130_fd_sc_hd__a22o_1
*I *1338:X O *D sky130_fd_sc_hd__a21o_1
*CAP
1 *1339:B2 0.000340527
2 *1338:X 0.000340527
3 *1339:B2 *1344:A 7.79395e-05
4 *1339:B2 *285:27 2.89114e-05
5 *1332:B *1339:B2 4.04292e-05
6 *1339:A2 *1339:B2 0.000141506
7 *1339:B1 *1339:B2 8.58444e-05
8 *1345:A2 *1339:B2 1.7845e-05
9 *76:8 *1339:B2 3.29418e-05
10 *76:10 *1339:B2 9.86249e-07
*RES
1 *1338:X *1339:B2 33.2607 
*END

*D_NET *160 0.000939521
*CONN
*I *1340:B I *D sky130_fd_sc_hd__nand2_1
*I *1339:X O *D sky130_fd_sc_hd__a22o_1
*CAP
1 *1340:B 0.000402785
2 *1339:X 0.000402785
3 *1340:B *1338:A1 2.89114e-05
4 *1340:B *1399:A 6.05161e-06
5 *1340:B *285:27 9.89883e-05
6 *1340:B *285:83 0
7 *146:52 *1340:B 0
*RES
1 *1339:X *1340:B 32.6536 
*END

*D_NET *161 0.000298377
*CONN
*I *1341:A3 I *D sky130_fd_sc_hd__o32a_1
*I *1340:Y O *D sky130_fd_sc_hd__nand2_1
*CAP
1 *1341:A3 8.99388e-05
2 *1340:Y 8.99388e-05
3 *1341:A3 *1341:B2 3.48705e-05
4 *1341:B1 *1341:A3 5.17614e-05
5 *1409:D *1341:A3 3.18676e-05
*RES
1 *1340:Y *1341:A3 20.7786 
*END

*D_NET *162 0.000514039
*CONN
*I *1343:B2 I *D sky130_fd_sc_hd__a22o_1
*I *1342:X O *D sky130_fd_sc_hd__or2_1
*CAP
1 *1343:B2 7.87187e-05
2 *1342:X 7.87187e-05
3 *1343:B2 *286:68 5.49489e-05
4 *1342:A *1343:B2 0.000101227
5 *1343:B1 *1343:B2 6.69638e-05
6 *152:20 *1343:B2 5.49489e-05
7 *158:10 *1343:B2 7.85137e-05
*RES
1 *1342:X *1343:B2 30.0821 
*END

*D_NET *163 0.0010909
*CONN
*I *1348:A2_N I *D sky130_fd_sc_hd__o2bb2a_1
*I *1343:X O *D sky130_fd_sc_hd__a22o_1
*CAP
1 *1348:A2_N 0.000297582
2 *1343:X 0.000297582
3 *1348:A2_N *1345:C1 3.84478e-05
4 *1348:A2_N *1347:B1 0
5 *1348:A2_N *1348:B2 5.33978e-05
6 *1348:A2_N *286:58 0.000155877
7 *1332:A *1348:A2_N 1.02936e-05
8 *1347:A1 *1348:A2_N 0.000177227
9 *1410:D *1348:A2_N 1.02504e-05
10 *146:88 *1348:A2_N 2.47186e-05
11 *152:20 *1348:A2_N 2.55226e-05
*RES
1 *1343:X *1348:A2_N 33.9393 
*END

*D_NET *164 0.00134666
*CONN
*I *1345:C1 I *D sky130_fd_sc_hd__a211o_1
*I *1344:Y O *D sky130_fd_sc_hd__nor2_1
*CAP
1 *1345:C1 0.000475611
2 *1344:Y 0.000475611
3 *1345:C1 *1344:A 8.81618e-05
4 *1345:C1 *286:46 1.0562e-05
5 *1345:C1 *286:58 0
6 *1332:B *1345:C1 1.26352e-05
7 *1333:B1 *1345:C1 0.000100831
8 *1341:A2 *1345:C1 9.71197e-05
9 *1342:B *1345:C1 0
10 *1347:A1 *1345:C1 2.69614e-05
11 *1347:A2 *1345:C1 2.07158e-05
12 *1348:A2_N *1345:C1 3.84478e-05
*RES
1 *1344:Y *1345:C1 35.9214 
*END

*D_NET *165 0.00151529
*CONN
*I *1347:B1 I *D sky130_fd_sc_hd__o311a_1
*I *1345:X O *D sky130_fd_sc_hd__a211o_1
*CAP
1 *1347:B1 0.000280329
2 *1345:X 0.000280329
3 *1347:B1 *1459:CLK 0.00049404
4 *1347:B1 *178:14 0
5 *1330:B *1347:B1 0.000123295
6 *1345:A2 *1347:B1 9.91086e-05
7 *1347:A2 *1347:B1 8.2395e-05
8 *1348:A2_N *1347:B1 0
9 *75:10 *1347:B1 5.52302e-05
10 *76:10 *1347:B1 0.000100567
*RES
1 *1345:X *1347:B1 34.9393 
*END

*D_NET *166 0.00397565
*CONN
*I *1347:A3 I *D sky130_fd_sc_hd__o311a_1
*I *1354:A2 I *D sky130_fd_sc_hd__o31a_1
*I *1346:Y O *D sky130_fd_sc_hd__nand2_1
*CAP
1 *1347:A3 0.000570544
2 *1354:A2 0
3 *1346:Y 0.000447793
4 *166:12 0.00101834
5 *1347:A3 *1348:A1_N 0.000201333
6 *1347:A3 *1353:A 0.000142152
7 *1347:A3 *1354:A3 9.77264e-06
8 *166:12 *1336:C1 6.05161e-06
9 *166:12 *1346:A 0.000443648
10 *166:12 *1355:B2 2.84494e-05
11 *166:12 *197:93 0
12 *166:12 *288:43 2.89016e-05
13 *166:12 *288:45 2.28598e-05
14 *1347:A1 *1347:A3 4.06366e-05
15 *1347:C1 *1347:A3 1.3701e-05
16 *1353:B *1347:A3 4.73286e-05
17 *1354:A1 *1347:A3 0.000134773
18 *1354:A1 *166:12 7.83366e-05
19 *1355:B1 *1347:A3 5.00917e-05
20 *1410:D *1347:A3 5.71472e-05
21 *146:88 *1347:A3 0.000403085
22 *146:94 *1347:A3 0.000171666
23 *146:127 *1347:A3 5.90455e-05
*RES
1 *1346:Y *166:12 25.3 
2 *166:12 *1354:A2 9.3 
3 *166:12 *1347:A3 23.0143 
*END

*D_NET *167 0.000427776
*CONN
*I *1348:A1_N I *D sky130_fd_sc_hd__o2bb2a_1
*I *1347:X O *D sky130_fd_sc_hd__o311a_1
*CAP
1 *1348:A1_N 3.14267e-05
2 *1347:X 3.14267e-05
3 *1347:A1 *1348:A1_N 4.88637e-05
4 *1347:A3 *1348:A1_N 0.000201333
5 *146:88 *1348:A1_N 0.000114727
*RES
1 *1347:X *1348:A1_N 20.5152 
*END

*D_NET *168 0.000105515
*CONN
*I *1350:D I *D sky130_fd_sc_hd__or4_1
*I *1349:X O *D sky130_fd_sc_hd__o21a_1
*CAP
1 *1350:D 9.02664e-06
2 *1349:X 9.02664e-06
3 *1350:D *1336:B1 5.65955e-05
4 *148:21 *1350:D 3.08664e-05
*RES
1 *1349:X *1350:D 19.1357 
*END

*D_NET *169 0.00100367
*CONN
*I *1352:A2 I *D sky130_fd_sc_hd__a32o_1
*I *1350:X O *D sky130_fd_sc_hd__or4_1
*CAP
1 *1352:A2 0.000182541
2 *1350:X 0.000182541
3 *1352:A2 *1352:A3 0.00010326
4 *1352:A2 *197:93 1.81805e-05
5 *1352:A2 *288:41 0
6 *1352:A2 *289:10 5.41794e-05
7 *1352:A2 *289:28 1.54142e-05
8 *1352:A2 *289:34 0.000139913
9 *1352:A2 *289:47 0
10 *11:29 *1352:A2 8.11307e-05
11 *148:21 *1352:A2 0.000226513
*RES
1 *1350:X *1352:A2 32.3321 
*END

*D_NET *170 0.000686228
*CONN
*I *1352:A3 I *D sky130_fd_sc_hd__a32o_1
*I *1351:Y O *D sky130_fd_sc_hd__nand2_1
*CAP
1 *1352:A3 0.000174552
2 *1351:Y 0.000174552
3 *1352:A3 *1322:A 1.33343e-05
4 *1352:A3 *197:93 0.000129868
5 *1352:A3 *289:21 1.98839e-05
6 *1352:A3 *289:28 5.33433e-05
7 *1352:A3 *289:34 1.74352e-05
8 *1352:A3 *289:47 0
9 *1352:A2 *1352:A3 0.00010326
*RES
1 *1351:Y *1352:A3 31.0107 
*END

*D_NET *171 0.000690055
*CONN
*I *1355:A2_N I *D sky130_fd_sc_hd__o2bb2a_1
*I *1352:X O *D sky130_fd_sc_hd__a32o_1
*CAP
1 *1355:A2_N 0.000201438
2 *1352:X 0.000201438
3 *1355:A2_N *1355:A1_N 6.7e-06
4 *1355:A2_N *197:93 0.000270229
5 *1411:D *1355:A2_N 1.02504e-05
*RES
1 *1352:X *1355:A2_N 31.6 
*END

*D_NET *172 0.000280156
*CONN
*I *1354:A3 I *D sky130_fd_sc_hd__o31a_1
*I *1353:Y O *D sky130_fd_sc_hd__nor2_1
*CAP
1 *1354:A3 6.36829e-05
2 *1353:Y 6.36829e-05
3 *1347:A3 *1354:A3 9.77264e-06
4 *1353:B *1354:A3 1.32056e-05
5 *1355:B1 *1354:A3 5.52238e-05
6 *146:127 *1354:A3 7.45886e-05
*RES
1 *1353:Y *1354:A3 19.9571 
*END

*D_NET *173 0.000364458
*CONN
*I *1355:A1_N I *D sky130_fd_sc_hd__o2bb2a_1
*I *1354:X O *D sky130_fd_sc_hd__o31a_1
*CAP
1 *1355:A1_N 0.000138089
2 *1354:X 0.000138089
3 *1355:A1_N *1355:B2 2.44318e-05
4 *1355:A2_N *1355:A1_N 6.7e-06
5 *1355:B1 *1355:A1_N 5.71472e-05
*RES
1 *1354:X *1355:A1_N 21.2027 
*END

*D_NET *174 0.000678702
*CONN
*I *1401:A I *D sky130_fd_sc_hd__nor2_1
*I *1402:B I *D sky130_fd_sc_hd__xnor2_1
*I *1399:X O *D sky130_fd_sc_hd__and3_1
*CAP
1 *1401:A 7.51135e-05
2 *1402:B 0.000122831
3 *1399:X 0
4 *174:4 0.000197944
5 *1401:A *1399:A 0
6 *1402:B *1401:B 2.56694e-05
7 *1402:B *287:12 9.90367e-05
8 *1400:A2 *1402:B 0.00010096
9 *146:46 *1401:A 5.71472e-05
*RES
1 *1399:X *174:4 9.3 
2 *174:4 *1402:B 20.8893 
3 *174:4 *1401:A 10.8714 
*END

*D_NET *175 0.00121422
*CONN
*I *1401:B I *D sky130_fd_sc_hd__nor2_1
*I *1400:Y O *D sky130_fd_sc_hd__a21oi_1
*CAP
1 *1401:B 0.000353716
2 *1400:Y 0.000353716
3 *1401:B *287:12 0.00040279
4 *1400:A2 *1401:B 4.46186e-06
5 *1402:B *1401:B 2.56694e-05
6 *146:46 *1401:B 7.38652e-05
*RES
1 *1400:Y *1401:B 33.3679 
*END

*D_NET *176 0.02461
*CONN
*I *1473:A I *D sky130_fd_sc_hd__clkbuf_16
*I *1474:A I *D sky130_fd_sc_hd__clkbuf_16
*I *1472:A I *D sky130_fd_sc_hd__clkbuf_16
*I *1471:A I *D sky130_fd_sc_hd__clkbuf_16
*I *1468:A I *D sky130_fd_sc_hd__clkbuf_16
*I *1467:A I *D sky130_fd_sc_hd__clkbuf_16
*I *1470:A I *D sky130_fd_sc_hd__clkbuf_16
*I *1469:A I *D sky130_fd_sc_hd__clkbuf_16
*I *1466:X O *D sky130_fd_sc_hd__clkbuf_16
*CAP
1 *1473:A 0.000216618
2 *1474:A 0.000412495
3 *1472:A 0.00073094
4 *1471:A 0
5 *1468:A 0
6 *1467:A 0
7 *1470:A 0.000459747
8 *1469:A 0.000464619
9 *1466:X 0
10 *176:86 0.0018241
11 *176:60 0.00132216
12 *176:34 0.00176648
13 *176:28 0.00203949
14 *176:18 0.00219578
15 *176:10 0.00196314
16 *176:6 0.00156849
17 *1469:A *251:29 0.000109832
18 *1470:A *1374:A0 0.000613013
19 *1470:A *251:29 0.000130493
20 *1472:A *1243:A 0.000159771
21 *1472:A *1307:B 3.47641e-06
22 *1472:A *1359:S 9.76689e-05
23 *1472:A *1464:RESET_B 0.000126446
24 *1472:A *1557:A 0
25 *1472:A *273:42 0
26 *1472:A *292:33 4.18895e-05
27 *1472:A *321:10 0
28 *1472:A *322:12 5.03787e-05
29 *1472:A *334:8 3.22663e-05
30 *1473:A *1254:A 0
31 *1473:A *308:12 0
32 *1474:A *1288:A 1.82657e-05
33 *1474:A *1288:B 0
34 *1474:A *1290:B2 6.8646e-06
35 *1474:A *1364:A0 0.000186669
36 *1474:A *1364:A1 0.00014285
37 *1474:A *1364:S 2.44318e-05
38 *1474:A *186:40 0
39 *1474:A *186:59 0
40 *1474:A *195:56 0
41 *1474:A *308:12 0
42 *1474:A *311:18 0.00014183
43 *176:10 *1274:A 0.000113877
44 *176:10 *1492:A 0
45 *176:10 *1494:A 2.90164e-05
46 *176:10 *204:27 7.0603e-05
47 *176:18 *1328:A1 0.000320113
48 *176:18 *1408:CLK 2.27416e-05
49 *176:18 *281:33 3.59438e-05
50 *176:18 *281:139 3.00093e-05
51 *176:28 *1284:B 0
52 *176:28 *1407:CLK 3.40725e-05
53 *176:28 *1458:CLK 6.06218e-05
54 *176:28 *1458:D 1.92789e-05
55 *176:28 *1458:RESET_B 8.94203e-05
56 *176:28 *178:84 1.94094e-05
57 *176:28 *198:20 0.000272255
58 *176:28 *281:33 0.000150613
59 *176:28 *294:10 0
60 *176:34 *1271:C1 0
61 *176:34 *1297:A 0.000220463
62 *176:34 *1298:A2 0.000106552
63 *176:34 *1299:A1 0.000246071
64 *176:34 *1435:D 0
65 *176:34 *1551:A 0.0002632
66 *176:34 *193:74 0
67 *176:34 *194:21 0.000113718
68 *176:34 *194:32 0.000133024
69 *176:34 *194:43 7.80714e-06
70 *176:34 *296:18 7.83174e-05
71 *176:60 *1276:A1 9.90367e-05
72 *176:60 *1276:C1 0.000156333
73 *176:60 *1326:A0 7.48301e-06
74 *176:60 *1328:A1 7.32955e-05
75 *176:60 *181:8 0.000318101
76 *176:60 *290:28 9.99644e-06
77 *176:60 *292:33 0.000753293
78 *176:86 *1256:A 4.43046e-05
79 *176:86 *1257:B1 0.000161865
80 *176:86 *1312:B1 9.47613e-05
81 *176:86 *1365:A0 0.000357952
82 *176:86 *1365:A1 0.000134288
83 *176:86 *1368:A1 5.52302e-05
84 *176:86 *1425:CLK 0.000120215
85 *176:86 *1494:A 0
86 *176:86 *1562:A 5.33433e-05
87 *176:86 *1564:A 0.000128409
88 *176:86 *183:22 6.59931e-05
89 *176:86 *186:40 4.51526e-05
90 *176:86 *188:42 0
91 *176:86 *195:56 0.000228558
92 *176:86 *307:23 0
93 *1261:A *176:86 5.52302e-05
94 *1261:C *176:86 2.74584e-05
95 *1276:B1 *176:60 4.88637e-05
96 *1277:C1 *176:60 9.90367e-05
97 *1278:A *176:86 0.000292
98 *1278:C *176:86 2.56694e-05
99 *1287:C1 *176:10 0.000307622
100 *1289:B1 *1473:A 9.24491e-05
101 *1289:B1 *1474:A 4.46186e-06
102 *1300:A_N *176:34 6.65398e-05
103 *1318:C *176:10 6.8646e-06
104 *1320:A_N *176:10 0.000243828
105 *1407:D *176:28 0.000125724
106 *1423:D *176:86 0.00010096
107 *1464:D *1472:A 3.14193e-05
108 *1506:A *1472:A 9.47028e-05
109 *70:31 *176:10 0.000168301
110 *70:31 *176:86 0.000161458
111 *70:65 *176:86 5.10822e-05
112 *71:16 *1472:A 0.00010096
113 *82:8 *1473:A 9.97744e-05
114 *105:12 *176:86 0
115 *109:18 *176:10 0.000104974
116 *109:18 *176:86 0.000105689
*RES
1 *1466:X *176:6 13.8 
2 *176:6 *176:10 15.5536 
3 *176:10 *176:18 13.8393 
4 *176:18 *176:28 26.3393 
5 *176:28 *176:34 28.5536 
6 *176:34 *1469:A 16.4071 
7 *176:34 *1470:A 18.4607 
8 *176:28 *1467:A 9.3 
9 *176:18 *1468:A 9.3 
10 *176:10 *176:60 14.0893 
11 *176:60 *1471:A 9.3 
12 *176:60 *1472:A 32.55 
13 *176:6 *176:86 36.9821 
14 *176:86 *1474:A 21.9071 
15 *176:86 *1473:A 18.4786 
*END

*D_NET *177 0.00891065
*CONN
*I *1441:CLK I *D sky130_fd_sc_hd__dfrtp_1
*I *1435:CLK I *D sky130_fd_sc_hd__dfrtp_1
*I *1438:CLK I *D sky130_fd_sc_hd__dfrtp_1
*I *1439:CLK I *D sky130_fd_sc_hd__dfrtp_1
*I *1429:CLK I *D sky130_fd_sc_hd__dfrtp_1
*I *1442:CLK I *D sky130_fd_sc_hd__dfrtp_1
*I *1411:CLK I *D sky130_fd_sc_hd__dfrtp_1
*I *1413:CLK I *D sky130_fd_sc_hd__dfrtp_2
*I *1412:CLK I *D sky130_fd_sc_hd__dfrtp_2
*I *1475:A I *D sky130_fd_sc_hd__clkbuf_4
*I *1467:X O *D sky130_fd_sc_hd__clkbuf_16
*CAP
1 *1441:CLK 0.000204424
2 *1435:CLK 0.000643825
3 *1438:CLK 0
4 *1439:CLK 0
5 *1429:CLK 0
6 *1442:CLK 0.000300246
7 *1411:CLK 0.000135031
8 *1413:CLK 0
9 *1412:CLK 0.000161885
10 *1475:A 0.000272013
11 *1467:X 0.000137169
12 *177:89 0.000664732
13 *177:85 0.000308325
14 *177:35 0.000699337
15 *177:33 0.00095195
16 *177:31 0.000579714
17 *177:29 0.00060147
18 *177:25 0.00060147
19 *177:12 0.000328686
20 *177:10 0.000276836
21 *1435:CLK *1438:RESET_B 2.51837e-05
22 *1435:CLK *1442:RESET_B 4.13496e-05
23 *1441:CLK *1381:S 6.9253e-05
24 *1441:CLK *1567:A 0
25 *1441:CLK *193:55 0.00014279
26 *1441:CLK *240:23 0
27 *1441:CLK *262:42 0.000131491
28 *1442:CLK *1279:A 0
29 *1475:A *1429:RESET_B 1.0562e-05
30 *1475:A *1439:D 5.65955e-05
31 *1475:A *193:21 0.000175519
32 *1475:A *197:61 1.28166e-05
33 *1475:A *197:79 4.06875e-05
34 *177:10 *1379:A0 6.74893e-05
35 *177:10 *262:42 9.90431e-05
36 *177:12 *1442:RESET_B 5.0725e-05
37 *177:12 *193:21 0.00014209
38 *177:12 *193:55 9.25014e-06
39 *177:12 *197:61 2.8266e-06
40 *177:29 *1429:D 1.08881e-05
41 *177:29 *1429:RESET_B 0.000240522
42 *177:85 *1442:RESET_B 6.8646e-06
43 *177:85 *193:55 0.000211205
44 *177:85 *262:42 0.000100969
45 *177:89 *1442:RESET_B 5.52302e-05
46 *1441:D *1441:CLK 5.33334e-05
47 *1442:D *1442:CLK 0
48 *1574:A *1442:CLK 0.000187812
49 *3:21 *1441:CLK 9.90367e-05
*RES
1 *1467:X *177:10 16.4071 
2 *177:10 *177:12 1.94643 
3 *177:12 *1475:A 19.05 
4 *177:12 *177:25 4.5 
5 *177:25 *177:29 11.2321 
6 *177:29 *177:31 4.5 
7 *177:31 *177:33 4.98214 
8 *177:33 *177:35 9.83929 
9 *177:35 *1412:CLK 16.5857 
10 *177:35 *1413:CLK 13.8 
11 *177:33 *1411:CLK 15.9786 
12 *177:31 *1442:CLK 19.3179 
13 *177:29 *1429:CLK 9.3 
14 *177:25 *1439:CLK 9.3 
15 *177:10 *177:85 2.85714 
16 *177:85 *177:89 5.03571 
17 *177:89 *1438:CLK 9.3 
18 *177:89 *1435:CLK 19.3 
19 *177:85 *1441:CLK 19.7286 
*END

*D_NET *178 0.00813256
*CONN
*I *1407:CLK I *D sky130_fd_sc_hd__dfrtp_1
*I *1465:CLK I *D sky130_fd_sc_hd__dfrtp_1
*I *1458:CLK I *D sky130_fd_sc_hd__dfrtp_1
*I *1408:CLK I *D sky130_fd_sc_hd__dfrtp_1
*I *1410:CLK I *D sky130_fd_sc_hd__dfrtp_1
*I *1476:A I *D sky130_fd_sc_hd__clkbuf_8
*I *1409:CLK I *D sky130_fd_sc_hd__dfrtp_4
*I *1459:CLK I *D sky130_fd_sc_hd__dfrtp_4
*I *1468:X O *D sky130_fd_sc_hd__clkbuf_16
*CAP
1 *1407:CLK 7.31109e-05
2 *1465:CLK 0.000199449
3 *1458:CLK 0.000366477
4 *1408:CLK 0.000314701
5 *1410:CLK 0.00043131
6 *1476:A 0
7 *1409:CLK 2.27022e-05
8 *1459:CLK 0.000700245
9 *1468:X 0
10 *178:84 0.000447129
11 *178:69 0.000825027
12 *178:56 0.000639055
13 *178:14 0.00086214
14 *178:10 0.000186008
15 *178:8 0.000582353
16 *178:6 0.000144598
17 *1407:CLK *1458:RESET_B 4.50675e-05
18 *1407:CLK *1491:A 0.00022459
19 *1407:CLK *198:20 4.72917e-05
20 *1408:CLK *1490:A 0.000228558
21 *1408:CLK *281:33 7.77751e-05
22 *1410:CLK *1410:RESET_B 0.000223808
23 *1410:CLK *282:10 2.89016e-05
24 *1458:CLK *1458:D 2.89016e-05
25 *1459:CLK *1344:A 0
26 *1459:CLK *285:33 6.12813e-05
27 *1459:CLK *285:64 1.30572e-05
28 *1459:CLK *285:83 3.84385e-05
29 *1465:CLK *1376:A0 0.000125731
30 *1465:CLK *301:10 0.000149911
31 *178:8 *198:32 0
32 *178:8 *282:10 0
33 *178:56 *282:10 0
34 *178:69 *1491:A 0
35 *178:84 *1491:A 0
36 *1339:A2 *1459:CLK 5.31113e-05
37 *1345:A2 *1459:CLK 3.25078e-05
38 *1347:B1 *1459:CLK 0.00049404
39 *1347:B1 *178:14 0
40 *1409:D *1459:CLK 0
41 *1410:D *1410:CLK 7.48091e-05
42 *1459:D *1459:CLK 8.07313e-05
43 *1465:D *1465:CLK 8.54718e-05
44 *146:78 *1409:CLK 1.92905e-05
45 *146:78 *1459:CLK 4.8843e-05
46 *146:88 *1459:CLK 1.92905e-05
47 *176:18 *1408:CLK 2.27416e-05
48 *176:28 *1407:CLK 3.40725e-05
49 *176:28 *1458:CLK 6.06218e-05
50 *176:28 *178:84 1.94094e-05
*RES
1 *1468:X *178:6 13.8 
2 *178:6 *178:8 1.64286 
3 *178:8 *178:10 0.732143 
4 *178:10 *178:14 6.75 
5 *178:14 *1459:CLK 32.3179 
6 *178:14 *1409:CLK 9.83571 
7 *178:10 *1476:A 13.8 
8 *178:8 *1410:CLK 22.1393 
9 *178:6 *178:56 0.732143 
10 *178:56 *1408:CLK 20.0857 
11 *178:56 *178:69 8.875 
12 *178:69 *1458:CLK 14.3893 
13 *178:69 *178:84 2.5 
14 *178:84 *1465:CLK 23.2821 
15 *178:84 *1407:CLK 11.8893 
*END

*D_NET *179 0.00894313
*CONN
*I *1446:CLK I *D sky130_fd_sc_hd__dfrtp_1
*I *1434:CLK I *D sky130_fd_sc_hd__dfrtp_1
*I *1443:CLK I *D sky130_fd_sc_hd__dfrtp_1
*I *1444:CLK I *D sky130_fd_sc_hd__dfrtp_1
*I *1436:CLK I *D sky130_fd_sc_hd__dfrtp_1
*I *1437:CLK I *D sky130_fd_sc_hd__dfrtp_1
*I *1440:CLK I *D sky130_fd_sc_hd__dfrtp_1
*I *1445:CLK I *D sky130_fd_sc_hd__dfrtp_1
*I *1433:CLK I *D sky130_fd_sc_hd__dfrtp_1
*I *1469:X O *D sky130_fd_sc_hd__clkbuf_16
*CAP
1 *1446:CLK 0.000242605
2 *1434:CLK 0
3 *1443:CLK 0
4 *1444:CLK 0.0002358
5 *1436:CLK 0.000135031
6 *1437:CLK 0.000379547
7 *1440:CLK 0.00016469
8 *1445:CLK 0.000196339
9 *1433:CLK 6.40989e-05
10 *1469:X 6.59538e-05
11 *179:46 0.000661422
12 *179:44 0.000530803
13 *179:42 0.000597774
14 *179:38 0.000713516
15 *179:23 0.00112912
16 *179:19 0.000695321
17 *179:8 0.000280122
18 *1433:CLK *251:31 6.42338e-05
19 *1433:CLK *251:41 4.46186e-06
20 *1437:CLK *1299:C1 0
21 *1437:CLK *1377:A0 0.000343542
22 *1437:CLK *1575:A 0.000207376
23 *1437:CLK *272:12 0.000313235
24 *1444:CLK *1383:A 5.76121e-05
25 *1445:CLK *1299:C1 7.44918e-05
26 *1445:CLK *1385:A1 0.000126446
27 *1445:CLK *1507:A 9.11365e-06
28 *1445:CLK *199:100 0
29 *1446:CLK *1385:A0 0.000126439
30 *1446:CLK *199:100 7.6644e-05
31 *1446:CLK *251:87 5.75798e-05
32 *1446:CLK *251:96 0.00020212
33 *1446:CLK *327:6 3.18676e-05
34 *179:8 *251:29 9.90431e-05
35 *179:19 *1551:A 0
36 *179:19 *251:31 1.17968e-05
37 *179:19 *251:87 0.000132452
38 *179:23 *1434:RESET_B 9.69556e-05
39 *179:23 *199:100 0.000286986
40 *179:38 *1443:RESET_B 9.23695e-05
41 *179:38 *199:62 5.15078e-05
42 num_to_send_o[0] *1437:CLK 1.40415e-05
43 *1433:D *1433:CLK 4.25622e-05
44 *1433:D *179:19 2.8266e-06
45 *1434:D *179:23 1.59373e-05
46 *1436:D *1437:CLK 0.000144773
47 *1436:D *179:46 0
48 *1443:D *1444:CLK 0.000126629
49 *1443:D *179:44 0
50 *1445:D *1445:CLK 3.79467e-05
*RES
1 *1469:X *179:8 14.7464 
2 *179:8 *1433:CLK 15.4429 
3 *179:8 *179:19 3.46429 
4 *179:19 *179:23 11.6071 
5 *179:23 *1445:CLK 22.9786 
6 *179:23 *179:38 10.8214 
7 *179:38 *179:42 5.85714 
8 *179:42 *179:44 4.98214 
9 *179:44 *179:46 1.94643 
10 *179:46 *1440:CLK 16.6571 
11 *179:46 *1437:CLK 23.8 
12 *179:44 *1436:CLK 15.9786 
13 *179:42 *1444:CLK 18.9429 
14 *179:38 *1443:CLK 9.3 
15 *179:23 *1434:CLK 9.3 
16 *179:19 *1446:CLK 19.8357 
*END

*D_NET *180 0.0112153
*CONN
*I *1426:CLK I *D sky130_fd_sc_hd__dfrtp_1
*I *1447:CLK I *D sky130_fd_sc_hd__dfrtp_1
*I *1448:CLK I *D sky130_fd_sc_hd__dfrtp_1
*I *1431:CLK I *D sky130_fd_sc_hd__dfrtp_1
*I *1427:CLK I *D sky130_fd_sc_hd__dfrtp_1
*I *1477:A I *D sky130_fd_sc_hd__clkbuf_4
*I *1430:CLK I *D sky130_fd_sc_hd__dfrtp_1
*I *1428:CLK I *D sky130_fd_sc_hd__dfrtp_1
*I *1432:CLK I *D sky130_fd_sc_hd__dfrtp_1
*I *1470:X O *D sky130_fd_sc_hd__clkbuf_16
*CAP
1 *1426:CLK 5.77225e-05
2 *1447:CLK 0.000494952
3 *1448:CLK 0.000114719
4 *1431:CLK 0.00101881
5 *1427:CLK 0
6 *1477:A 0.000224666
7 *1430:CLK 0
8 *1428:CLK 0
9 *1432:CLK 0.000693264
10 *1470:X 0
11 *180:90 0.000687432
12 *180:73 0.00112951
13 *180:64 0.000356362
14 *180:49 0.000652265
15 *180:47 0.000307517
16 *180:20 0.00117818
17 *180:10 0.000738383
18 *180:6 0.000399091
19 *1431:CLK *1431:RESET_B 4.85567e-05
20 *1431:CLK *1526:A 2.27416e-05
21 *1431:CLK *303:10 3.81416e-06
22 *1432:CLK *200:26 0.000227637
23 *1447:CLK *1260:C1 0
24 *1447:CLK *1387:S 3.34366e-05
25 *1447:CLK *1447:RESET_B 3.65178e-05
26 *1448:CLK *1387:A0 0.000146591
27 *1448:CLK *1387:A1 9.60939e-05
28 *1448:CLK *1387:S 9.90431e-05
29 *1477:A *251:10 0.000396892
30 *1477:A *262:87 0.000251947
31 *180:10 *1260:C1 0
32 *180:10 *1430:D 5.10822e-05
33 *180:10 *190:81 2.82555e-05
34 *180:10 *262:87 0
35 *180:20 *1430:D 4.37999e-05
36 *180:20 *190:81 0
37 *180:20 *200:12 2.94103e-05
38 *180:20 *262:87 6.47612e-05
39 *180:20 *304:10 0.000150618
40 *180:47 *1260:C1 0
41 *180:47 *262:87 0
42 *180:49 *262:87 2.89114e-05
43 *180:64 *1260:C1 0
44 *180:64 *1387:S 0.000579309
45 *180:64 *1426:RESET_B 0
46 *180:64 *194:74 0
47 *180:64 *237:10 0.000222878
48 *180:64 *281:98 0
49 *180:73 *1387:S 8.32171e-05
50 *180:90 *1387:S 0.00012401
51 *1304:A2 *180:64 4.25716e-05
52 *1304:B2 *180:64 0
53 *1305:C1 *180:10 0
54 *1317:A *1432:CLK 0.000131511
55 *1317:A *180:20 2.61337e-05
56 *1431:D *1431:CLK 4.03855e-05
57 *1447:D *1447:CLK 0.000152289
*RES
1 *1470:X *180:6 13.8 
2 *180:6 *180:10 8.875 
3 *180:10 *180:20 17.1071 
4 *180:20 *1432:CLK 19.2286 
5 *180:20 *1428:CLK 9.3 
6 *180:10 *1430:CLK 9.3 
7 *180:6 *180:47 7.05357 
8 *180:47 *180:49 1.35714 
9 *180:49 *1477:A 14.9071 
10 *180:49 *180:64 12.5179 
11 *180:64 *1427:CLK 13.8 
12 *180:64 *180:73 1.03571 
13 *180:73 *1431:CLK 26.4071 
14 *180:73 *180:90 1.64286 
15 *180:90 *1448:CLK 17.2107 
16 *180:90 *1447:CLK 21.1214 
17 *180:47 *1426:CLK 10.5679 
*END

*D_NET *181 0.00775801
*CONN
*I *1418:CLK I *D sky130_fd_sc_hd__dfrtp_1
*I *1453:CLK I *D sky130_fd_sc_hd__dfrtp_1
*I *1478:A I *D sky130_fd_sc_hd__clkinv_2
*I *1406:CLK I *D sky130_fd_sc_hd__dfrtp_1
*I *1461:CLK I *D sky130_fd_sc_hd__dfrtp_2
*I *1460:CLK I *D sky130_fd_sc_hd__dfrtp_4
*I *1454:CLK I *D sky130_fd_sc_hd__dfrtp_1
*I *1471:X O *D sky130_fd_sc_hd__clkbuf_16
*CAP
1 *1418:CLK 0.000366583
2 *1453:CLK 0.000222325
3 *1478:A 5.34139e-05
4 *1406:CLK 5.69945e-05
5 *1461:CLK 0
6 *1460:CLK 0.000154811
7 *1454:CLK 0.000204065
8 *1471:X 0.000199631
9 *181:37 0.000420625
10 *181:24 0.00110887
11 *181:18 0.000868258
12 *181:14 0.000658454
13 *181:12 0.000910338
14 *181:8 0.000821457
15 *1406:CLK *1326:A0 4.06782e-05
16 *1406:CLK *1326:A1 6.42242e-05
17 *1418:CLK *189:30 0
18 *1418:CLK *195:56 7.48085e-05
19 *1418:CLK *292:33 0
20 *1453:CLK *1419:RESET_B 0
21 *1453:CLK *1453:RESET_B 0.00010844
22 *1460:CLK *1319:A 0
23 *1460:CLK *1319:B 0.000104974
24 *181:12 *1245:A 0
25 *181:12 *1393:S 3.90513e-05
26 *181:12 *1453:D 4.06782e-05
27 *181:12 *273:54 3.92854e-05
28 *181:12 *292:33 0
29 *181:14 *1453:RESET_B 0.000174362
30 *181:14 *201:54 4.70821e-05
31 *181:18 *1326:A1 1.21258e-05
32 *181:18 *1394:A0 2.59355e-05
33 *181:24 *1326:A0 4.1331e-06
34 *181:24 *1326:A1 2.12933e-05
35 *181:24 *1394:A0 0.000145406
36 *181:24 *1406:RESET_B 0
37 *181:24 *1454:RESET_B 0
38 *181:24 *273:62 0.000230482
39 *181:37 *1454:D 5.83233e-05
40 *181:37 *1492:A 8.98994e-05
41 *1296:D *1418:CLK 0
42 *1320:A_N *181:37 0
43 *1460:D *1460:CLK 0
44 *1460:D *181:37 0
45 *1516:A *1478:A 2.89114e-05
46 *1516:A *181:14 2.32517e-05
47 *1516:A *181:18 2.07382e-05
48 *67:14 *1418:CLK 0
49 *146:12 *1460:CLK 0
50 *146:12 *181:37 0
51 *176:60 *181:8 0.000318101
*RES
1 *1471:X *181:8 16.8 
2 *181:8 *181:12 9.48214 
3 *181:12 *181:14 5.875 
4 *181:14 *181:18 6.67857 
5 *181:18 *181:24 13.3393 
6 *181:24 *1454:CLK 11.8 
7 *181:24 *181:37 10.0893 
8 *181:37 *1460:CLK 16.8893 
9 *181:37 *1461:CLK 13.8 
10 *181:18 *1406:CLK 15.4429 
11 *181:14 *1478:A 10.5679 
12 *181:12 *1453:CLK 12.8714 
13 *181:8 *1418:CLK 20.3 
*END

*D_NET *182 0.0105083
*CONN
*I *1451:CLK I *D sky130_fd_sc_hd__dfrtp_1
*I *1463:CLK I *D sky130_fd_sc_hd__dfrtp_1
*I *1452:CLK I *D sky130_fd_sc_hd__dfrtp_1
*I *1462:CLK I *D sky130_fd_sc_hd__dfrtp_1
*I *1417:CLK I *D sky130_fd_sc_hd__dfrtp_1
*I *1479:A I *D sky130_fd_sc_hd__clkbuf_4
*I *1457:CLK I *D sky130_fd_sc_hd__dfrtp_1
*I *1464:CLK I *D sky130_fd_sc_hd__dfrtp_1
*I *1419:CLK I *D sky130_fd_sc_hd__dfrtp_1
*I *1472:X O *D sky130_fd_sc_hd__clkbuf_16
*CAP
1 *1451:CLK 0.000157265
2 *1463:CLK 0.000120693
3 *1452:CLK 1.40355e-05
4 *1462:CLK 0.000186157
5 *1417:CLK 0
6 *1479:A 0
7 *1457:CLK 0.000129929
8 *1464:CLK 0
9 *1419:CLK 0.000577983
10 *1472:X 0
11 *182:76 0.000441301
12 *182:70 0.000397692
13 *182:68 0.000356984
14 *182:66 0.000265043
15 *182:26 0.0011432
16 *182:20 0.00117175
17 *182:8 0.00115505
18 *182:4 0.000678445
19 *1419:CLK *1393:A1 4.46186e-06
20 *1419:CLK *201:44 7.15846e-05
21 *1419:CLK *292:33 0
22 *1451:CLK *1265:B2 0.000125639
23 *1451:CLK *1310:C1 1.58163e-05
24 *1451:CLK *187:68 0.00031248
25 *1452:CLK *1359:A1 2.89114e-05
26 *1457:CLK *1308:A 0.000288166
27 *1457:CLK *1397:A1 9.54385e-05
28 *1457:CLK *1457:RESET_B 0.000134978
29 *1462:CLK *1417:D 2.44318e-05
30 *1462:CLK *1555:A 0.000129515
31 *1462:CLK *267:12 9.90367e-05
32 *1463:CLK *1463:D 7.09187e-05
33 *1463:CLK *203:22 9.03975e-05
34 *182:8 *1307:B 9.3111e-05
35 *182:8 *321:14 9.58508e-05
36 *182:20 *1293:B2 0
37 *182:20 *1391:S 5.43661e-05
38 *182:20 *1397:A1 0
39 *182:20 *1405:A1 0.000122089
40 *182:20 *1457:RESET_B 0.000195386
41 *182:20 *273:42 1.99921e-05
42 *182:26 *1293:B2 0
43 *182:26 *1294:C1 0.000134115
44 *182:26 *1361:A1 0
45 *182:26 *1393:A1 5.74562e-05
46 *182:26 *1397:A1 0.000102196
47 *182:26 *189:12 0
48 *182:26 *244:10 0
49 *182:26 *273:31 7.69776e-06
50 *182:68 *1359:A1 6.39262e-05
51 *182:68 *187:68 8.32171e-05
52 *182:68 *321:10 0
53 *182:70 *1359:A1 5.26091e-05
54 *182:70 *201:32 0
55 *182:76 *1243:A 0
56 *182:76 *1359:A0 0
57 *182:76 *1417:D 7.38848e-05
58 *182:76 *1555:A 0.000164954
59 *182:76 *201:32 0.000126639
60 *1295:B *182:26 1.31516e-05
61 *1295:C_N *182:26 0.000148189
62 *1310:B1 *1451:CLK 1.77672e-05
63 *1310:B1 *182:8 8.78006e-05
64 *1310:B1 *182:68 3.98131e-05
65 *1452:D *182:70 0
66 *1462:D *1462:CLK 0
67 *1462:D *182:76 0
68 *1464:D *1419:CLK 4.1331e-06
69 *1464:D *182:26 5.16852e-05
70 *1485:A *182:20 6.28203e-05
71 *1485:A *182:26 6.2589e-06
72 *1530:A *1457:CLK 0
73 *1530:A *182:26 0
74 *1556:A *1452:CLK 5.52302e-05
75 *71:16 *182:26 0.000286692
*RES
1 *1472:X *182:4 9.3 
2 *182:4 *182:8 8.76786 
3 *182:8 *182:20 21.2143 
4 *182:20 *182:26 12.0179 
5 *182:26 *1419:CLK 21.5321 
6 *182:26 *1464:CLK 13.8 
7 *182:20 *1457:CLK 18.1571 
8 *182:8 *1479:A 9.3 
9 *182:4 *182:66 4.5 
10 *182:66 *182:68 3.16071 
11 *182:68 *182:70 2.55357 
12 *182:70 *182:76 10.875 
13 *182:76 *1417:CLK 9.3 
14 *182:76 *1462:CLK 22.2107 
15 *182:70 *1452:CLK 14.3357 
16 *182:68 *1463:CLK 16.5143 
17 *182:66 *1451:CLK 18.4071 
*END

*D_NET *183 0.00981305
*CONN
*I *1449:CLK I *D sky130_fd_sc_hd__dfrtp_1
*I *1420:CLK I *D sky130_fd_sc_hd__dfrtp_1
*I *1480:A I *D sky130_fd_sc_hd__clkinv_2
*I *1424:CLK I *D sky130_fd_sc_hd__dfrtp_1
*I *1423:CLK I *D sky130_fd_sc_hd__dfrtp_1
*I *1422:CLK I *D sky130_fd_sc_hd__dfrtp_1
*I *1425:CLK I *D sky130_fd_sc_hd__dfrtp_1
*I *1473:X O *D sky130_fd_sc_hd__clkbuf_16
*CAP
1 *1449:CLK 0.00039597
2 *1420:CLK 0.000194488
3 *1480:A 8.08784e-05
4 *1424:CLK 0.000439025
5 *1423:CLK 0
6 *1422:CLK 0.000338196
7 *1425:CLK 0.000161806
8 *1473:X 0
9 *183:79 0.000873757
10 *183:51 0.000562231
11 *183:22 0.000892589
12 *183:16 0.000707909
13 *183:8 0.000734413
14 *183:4 0.000660063
15 *1420:CLK *202:69 9.18348e-05
16 *1422:CLK *1312:B1 4.27437e-05
17 *1422:CLK *1482:A 3.58235e-05
18 *1424:CLK *1369:A0 2.59355e-05
19 *1424:CLK *1388:S 8.47203e-05
20 *1424:CLK *194:89 8.83851e-05
21 *1424:CLK *306:12 0.000214342
22 *1424:CLK *306:14 5.66157e-05
23 *1424:CLK *330:12 0.000103267
24 *1425:CLK *1494:A 0.00033678
25 *1449:CLK *1254:A 0
26 *1449:CLK *1255:A 0
27 *1449:CLK *1449:D 1.41706e-05
28 *1449:CLK *309:8 0
29 *1449:CLK *309:14 0
30 *1480:A *1313:B 3.99614e-06
31 *1480:A *1314:B 0.000137878
32 *1480:A *194:89 3.7542e-05
33 *1480:A *194:102 1.21289e-05
34 *1480:A *194:110 0
35 *183:8 *1315:A1 3.80385e-05
36 *183:16 *1256:A 0
37 *183:16 *1256:B 0
38 *183:16 *1257:B1 0
39 *183:16 *202:69 0
40 *183:16 *306:14 0
41 *183:22 *1256:A 0.000262956
42 *183:22 *1256:B 9.41642e-05
43 *183:22 *1257:B1 5.04597e-05
44 *183:22 *1260:A1 0
45 *183:22 *1494:A 0.000587906
46 *183:79 *202:69 3.28797e-05
47 *1278:B *1422:CLK 6.42095e-05
48 *1278:D *1422:CLK 9.41642e-05
49 *1312:A1_N *1422:CLK 0.000275717
50 *1315:A2 *1480:A 0.000274294
51 *1315:A2 *183:16 5.58941e-05
52 *1315:A2 *183:51 7.83659e-05
53 *1315:B1 *183:16 2.59093e-05
54 *1315:B1 *183:51 1.08359e-05
55 *1315:B2 *183:8 1.24368e-05
56 *1315:B2 *183:16 1.02504e-05
57 *1315:B2 *183:51 6.98302e-05
58 *1316:B1 *1422:CLK 0.000225609
59 *1316:C1 *183:8 2.61853e-05
60 *1316:C1 *183:16 0
61 *1423:D *183:16 9.25014e-06
62 *1509:A *1449:CLK 0
63 *82:8 *1449:CLK 0
64 *176:86 *1425:CLK 0.000120215
65 *176:86 *183:22 6.59931e-05
*RES
1 *1473:X *183:4 9.3 
2 *183:4 *183:8 9.14286 
3 *183:8 *183:16 9.64286 
4 *183:16 *183:22 14.3929 
5 *183:22 *1425:CLK 18.175 
6 *183:22 *1422:CLK 20.925 
7 *183:16 *1423:CLK 9.3 
8 *183:8 *183:51 5.83929 
9 *183:51 *1424:CLK 27.0321 
10 *183:51 *1480:A 12.7286 
11 *183:4 *183:79 3.41071 
12 *183:79 *1420:CLK 13.1571 
13 *183:79 *1449:CLK 24.8 
*END

*D_NET *184 0.0104539
*CONN
*I *1421:CLK I *D sky130_fd_sc_hd__dfrtp_1
*I *1415:CLK I *D sky130_fd_sc_hd__dfrtp_1
*I *1456:CLK I *D sky130_fd_sc_hd__dfrtp_1
*I *1414:CLK I *D sky130_fd_sc_hd__dfrtp_1
*I *1450:CLK I *D sky130_fd_sc_hd__dfrtp_1
*I *1481:A I *D sky130_fd_sc_hd__clkbuf_8
*I *1416:CLK I *D sky130_fd_sc_hd__dfrtp_1
*I *1455:CLK I *D sky130_fd_sc_hd__dfrtp_1
*I *1474:X O *D sky130_fd_sc_hd__clkbuf_16
*CAP
1 *1421:CLK 0.00029617
2 *1415:CLK 0
3 *1456:CLK 1.91209e-05
4 *1414:CLK 0.000500196
5 *1450:CLK 3.82418e-05
6 *1481:A 0.00017758
7 *1416:CLK 3.23391e-05
8 *1455:CLK 0.000334317
9 *1474:X 3.9064e-05
10 *184:88 0.000519094
11 *184:62 0.00121432
12 *184:49 0.000733249
13 *184:47 0.000443691
14 *184:32 0.000472041
15 *184:10 0.000600494
16 *184:8 0.000346597
17 *1414:CLK *1395:S 8.359e-05
18 *1414:CLK *1414:RESET_B 9.71197e-05
19 *1414:CLK *1450:RESET_B 8.45419e-05
20 *1414:CLK *1456:RESET_B 0.00011908
21 *1414:CLK *315:23 0
22 *1416:CLK *1263:A 2.59355e-05
23 *1416:CLK *1416:D 3.18676e-05
24 *1416:CLK *191:40 0.00014285
25 *1421:CLK *1357:A1 0
26 *1421:CLK *1390:A1 0
27 *1421:CLK *1421:D 7.59512e-05
28 *1421:CLK *1421:RESET_B 0.000199173
29 *1421:CLK *1449:RESET_B 0
30 *1421:CLK *1541:A 0.000172536
31 *1421:CLK *202:95 0
32 *1421:CLK *253:10 0
33 *1450:CLK *1420:RESET_B 0
34 *1455:CLK *1263:A 0.00012401
35 *1455:CLK *1264:A 7.02611e-05
36 *1455:CLK *1264:B 5.52302e-05
37 *1455:CLK *1309:A2 0.000183726
38 *1455:CLK *1416:RESET_B 0
39 *1455:CLK *187:52 0.000284843
40 *1455:CLK *187:68 2.42516e-05
41 *1455:CLK *318:20 0.00024552
42 *1481:A *1290:A1 5.52302e-05
43 *184:8 *1288:A 0.000227539
44 *184:10 *1241:A 4.01501e-05
45 *184:10 *1416:RESET_B 0
46 *184:10 *194:110 6.53781e-05
47 *184:10 *202:28 0
48 *184:10 *311:12 5.59013e-05
49 *184:32 *194:110 5.72433e-05
50 *184:32 *311:12 0.00016284
51 *184:47 *194:110 0.000152118
52 *184:47 *311:12 0.000257194
53 *184:62 *1450:RESET_B 0.000109541
54 *184:88 *1357:A1 0
55 *184:88 *1357:S 0
56 *184:88 *1553:A 4.25809e-05
57 *184:88 *194:110 0.000226021
58 *184:88 *202:95 0
59 *184:88 *311:12 4.79479e-05
60 *1266:B2 *1455:CLK 1.21258e-05
61 *1291:A *184:8 0.000227539
62 *1291:B *1481:A 0.000241284
63 *1309:B2 *1455:CLK 5.52302e-05
64 *1311:A_N *1455:CLK 1.54142e-05
65 *1415:D *184:88 8.00806e-05
66 *1523:A *1455:CLK 0.00018077
67 *94:18 *1416:CLK 1.02821e-05
68 *118:12 *1455:CLK 0.000218741
69 *118:12 *184:10 0.000125731
*RES
1 *1474:X *184:8 15.9786 
2 *184:8 *184:10 5.28571 
3 *184:10 *1455:CLK 24.175 
4 *184:10 *1416:CLK 15.1571 
5 *184:8 *184:32 2.25 
6 *184:32 *1481:A 18.0321 
7 *184:32 *184:47 5.14286 
8 *184:47 *184:49 4.5 
9 *184:49 *1450:CLK 10.0321 
10 *184:49 *184:62 8.89286 
11 *184:62 *1414:CLK 26.7464 
12 *184:62 *1456:CLK 9.72857 
13 *184:47 *184:88 5.58929 
14 *184:88 *1415:CLK 13.8 
15 *184:88 *1421:CLK 21.3 
*END

*D_NET *185 0.000297233
*CONN
*I *1319:A I *D sky130_fd_sc_hd__or2_2
*I *1572:X O *D sky130_fd_sc_hd__clkbuf_1
*CAP
1 *1319:A 0.000148616
2 *1572:X 0.000148616
3 *1460:CLK *1319:A 0
*RES
1 *1572:X *1319:A 30.0821 
*END

*D_NET *186 0.0153769
*CONN
*I *1363:S I *D sky130_fd_sc_hd__mux2_1
*I *1389:S I *D sky130_fd_sc_hd__mux2_1
*I *1366:S I *D sky130_fd_sc_hd__mux2_1
*I *1388:S I *D sky130_fd_sc_hd__mux2_1
*I *1396:S I *D sky130_fd_sc_hd__mux2_1
*I *1395:S I *D sky130_fd_sc_hd__mux2_1
*I *1362:S I *D sky130_fd_sc_hd__mux2_1
*I *1364:S I *D sky130_fd_sc_hd__mux2_1
*I *1365:S I *D sky130_fd_sc_hd__mux2_1
*I *1367:S I *D sky130_fd_sc_hd__mux2_1
*I *1482:X O *D sky130_fd_sc_hd__clkbuf_4
*CAP
1 *1363:S 4.74881e-05
2 *1389:S 2.23854e-05
3 *1366:S 0
4 *1388:S 0.000241346
5 *1396:S 0
6 *1395:S 0.000486386
7 *1362:S 0.000203351
8 *1364:S 0.00012104
9 *1365:S 2.23854e-05
10 *1367:S 0.000182071
11 *1482:X 0.000159309
12 *186:104 0.000693773
13 *186:100 0.000796483
14 *186:98 0.00058731
15 *186:74 0.00112181
16 *186:61 0.000838772
17 *186:59 0.000441172
18 *186:40 0.000620303
19 *186:25 0.0005537
20 *186:8 0.000596452
21 *1362:S *1362:A0 4.43256e-05
22 *1362:S *1362:A1 1.72894e-05
23 *1363:S *1363:A1 2.89114e-05
24 *1364:S *1288:B 4.46186e-06
25 *1364:S *1364:A0 0.00017453
26 *1364:S *311:18 2.07991e-05
27 *1367:S *1367:A0 5.71472e-05
28 *1367:S *1425:RESET_B 0
29 *1367:S *190:127 2.16719e-05
30 *1388:S *1315:C1 5.58941e-05
31 *1388:S *1424:D 0.000129868
32 *1388:S *1519:A 0
33 *1388:S *306:12 3.34295e-05
34 *1395:S *1391:A1 0
35 *1395:S *1395:A1 0.000101545
36 *1395:S *1396:A0 0.000170955
37 *1395:S *1396:A1 9.90367e-05
38 *1395:S *1403:A1 3.34295e-05
39 *1395:S *1414:D 4.57445e-05
40 *1395:S *202:26 5.33005e-05
41 *1395:S *247:8 0.000166269
42 *1395:S *315:29 0
43 *186:8 *1482:A 0.00018372
44 *186:25 *1365:A0 4.88637e-05
45 *186:25 *1365:A1 0.000230482
46 *186:25 *1425:RESET_B 0
47 *186:25 *190:127 5.97623e-05
48 *186:25 *190:142 0.000393167
49 *186:25 *305:22 7.79781e-06
50 *186:40 *1290:C1 0
51 *186:40 *1312:B1 0.000315165
52 *186:40 *1365:A0 4.27338e-05
53 *186:40 *1562:A 8.76257e-05
54 *186:40 *190:142 0.00103679
55 *186:40 *195:56 0.000195396
56 *186:59 *1290:A2 0.000162125
57 *186:59 *1290:B2 0
58 *186:59 *1290:C1 5.41794e-05
59 *186:59 *202:28 9.11365e-06
60 *186:59 *202:53 4.36551e-06
61 *186:59 *311:18 0.000151333
62 *186:74 *1290:B2 8.25843e-06
63 *186:74 *1390:A0 4.43256e-05
64 *186:74 *1390:A1 7.03393e-05
65 *186:74 *1390:S 0.00052833
66 *186:74 *202:26 0.000269878
67 *186:98 *1290:C1 0.00049607
68 *186:98 *1390:A1 0
69 *186:100 *1363:A1 0.000357323
70 *186:104 *1363:A1 0.000102207
71 *186:104 *1366:A0 0.000202891
72 *186:104 *1366:A1 3.93247e-05
73 *186:104 *1389:A1 0.000114893
74 *186:104 *330:25 1.02936e-05
75 *1278:B *186:8 2.14757e-05
76 *1289:B1 *186:40 3.48705e-05
77 *1289:B1 *186:59 0
78 *1290:B1 *1362:S 0.000200697
79 *1312:A1_N *1367:S 0
80 *1316:B1 *1367:S 0
81 *1414:CLK *1395:S 8.359e-05
82 *1424:CLK *1388:S 8.47203e-05
83 *1448:D *1388:S 0
84 *1450:D *186:74 5.71472e-05
85 *1456:D *1395:S 2.27416e-05
86 *1474:A *1364:S 2.44318e-05
87 *1474:A *186:40 0
88 *1474:A *186:59 0
89 *1554:A *1362:S 0.000135028
90 *1554:A *186:74 0.000140933
91 *1554:A *186:98 0.000110189
92 *94:18 *1367:S 0.000195072
93 *176:86 *186:40 4.51526e-05
*RES
1 *1482:X *186:8 15.9786 
2 *186:8 *1367:S 17.4964 
3 *186:8 *186:25 11.2679 
4 *186:25 *1365:S 9.72857 
5 *186:25 *186:40 16.3571 
6 *186:40 *1364:S 16.9607 
7 *186:40 *186:59 5.21429 
8 *186:59 *186:61 4.5 
9 *186:61 *1362:S 13.55 
10 *186:61 *186:74 13.2857 
11 *186:74 *1395:S 29.9607 
12 *186:74 *1396:S 9.3 
13 *186:59 *186:98 11 
14 *186:98 *186:100 6.28571 
15 *186:100 *186:104 9.17857 
16 *186:104 *1388:S 23.9429 
17 *186:104 *1366:S 9.3 
18 *186:100 *1389:S 9.72857 
19 *186:98 *1363:S 10.2643 
*END

*D_NET *187 0.0152924
*CONN
*I *1482:A I *D sky130_fd_sc_hd__clkbuf_4
*I *1357:S I *D sky130_fd_sc_hd__mux2_1
*I *1390:S I *D sky130_fd_sc_hd__mux2_1
*I *1356:S I *D sky130_fd_sc_hd__mux2_1
*I *1392:S I *D sky130_fd_sc_hd__mux2_1
*I *1403:S I *D sky130_fd_sc_hd__mux2_1
*I *1358:S I *D sky130_fd_sc_hd__mux2_1
*I *1502:A I *D sky130_fd_sc_hd__clkbuf_4
*I *1483:X O *D sky130_fd_sc_hd__buf_2
*CAP
1 *1482:A 0.000901224
2 *1357:S 0.000228665
3 *1390:S 9.10502e-05
4 *1356:S 0
5 *1392:S 0.000282106
6 *1403:S 0
7 *1358:S 0
8 *1502:A 0.00026733
9 *1483:X 9.63639e-05
10 *187:101 0.00066419
11 *187:88 0.000623165
12 *187:68 0.00124333
13 *187:52 0.00199948
14 *187:31 0.000919037
15 *187:27 0.00129188
16 *187:8 0.000594877
17 *1357:S *1357:A0 0
18 *1357:S *1357:A1 5.80706e-06
19 *1357:S *1390:A0 0.000167266
20 *1357:S *1421:RESET_B 0
21 *1357:S *194:110 0
22 *1390:S *1390:A0 0.00044468
23 *1390:S *1390:A1 5.52238e-05
24 *1390:S *202:26 1.38323e-05
25 *1392:S *1392:A1 0.000177941
26 *1392:S *203:10 0
27 *1482:A *1312:A2_N 0.000525375
28 *1482:A *1312:B1 0.0001399
29 *1482:A *1358:A1 0
30 *1482:A *1364:A1 0
31 *1482:A *1367:A0 0
32 *1482:A *1397:A1 0
33 *1482:A *1524:A 2.11207e-05
34 *1482:A *195:56 0
35 *1482:A *316:10 0
36 *1502:A *1308:A 3.30352e-05
37 *1502:A *189:30 0
38 *1502:A *195:56 1.87955e-05
39 *187:8 *1457:D 0
40 *187:8 *1483:A 3.17067e-05
41 *187:8 *273:14 4.46186e-06
42 *187:27 *1397:A1 0
43 *187:27 *1457:D 0
44 *187:27 *1483:A 3.25078e-05
45 *187:27 *195:56 0
46 *187:52 *1306:A 1.41029e-05
47 *187:52 *1309:B1 4.66511e-05
48 *187:52 *191:51 8.2958e-06
49 *187:52 *192:117 0
50 *187:52 *316:38 8.69962e-05
51 *187:52 *318:22 9.25014e-06
52 *187:68 *1265:B2 0.000140379
53 *187:68 *1309:A2 0.000140933
54 *187:68 *1359:A1 0.000330848
55 *187:68 *1403:A1 1.56e-05
56 *187:68 *1451:D 3.25247e-05
57 *187:68 *1463:D 0
58 *187:88 *1288:A 0
59 *187:88 *191:51 0.000171375
60 *187:88 *192:117 0
61 *187:88 *314:14 4.31289e-05
62 *187:101 *1288:A 0
63 *187:101 *1390:A0 1.52978e-05
64 *187:101 *194:110 0
65 *187:101 *314:14 0
66 *1278:B *1482:A 0.0001399
67 *1291:A *187:88 0.000193833
68 *1291:B *187:88 0.000267099
69 *1291:B *187:101 9.16119e-05
70 *1296:D *1502:A 0.000181796
71 *1296:D *187:8 1.87097e-05
72 *1309:B2 *187:52 2.61337e-05
73 *1311:A_N *187:52 0.000139907
74 *1312:A1_N *1482:A 0.000122956
75 *1422:CLK *1482:A 3.58235e-05
76 *1422:D *1482:A 0.00015105
77 *1450:D *1357:S 0
78 *1451:CLK *187:68 0.00031248
79 *1455:CLK *187:52 0.000284843
80 *1455:CLK *187:68 2.42516e-05
81 *1523:A *187:52 0.000577016
82 *182:68 *187:68 8.32171e-05
83 *184:88 *1357:S 0
84 *186:8 *1482:A 0.00018372
85 *186:74 *1390:S 0.00052833
*RES
1 *1483:X *187:8 15.4429 
2 *187:8 *1502:A 26.6571 
3 *187:8 *187:27 4.07143 
4 *187:27 *187:31 7.08929 
5 *187:31 *1358:S 9.3 
6 *187:31 *187:52 18.5893 
7 *187:52 *187:68 31.7321 
8 *187:68 *1403:S 9.3 
9 *187:68 *1392:S 23.55 
10 *187:52 *187:88 6.80357 
11 *187:88 *1356:S 13.8 
12 *187:88 *187:101 6.05357 
13 *187:101 *1390:S 18.8536 
14 *187:101 *1357:S 18.7821 
15 *187:27 *1482:A 32.4071 
*END

*D_NET *188 0.0107406
*CONN
*I *1369:S I *D sky130_fd_sc_hd__mux2_1
*I *1372:S I *D sky130_fd_sc_hd__mux2_1
*I *1368:S I *D sky130_fd_sc_hd__mux2_1
*I *1483:A I *D sky130_fd_sc_hd__buf_2
*I *1501:A I *D sky130_fd_sc_hd__clkbuf_4
*I *1484:X O *D sky130_fd_sc_hd__clkbuf_2
*CAP
1 *1369:S 0
2 *1372:S 0.00027094
3 *1368:S 0
4 *1483:A 0.00125934
5 *1501:A 0.000164589
6 *1484:X 0
7 *188:59 0.000684519
8 *188:42 0.000916439
9 *188:21 0.00207202
10 *188:4 0.000474411
11 *1372:S *1302:B 0.000142856
12 *1372:S *1372:A0 6.26959e-05
13 *1372:S *1427:D 5.62995e-05
14 *1372:S *194:89 0.000440705
15 *1483:A *1370:A0 9.90431e-05
16 *1483:A *195:56 4.33438e-05
17 *1501:A *1370:S 0.000209491
18 *1501:A *1493:A 0
19 *1501:A *1495:A 0
20 *1501:A *262:119 5.58941e-05
21 *188:21 *192:29 5.33882e-05
22 *188:21 *193:102 1.98839e-05
23 *188:42 *1260:A1 0
24 *188:42 *1305:A2 0.000101125
25 *188:42 *1370:A0 0.00017461
26 *188:42 *192:29 0.000318927
27 *188:42 *305:16 0
28 *188:42 *307:23 5.6007e-05
29 *188:59 *1260:C1 0
30 *188:59 *1427:D 0.000142053
31 *188:59 *1427:RESET_B 0
32 *188:59 *194:89 0.000345637
33 *188:59 *305:16 0
34 *1260:B1 *188:42 6.74911e-05
35 *1278:A *188:42 0
36 *1296:C *1483:A 0.00122153
37 *1296:D *1483:A 3.34295e-05
38 *1305:C1 *188:42 0.000125217
39 *1305:C1 *188:59 0.00018524
40 *1484:A *188:21 0.000315165
41 *1527:A *188:59 9.90367e-05
42 *1565:A *188:59 0.000322453
43 *105:12 *188:21 0
44 *109:18 *1483:A 0.00013224
45 *138:12 *1483:A 1.04066e-05
46 *176:86 *188:42 0
47 *187:8 *1483:A 3.17067e-05
48 *187:27 *1483:A 3.25078e-05
*RES
1 *1484:X *188:4 9.3 
2 *188:4 *1501:A 21.7643 
3 *188:4 *188:21 9.25 
4 *188:21 *1483:A 42.3714 
5 *188:21 *188:42 12.5714 
6 *188:42 *1368:S 13.8 
7 *188:42 *188:59 16.2857 
8 *188:59 *1372:S 15.9964 
9 *188:59 *1369:S 9.3 
*END

*D_NET *189 0.0203369
*CONN
*I *1265:B2 I *D sky130_fd_sc_hd__o22a_1
*I *1293:B2 I *D sky130_fd_sc_hd__a22o_1
*I *1294:B2 I *D sky130_fd_sc_hd__o221a_1
*I *1273:B2 I *D sky130_fd_sc_hd__o2bb2a_1
*I *1257:B2 I *D sky130_fd_sc_hd__o22a_1
*I *1268:B2 I *D sky130_fd_sc_hd__a22oi_1
*I *1271:A1 I *D sky130_fd_sc_hd__o221a_1
*I *1280:B2 I *D sky130_fd_sc_hd__a22o_1
*I *1281:B2 I *D sky130_fd_sc_hd__o221a_1
*I *1256:A I *D sky130_fd_sc_hd__nand2_1
*I *1485:X O *D sky130_fd_sc_hd__buf_2
*CAP
1 *1265:B2 0.00107823
2 *1293:B2 0.000100406
3 *1294:B2 0
4 *1273:B2 0
5 *1257:B2 4.62196e-05
6 *1268:B2 1.16062e-05
7 *1271:A1 0
8 *1280:B2 2.82484e-05
9 *1281:B2 0.000113747
10 *1256:A 0.000248852
11 *1485:X 0
12 *189:136 0.00137755
13 *189:77 0.000898523
14 *189:63 0.000820054
15 *189:61 0.00156744
16 *189:51 0.00154794
17 *189:30 0.00154957
18 *189:18 0.00157211
19 *189:12 0.000497634
20 *189:4 0.000415734
21 *1256:A *1256:B 1.32019e-05
22 *1256:A *1257:B1 7.83587e-05
23 *1256:A *1260:A1 0
24 *1257:B2 *1253:A 1.5471e-05
25 *1257:B2 *1257:B1 1.24368e-05
26 *1265:B2 *1265:B1 0
27 *1265:B2 *1306:A 0.000170654
28 *1265:B2 *1360:A1 0.000679125
29 *1265:B2 *1397:A0 0.000227526
30 *1265:B2 *1404:A1 1.17968e-05
31 *1265:B2 *191:51 0.000148189
32 *1265:B2 *269:6 4.08637e-05
33 *1265:B2 *318:22 0.000108324
34 *1268:B2 *194:64 5.52302e-05
35 *1268:B2 *299:8 5.52302e-05
36 *1280:B2 *281:66 6.11292e-05
37 *1281:B2 *1281:B1 1.74352e-05
38 *1281:B2 *1380:A1 0.00014285
39 *1281:B2 *281:66 1.10868e-05
40 *1293:B2 *1405:A1 0
41 *1293:B2 *192:87 1.02504e-05
42 *1293:B2 *192:106 1.24469e-05
43 *189:12 *1294:C1 1.19402e-05
44 *189:12 *1360:A0 2.56694e-05
45 *189:12 *1360:A1 0.000142856
46 *189:12 *281:154 1.035e-05
47 *189:18 *1293:A1 5.14635e-05
48 *189:18 *1294:B1 0
49 *189:18 *1360:A0 0.000106359
50 *189:18 *1560:A 5.71472e-05
51 *189:18 *195:56 0.000212382
52 *189:18 *291:31 5.71472e-05
53 *189:30 *1253:A 8.60633e-05
54 *189:30 *1312:B1 0.000196262
55 *189:30 *1425:RESET_B 0.000177942
56 *189:30 *1457:RESET_B 6.95508e-05
57 *189:30 *191:32 0
58 *189:30 *201:78 5.80217e-05
59 *189:30 *310:8 3.25247e-05
60 *189:30 *310:21 4.98055e-06
61 *189:51 *1253:A 3.99614e-06
62 *189:61 *1257:B1 1.98839e-05
63 *189:61 *1260:C1 4.70078e-05
64 *189:61 *1271:A2 4.46186e-06
65 *189:61 *1446:RESET_B 9.88679e-05
66 *189:61 *1545:A 9.2491e-05
67 *189:61 *257:6 0.000105569
68 *189:61 *299:8 5.75147e-05
69 *189:61 *299:23 2.6113e-05
70 *189:61 *300:10 4.98872e-05
71 *189:63 *1270:B 4.97121e-06
72 *189:63 *1271:A2 7.50601e-05
73 *189:63 *1446:RESET_B 9.25014e-06
74 *189:63 *200:41 0.00012401
75 *189:77 *1269:B 5.33005e-05
76 *189:77 *1270:B 9.19945e-05
77 *189:77 *1271:A2 1.76135e-05
78 *189:77 *190:100 7.17235e-05
79 *189:77 *281:49 0.000598455
80 *189:77 *281:66 2.57017e-05
81 *189:77 *301:16 0.000192983
82 *189:136 *1360:A1 0.000315158
83 *1260:A2 *1257:B2 1.98839e-05
84 *1260:A2 *189:30 1.51444e-05
85 *1260:A2 *189:61 7.35098e-05
86 *1261:A *1256:A 7.83659e-05
87 *1261:B *189:61 0.000135028
88 *1261:C *189:61 5.52238e-05
89 *1267:C *1265:B2 0
90 *1271:B1 *189:77 2.59355e-05
91 *1272:B1 *189:77 1.50087e-05
92 *1272:C1 *189:77 0.000128161
93 *1280:A2 *1281:B2 0.000182418
94 *1282:C_N *1281:B2 9.92207e-05
95 *1282:C_N *189:77 6.69097e-05
96 *1294:A2 *189:18 2.89016e-05
97 *1295:C_N *189:18 0.000114609
98 *1296:D *189:12 0
99 *1300:A_N *189:77 0.00010096
100 *1300:B *189:77 8.26012e-05
101 *1300:C *189:77 1.78874e-05
102 *1310:B1 *1265:B2 0.000269258
103 *1316:C1 *189:30 0.000409889
104 *1317:A *189:77 6.05161e-06
105 *1418:CLK *189:30 0
106 *1451:CLK *1265:B2 0.000125639
107 *1455:D *1265:B2 0
108 *1502:A *189:30 0
109 *1546:A *189:61 0.000706531
110 *176:86 *1256:A 4.43046e-05
111 *182:20 *1293:B2 0
112 *182:26 *1293:B2 0
113 *182:26 *189:12 0
114 *183:16 *1256:A 0
115 *183:22 *1256:A 0.000262956
116 *187:68 *1265:B2 0.000140379
*RES
1 *1485:X *189:4 9.3 
2 *189:4 *189:12 12.3036 
3 *189:12 *189:18 7.66071 
4 *189:18 *189:30 33.6786 
5 *189:30 *1256:A 24.1036 
6 *189:30 *189:51 0.428571 
7 *189:51 *189:61 26.2321 
8 *189:61 *189:63 1.94643 
9 *189:63 *189:77 32.3036 
10 *189:77 *1281:B2 13.1571 
11 *189:77 *1280:B2 10.2643 
12 *189:63 *1271:A1 13.8 
13 *189:61 *1268:B2 14.3357 
14 *189:51 *1257:B2 10.6929 
15 *189:18 *1273:B2 9.3 
16 *189:12 *1294:B2 9.3 
17 *189:4 *189:136 3 
18 *189:136 *1293:B2 19.9429 
19 *189:136 *1265:B2 38.3179 
*END

*D_NET *190 0.0175564
*CONN
*I *1290:A1 I *D sky130_fd_sc_hd__o221a_1
*I *1289:A1 I *D sky130_fd_sc_hd__a22o_1
*I *1257:A1 I *D sky130_fd_sc_hd__o22a_1
*I *1272:A1 I *D sky130_fd_sc_hd__o211a_1
*I *1299:A1 I *D sky130_fd_sc_hd__o221a_1
*I *1298:A1 I *D sky130_fd_sc_hd__a22o_1
*I *1268:A1 I *D sky130_fd_sc_hd__a22oi_1
*I *1303:B2 I *D sky130_fd_sc_hd__o2bb2a_1
*I *1286:A1 I *D sky130_fd_sc_hd__a221o_1
*I *1285:A1 I *D sky130_fd_sc_hd__o22ai_1
*I *1486:X O *D sky130_fd_sc_hd__buf_2
*CAP
1 *1290:A1 0.000218583
2 *1289:A1 0
3 *1257:A1 0
4 *1272:A1 0
5 *1299:A1 0.000160931
6 *1298:A1 6.34862e-05
7 *1268:A1 3.14135e-05
8 *1303:B2 1.83743e-05
9 *1286:A1 1.91209e-05
10 *1285:A1 0.00024044
11 *1486:X 0
12 *190:142 0.00133439
13 *190:127 0.00126415
14 *190:100 0.000702261
15 *190:96 0.000780314
16 *190:81 0.00112659
17 *190:58 0.00164258
18 *190:46 0.0017645
19 *190:14 0.000623297
20 *190:4 0.00114839
21 *1268:A1 *1545:A 0.000112371
22 *1268:A1 *194:64 0.000184745
23 *1268:A1 *299:8 1.24368e-05
24 *1268:A1 *299:23 5.99376e-05
25 *1285:A1 *1327:A0 0.000174805
26 *1285:A1 *1327:A1 1.56e-05
27 *1285:A1 *1328:S 5.52238e-05
28 *1285:A1 *1520:A 0.000139913
29 *1285:A1 *295:23 0
30 *1290:A1 *1289:A2 5.33005e-05
31 *1290:A1 *1390:A1 0
32 *1290:A1 *202:28 0.000153054
33 *1290:A1 *311:12 0
34 *1298:A1 *1298:A2 2.89016e-05
35 *1299:A1 *1270:A 0
36 *1299:A1 *1377:A0 2.59355e-05
37 *1299:A1 *193:74 0
38 *1303:B2 *304:25 4.19348e-05
39 *190:14 *1285:A2 0.00012401
40 *190:14 *1286:A2 1.46576e-05
41 *190:14 *1327:A1 3.20613e-05
42 *190:14 *1520:A 9.60875e-05
43 *190:14 *195:44 0.000120123
44 *190:14 *281:139 4.03318e-05
45 *190:46 *1244:A 2.46999e-05
46 *190:46 *191:32 0
47 *190:46 *192:53 3.61964e-05
48 *190:46 *195:44 2.50239e-05
49 *190:46 *291:31 0
50 *190:58 *1305:A2 8.50063e-06
51 *190:58 *304:25 2.65105e-05
52 *190:81 *1371:A0 9.60875e-05
53 *190:81 *1430:D 0.000103267
54 *190:81 *1545:A 0.000372754
55 *190:81 *194:64 4.08637e-05
56 *190:96 *1272:A2 0
57 *190:96 *194:64 3.17148e-05
58 *190:96 *200:35 0.000250915
59 *190:96 *281:98 0
60 *190:100 *1269:A 9.60875e-05
61 *190:100 *1269:B 9.60875e-05
62 *190:127 *1494:A 6.35303e-05
63 *190:142 *1365:A1 7.06444e-05
64 *190:142 *1494:A 1.27784e-05
65 *190:142 *305:22 0.000102545
66 *1277:A2 *190:46 0.000160463
67 *1277:C1 *190:46 0
68 *1278:C *1303:B2 9.90367e-05
69 *1278:C *190:58 0.000140933
70 *1278:C *190:96 3.69047e-06
71 *1278:D *190:46 0.000414721
72 *1278:D *190:127 7.72569e-05
73 *1285:B2 *1285:A1 1.76135e-05
74 *1286:B1 *1285:A1 8.50146e-05
75 *1286:B1 *1286:A1 0
76 *1286:B2 *1285:A1 2.84269e-05
77 *1291:B *1290:A1 1.55885e-05
78 *1303:A1_N *190:58 1.15603e-05
79 *1305:C1 *190:58 8.22793e-06
80 *1305:C1 *190:81 0
81 *1317:D *190:46 0
82 *1367:S *190:127 2.16719e-05
83 *1425:D *190:46 0.000100823
84 *1481:A *1290:A1 5.52302e-05
85 *1486:A *190:46 9.90431e-05
86 *1546:A *190:81 4.4208e-05
87 *94:18 *190:46 6.87203e-05
88 *94:18 *190:127 0.000185914
89 *176:34 *1299:A1 0.000246071
90 *180:10 *190:81 2.82555e-05
91 *180:20 *190:81 0
92 *186:25 *190:127 5.97623e-05
93 *186:25 *190:142 0.000393167
94 *186:40 *190:142 0.00103679
95 *189:77 *190:100 7.17235e-05
*RES
1 *1486:X *190:4 9.3 
2 *190:4 *190:14 15 
3 *190:14 *1285:A1 24.1036 
4 *190:14 *1286:A1 9.72857 
5 *190:4 *190:46 20.1339 
6 *190:46 *190:58 14.5864 
7 *190:58 *1303:B2 10.2464 
8 *190:58 *190:81 22.1071 
9 *190:81 *1268:A1 11.0679 
10 *190:81 *190:96 15.0357 
11 *190:96 *190:100 7.94643 
12 *190:100 *1298:A1 10.2464 
13 *190:100 *1299:A1 21.9964 
14 *190:96 *1272:A1 9.3 
15 *190:46 *190:127 4.52679 
16 *190:127 *1257:A1 13.8 
17 *190:127 *190:142 21.875 
18 *190:142 *1289:A1 9.3 
19 *190:142 *1290:A1 22.425 
*END

*D_NET *191 0.0127383
*CONN
*I *1312:B2 I *D sky130_fd_sc_hd__o2bb2a_1
*I *1262:B I *D sky130_fd_sc_hd__nand2_1
*I *1309:A1 I *D sky130_fd_sc_hd__a22o_1
*I *1306:A I *D sky130_fd_sc_hd__or2_1
*I *1265:A2 I *D sky130_fd_sc_hd__o22a_1
*I *1273:A1_N I *D sky130_fd_sc_hd__o2bb2a_1
*I *1276:A1 I *D sky130_fd_sc_hd__o221a_1
*I *1487:X O *D sky130_fd_sc_hd__clkbuf_2
*CAP
1 *1312:B2 3.3222e-05
2 *1262:B 0.000314932
3 *1309:A1 0
4 *1306:A 0.000954627
5 *1265:A2 0
6 *1273:A1_N 1.54602e-05
7 *1276:A1 0.000192631
8 *1487:X 4.70928e-05
9 *191:51 0.00105171
10 *191:47 0.000440477
11 *191:40 0.00151272
12 *191:32 0.0019557
13 *191:10 0.00031207
14 *191:8 0.000589291
15 *1262:B *1262:A 0.000392841
16 *1262:B *1265:A1 2.28598e-05
17 *1262:B *314:14 1.61893e-05
18 *1273:A1_N *291:31 2.70944e-05
19 *1276:A1 *1273:A2_N 0.000372958
20 *1276:A1 *1276:C1 6.05161e-06
21 *1276:A1 *290:28 3.30352e-05
22 *1306:A *1309:B1 5.59013e-05
23 *1306:A *1391:A0 0.000116749
24 *1306:A *1391:S 0.000186737
25 *1306:A *1392:A1 8.90199e-05
26 *1306:A *318:22 0.000100823
27 *191:8 *1308:A 2.59355e-05
28 *191:10 *1273:A2_N 5.83304e-05
29 *191:10 *1457:RESET_B 8.4038e-05
30 *191:10 *201:78 4.98872e-05
31 *191:32 *1425:RESET_B 9.10431e-06
32 *191:32 *1457:RESET_B 1.76135e-05
33 *191:40 *1263:A 9.18206e-05
34 *191:40 *1263:B 5.33433e-05
35 *191:40 *1265:A1 2.89016e-05
36 *191:40 *1367:A0 0.00104039
37 *191:40 *1416:D 4.39457e-05
38 *191:40 *316:10 9.02133e-05
39 *191:47 *1265:A1 2.6269e-05
40 *191:51 *314:14 9.25014e-06
41 *1265:B2 *1306:A 0.000170654
42 *1265:B2 *191:51 0.000148189
43 *1266:B1 *191:40 9.60875e-05
44 *1267:A *1262:B 2.54632e-05
45 *1267:B *1262:B 0.000138881
46 *1276:B2 *1276:A1 0
47 *1277:C1 *1276:A1 0.000129015
48 *1311:C *1306:A 2.17375e-05
49 *1312:A1_N *1312:B2 3.92854e-05
50 *1312:A1_N *191:32 3.34687e-05
51 *1316:B1 *1312:B2 6.81083e-05
52 *1316:B1 *191:32 5.59013e-05
53 *1317:D *191:32 0.000150625
54 *1416:CLK *191:40 0.00014285
55 *1487:A *1276:A1 7.53309e-05
56 *1487:A *191:10 0.000306359
57 *1487:A *191:32 6.98302e-05
58 *1504:A *1306:A 0.00018372
59 *70:39 *191:32 6.42338e-05
60 *94:18 *191:32 0
61 *94:18 *191:40 5.6547e-05
62 *176:60 *1276:A1 9.90367e-05
63 *187:52 *1306:A 1.41029e-05
64 *187:52 *191:51 8.2958e-06
65 *187:88 *191:51 0.000171375
66 *189:30 *191:32 0
67 *190:46 *191:32 0
*RES
1 *1487:X *191:8 14.3357 
2 *191:8 *191:10 4.07143 
3 *191:10 *1276:A1 19.7286 
4 *191:10 *1273:A1_N 14.0723 
5 *191:8 *191:32 8.92857 
6 *191:32 *191:40 26.9464 
7 *191:40 *1265:A2 9.3 
8 *191:40 *191:47 0.535714 
9 *191:47 *191:51 7.05357 
10 *191:51 *1306:A 28.3 
11 *191:51 *1309:A1 13.8 
12 *191:47 *1262:B 16.1929 
13 *191:32 *1312:B2 14.8357 
*END

*D_NET *192 0.01725
*CONN
*I *1292:A I *D sky130_fd_sc_hd__xor2_1
*I *1288:A I *D sky130_fd_sc_hd__xor2_1
*I *1263:B I *D sky130_fd_sc_hd__and2_1
*I *1264:B I *D sky130_fd_sc_hd__nor2_1
*I *1307:A I *D sky130_fd_sc_hd__nor2_1
*I *1275:A I *D sky130_fd_sc_hd__nor2_1
*I *1274:A I *D sky130_fd_sc_hd__and2_1
*I *1259:A I *D sky130_fd_sc_hd__nor2_1
*I *1258:A I *D sky130_fd_sc_hd__and2_1
*I *1242:A I *D sky130_fd_sc_hd__inv_2
*I *1488:X O *D sky130_fd_sc_hd__clkbuf_4
*CAP
1 *1292:A 0
2 *1288:A 0.000982075
3 *1263:B 1.99167e-05
4 *1264:B 2.54135e-05
5 *1307:A 0
6 *1275:A 3.82418e-05
7 *1274:A 0.000165683
8 *1259:A 0.00011506
9 *1258:A 0
10 *1242:A 0.000343066
11 *1488:X 0
12 *192:117 0.0011036
13 *192:106 0.00107117
14 *192:87 0.0011774
15 *192:81 0.000912817
16 *192:70 0.00119337
17 *192:53 0.00135761
18 *192:29 0.000607768
19 *192:8 0.000874995
20 *192:4 0.000755579
21 *1242:A *1287:A2 9.25014e-06
22 *1242:A *1370:S 0
23 *1242:A *1492:A 4.06782e-05
24 *1242:A *1495:A 5.71472e-05
25 *1242:A *262:10 0.000116749
26 *1242:A *262:109 0.00013884
27 *1259:A *1258:B 0.000101036
28 *1263:B *1263:A 9.90431e-05
29 *1274:A *1520:A 9.60939e-05
30 *1274:A *1568:A 5.58941e-05
31 *1274:A *292:45 0.00015234
32 *1288:A *1241:A 7.79781e-06
33 *1288:A *194:110 7.09632e-05
34 *1288:A *311:18 2.95726e-05
35 *192:8 *1325:A 5.52302e-05
36 *192:29 *1370:S 0
37 *192:29 *1492:A 1.65558e-05
38 *192:53 *1325:A 0.00014183
39 *192:53 *1568:A 0.000260256
40 *192:53 *204:27 1.70474e-05
41 *192:53 *204:35 0.000407996
42 *192:70 *1520:A 0.000146591
43 *192:70 *292:33 1.58163e-05
44 *192:70 *292:45 8.5232e-05
45 *192:81 *1239:A 5.03772e-05
46 *192:81 *1292:B 3.37555e-05
47 *192:87 *1405:A1 0
48 *192:106 *1241:A 0.000303719
49 *192:106 *1307:B 0
50 *192:106 *1557:A 0.000156147
51 *192:106 *204:27 0.000167288
52 *1260:B1 *1259:A 5.71472e-05
53 *1266:B1 *1288:A 1.41029e-05
54 *1266:B2 *1264:B 6.05161e-06
55 *1266:B2 *1288:A 0.000187012
56 *1266:B2 *192:117 0.000123295
57 *1277:C1 *1274:A 0
58 *1278:D *192:53 0.000259656
59 *1287:B1 *192:53 2.49484e-05
60 *1287:C1 *1274:A 9.25014e-06
61 *1291:A *1288:A 0.000256698
62 *1293:B2 *192:87 1.02504e-05
63 *1293:B2 *192:106 1.24469e-05
64 *1295:A *192:81 0.00018077
65 *1296:B *192:53 7.6644e-05
66 *1296:D *192:81 2.65105e-05
67 *1305:C1 *192:29 0.000221299
68 *1309:B2 *192:106 0
69 *1309:B2 *192:117 2.8266e-06
70 *1310:B1 *192:106 0
71 *1311:A_N *192:106 2.05938e-05
72 *1311:B *192:106 0.000103275
73 *1320:A_N *1274:A 0
74 *1455:CLK *1264:B 5.52302e-05
75 *1474:A *1288:A 1.82657e-05
76 *1523:A *192:106 5.59013e-05
77 *1523:A *192:117 2.14378e-05
78 *67:14 *192:81 0.000490416
79 *69:29 *192:106 0
80 *70:10 *1242:A 0.000567019
81 *70:27 *1242:A 2.89114e-05
82 *71:16 *192:87 0
83 *123:8 *192:53 3.97677e-05
84 *176:10 *1274:A 0.000113877
85 *184:8 *1288:A 0.000227539
86 *187:52 *192:117 0
87 *187:88 *1288:A 0
88 *187:88 *192:117 0
89 *187:101 *1288:A 0
90 *188:21 *192:29 5.33882e-05
91 *188:42 *192:29 0.000318927
92 *190:46 *192:53 3.61964e-05
93 *191:40 *1263:B 5.33433e-05
*RES
1 *1488:X *192:4 9.3 
2 *192:4 *192:8 5.03571 
3 *192:8 *1242:A 23.8357 
4 *192:8 *192:29 15.25 
5 *192:29 *1258:A 9.3 
6 *192:29 *1259:A 11.925 
7 *192:4 *192:53 21.1786 
8 *192:53 *1274:A 22.4071 
9 *192:53 *192:70 6.30357 
10 *192:70 *1275:A 10.0321 
11 *192:70 *192:81 12.3571 
12 *192:81 *192:87 7.89286 
13 *192:87 *1307:A 13.8 
14 *192:87 *192:106 18.3039 
15 *192:106 *1264:B 14.3357 
16 *192:106 *192:117 2.25 
17 *192:117 *1263:B 14.7464 
18 *192:117 *1288:A 29.0679 
19 *192:81 *1292:A 9.3 
*END

*D_NET *193 0.0188372
*CONN
*I *1308:A I *D sky130_fd_sc_hd__and2_1
*I *1488:A I *D sky130_fd_sc_hd__clkbuf_4
*I *1270:A I *D sky130_fd_sc_hd__nor2_1
*I *1269:A I *D sky130_fd_sc_hd__and2_1
*I *1297:A I *D sky130_fd_sc_hd__xnor2_1
*I *1382:A1 I *D sky130_fd_sc_hd__mux2_1
*I *1279:A I *D sky130_fd_sc_hd__xor2_1
*I *1355:B2 I *D sky130_fd_sc_hd__o2bb2a_1
*I *1489:X O *D sky130_fd_sc_hd__buf_2
*CAP
1 *1308:A 0.00144105
2 *1488:A 0
3 *1270:A 0.000134575
4 *1269:A 4.89893e-05
5 *1297:A 8.7922e-05
6 *1382:A1 0
7 *1279:A 0.000400687
8 *1355:B2 0.000322202
9 *1489:X 0.000101549
10 *193:102 0.00232805
11 *193:74 0.000569564
12 *193:68 0.00142075
13 *193:55 0.00103615
14 *193:27 0.000679253
15 *193:21 0.00133809
16 *193:8 0.000682792
17 *1270:A *1271:C1 4.1331e-06
18 *1270:A *1377:A0 0
19 *1279:A *1382:A0 0.000144773
20 *1279:A *1577:A 1.76135e-05
21 *1297:A *194:21 8.68665e-05
22 *1297:A *194:32 2.84494e-05
23 *1308:A *1308:B 4.59429e-05
24 *1308:A *1457:RESET_B 0.00096382
25 *1308:A *204:35 0.000158783
26 *1308:A *204:39 0.000214198
27 *1355:B2 *197:79 0
28 *1355:B2 *197:93 0
29 *193:8 *1489:A 1.92905e-05
30 *193:8 *197:79 2.65105e-05
31 *193:21 *1503:A 0.000128146
32 *193:21 *197:79 0
33 *193:27 *1382:S 0.000320024
34 *193:27 *262:42 8.57023e-05
35 *193:55 *1379:A1 0
36 *193:55 *1438:D 5.33005e-05
37 *193:55 *240:23 0
38 *193:55 *262:36 0.000403229
39 *193:68 *262:36 0.000310292
40 *193:74 *1297:B 5.72433e-05
41 *193:74 *1435:D 8.59056e-05
42 *193:74 *262:28 0
43 *193:102 *1376:A0 2.14658e-05
44 *193:102 *204:39 0.000443654
45 *193:102 *262:28 0.000262877
46 *193:102 *262:36 0.000186669
47 *1282:A *193:55 0.000197391
48 *1296:D *1308:A 0.000650234
49 *1299:A1 *1270:A 0
50 *1299:A1 *193:74 0
51 *1300:A_N *193:74 0
52 *1300:B *1270:A 7.4826e-05
53 *1300:B *193:74 0.000245349
54 *1300:C *193:74 3.34783e-05
55 *1354:A1 *1355:B2 0
56 *1355:A1_N *1355:B2 2.44318e-05
57 *1355:B1 *1355:B2 9.90367e-05
58 *1411:D *1355:B2 0
59 *1441:CLK *193:55 0.00014279
60 *1442:CLK *1279:A 0
61 *1442:D *1279:A 0.000289928
62 *1457:CLK *1308:A 0.000288166
63 *1465:D *193:102 8.86129e-06
64 *1475:A *193:21 0.000175519
65 *1484:A *1308:A 0.000525381
66 *1484:A *193:102 0.000142856
67 *1487:A *1308:A 5.33005e-05
68 *1502:A *1308:A 3.30352e-05
69 *123:8 *1308:A 0.000438745
70 *166:12 *1355:B2 2.84494e-05
71 *176:34 *1297:A 0.000220463
72 *176:34 *193:74 0
73 *177:12 *193:21 0.00014209
74 *177:12 *193:55 9.25014e-06
75 *177:85 *193:55 0.000211205
76 *188:21 *193:102 1.98839e-05
77 *190:100 *1269:A 9.60875e-05
78 *191:8 *1308:A 2.59355e-05
*RES
1 *1489:X *193:8 15.1571 
2 *193:8 *1355:B2 18.925 
3 *193:8 *193:21 6.19643 
4 *193:21 *193:27 10.1786 
5 *193:27 *1279:A 26.8 
6 *193:27 *1382:A1 9.3 
7 *193:21 *193:55 19.7143 
8 *193:55 *1297:A 21.1571 
9 *193:55 *193:68 3 
10 *193:68 *193:74 12.75 
11 *193:74 *1269:A 14.7464 
12 *193:74 *1270:A 16.6571 
13 *193:68 *193:102 17.25 
14 *193:102 *1488:A 9.3 
15 *193:102 *1308:A 42.1393 
*END

*D_NET *194 0.022129
*CONN
*I *1301:A I *D sky130_fd_sc_hd__and2_1
*I *1313:A I *D sky130_fd_sc_hd__nor2_1
*I *1266:A2 I *D sky130_fd_sc_hd__o221a_1
*I *1241:A I *D sky130_fd_sc_hd__inv_2
*I *1314:A I *D sky130_fd_sc_hd__and2_1
*I *1302:A I *D sky130_fd_sc_hd__nor2_1
*I *1299:B2 I *D sky130_fd_sc_hd__o221a_1
*I *1298:B2 I *D sky130_fd_sc_hd__a22o_1
*I *1381:A1 I *D sky130_fd_sc_hd__mux2_1
*I *1348:B2 I *D sky130_fd_sc_hd__o2bb2a_1
*I *1490:X O *D sky130_fd_sc_hd__buf_2
*CAP
1 *1301:A 0
2 *1313:A 0
3 *1266:A2 6.76316e-05
4 *1241:A 0.00057088
5 *1314:A 1.11927e-05
6 *1302:A 0
7 *1299:B2 0
8 *1298:B2 2.36895e-05
9 *1381:A1 0.000466782
10 *1348:B2 0.000372332
11 *1490:X 0.000295901
12 *194:110 0.00207342
13 *194:102 0.00159173
14 *194:89 0.000695166
15 *194:74 0.000809391
16 *194:64 0.00165536
17 *194:43 0.00150118
18 *194:32 0.00042522
19 *194:21 0.00120296
20 *194:8 0.00113095
21 *1241:A *1360:A1 5.52238e-05
22 *1241:A *1391:S 0
23 *1241:A *1404:S 5.33005e-05
24 *1241:A *319:8 3.64272e-05
25 *1266:A2 *1266:C1 0.000140933
26 *1314:A *1313:B 0
27 *194:21 *1438:RESET_B 0.000117478
28 *194:21 *298:10 0.00017309
29 *194:43 *1298:A2 0.000202128
30 *194:64 *1268:B1 5.33005e-05
31 *194:64 *1272:A2 0
32 *194:64 *1298:A2 1.02504e-05
33 *194:64 *1304:C1 5.33005e-05
34 *194:64 *1371:S 0.000175512
35 *194:64 *1375:A0 5.52653e-05
36 *194:64 *1433:RESET_B 9.23695e-05
37 *194:64 *1446:RESET_B 0
38 *194:64 *1531:A 0
39 *194:64 *199:30 9.36353e-05
40 *194:64 *251:10 0.000141375
41 *194:64 *251:41 0
42 *194:64 *281:98 0
43 *194:64 *296:16 5.33005e-05
44 *194:64 *296:18 0.000117896
45 *194:64 *299:8 2.92464e-05
46 *194:64 *300:10 0
47 *194:74 *1301:B 0
48 *194:74 *1304:C1 4.51641e-05
49 *194:74 *199:30 1.24368e-05
50 *194:74 *281:98 0.000142856
51 *194:89 *1314:B 2.89016e-05
52 *194:89 *1369:A0 0.000936419
53 *194:89 *1369:A1 0.000161937
54 *194:89 *1372:A0 0.000184745
55 *194:102 *1313:B 0
56 *194:102 *1314:B 0.000274294
57 *194:102 *309:14 0.000199997
58 *194:110 *1313:B 5.7661e-06
59 *194:110 *1362:A0 0.000309266
60 *1266:A1 *1266:A2 1.97695e-05
61 *1266:B1 *1241:A 0.000152333
62 *1266:B2 *1241:A 3.32442e-05
63 *1268:A1 *194:64 0.000184745
64 *1268:B2 *194:64 5.52302e-05
65 *1288:A *1241:A 7.79781e-06
66 *1288:A *194:110 7.09632e-05
67 *1297:A *194:21 8.68665e-05
68 *1297:A *194:32 2.84494e-05
69 *1298:B1 *1298:B2 5.52238e-05
70 *1299:B1 *194:32 0
71 *1299:B1 *194:43 0
72 *1304:A2 *194:74 1.52978e-05
73 *1304:B1 *194:74 0.00014285
74 *1304:B2 *194:74 0.000125717
75 *1315:A2 *194:110 0.00010096
76 *1315:B1 *194:89 0.00018099
77 *1315:B1 *194:102 0.000320024
78 *1348:A2_N *1348:B2 5.33978e-05
79 *1357:S *194:110 0
80 *1372:S *194:89 0.000440705
81 *1410:D *1348:B2 3.15739e-05
82 *1424:CLK *194:89 8.83851e-05
83 *1450:D *194:110 6.65302e-05
84 *1480:A *194:89 3.7542e-05
85 *1480:A *194:102 1.21289e-05
86 *1480:A *194:110 0
87 *1523:A *1241:A 0.000218026
88 *1527:A *194:89 0.000126472
89 *3:21 *1381:A1 0.000703898
90 *78:8 *194:32 0
91 *118:12 *1241:A 0.000276605
92 *118:12 *1266:A2 2.72887e-05
93 *146:88 *1348:B2 9.90367e-05
94 *176:34 *194:21 0.000113718
95 *176:34 *194:32 0.000133024
96 *176:34 *194:43 7.80714e-06
97 *180:64 *194:74 0
98 *184:10 *1241:A 4.01501e-05
99 *184:10 *194:110 6.53781e-05
100 *184:32 *194:110 5.72433e-05
101 *184:47 *194:110 0.000152118
102 *184:88 *194:110 0.000226021
103 *187:101 *194:110 0
104 *188:59 *194:89 0.000345637
105 *190:81 *194:64 4.08637e-05
106 *190:96 *194:64 3.17148e-05
107 *192:106 *1241:A 0.000303719
*RES
1 *1490:X *194:8 17.2107 
2 *194:8 *1348:B2 20.9429 
3 *194:8 *194:21 10.75 
4 *194:21 *1381:A1 20.4964 
5 *194:21 *194:32 5.58929 
6 *194:32 *1298:B2 14.3357 
7 *194:32 *194:43 2.85714 
8 *194:43 *1299:B2 13.8 
9 *194:43 *194:64 34.8036 
10 *194:64 *194:74 15.1786 
11 *194:74 *1302:A 9.3 
12 *194:74 *194:89 18.4821 
13 *194:89 *1314:A 9.72857 
14 *194:89 *194:102 6.32143 
15 *194:102 *194:110 31.1964 
16 *194:110 *1241:A 27.8714 
17 *194:110 *1266:A2 15.5857 
18 *194:102 *1313:A 9.3 
19 *194:64 *1301:A 9.3 
*END

*D_NET *195 0.0102793
*CONN
*I *1277:A1 I *D sky130_fd_sc_hd__o211a_1
*I *1289:B2 I *D sky130_fd_sc_hd__a22o_1
*I *1290:B2 I *D sky130_fd_sc_hd__o221a_1
*I *1283:A I *D sky130_fd_sc_hd__or2_1
*I *1284:A I *D sky130_fd_sc_hd__nand2_1
*I *1491:X O *D sky130_fd_sc_hd__dlymetal6s2s_1
*CAP
1 *1277:A1 0
2 *1289:B2 0
3 *1290:B2 0.000286227
4 *1283:A 0.000211291
5 *1284:A 0.000217527
6 *1491:X 0
7 *195:56 0.00179572
8 *195:44 0.0017957
9 *195:14 0.000753382
10 *195:4 0.00061077
11 *1284:A *1284:B 0
12 *1284:A *197:24 8.96049e-05
13 *1284:A *197:35 3.20125e-05
14 *1284:A *281:23 5.26091e-05
15 *1290:B2 *1362:A0 2.89114e-05
16 *1290:B2 *202:26 0
17 *195:14 *1284:B 0
18 *195:14 *1285:A2 4.35452e-05
19 *195:14 *1407:RESET_B 4.27935e-05
20 *195:14 *1491:A 0.000363896
21 *195:14 *1558:A 7.25875e-05
22 *195:14 *197:35 3.67548e-05
23 *195:14 *262:119 0.000173083
24 *195:14 *294:10 1.39711e-05
25 *195:56 *1312:A2_N 0
26 *195:56 *1364:A1 0
27 *195:56 *1560:A 4.38128e-05
28 *195:56 *291:31 0.000392911
29 *195:56 *308:12 0
30 *195:56 *310:8 0
31 *195:56 *310:21 0
32 *1277:B1 *195:44 1.97695e-05
33 *1277:B1 *195:56 1.90213e-05
34 *1286:B1 *1283:A 0.000146523
35 *1286:B2 *1284:A 5.33334e-05
36 *1287:B1 *195:14 0.000216036
37 *1287:B1 *195:44 0.000398815
38 *1289:B1 *1290:B2 0.000103267
39 *1289:B1 *195:56 5.52238e-05
40 *1290:B1 *1290:B2 7.2753e-05
41 *1296:D *195:56 0.000451718
42 *1316:C1 *195:56 0
43 *1418:CLK *195:56 7.48085e-05
44 *1422:D *195:56 0.000150625
45 *1474:A *1290:B2 6.8646e-06
46 *1474:A *195:56 0
47 *1482:A *195:56 0
48 *1483:A *195:56 4.33438e-05
49 *1486:A *195:44 6.86153e-05
50 *1486:A *195:56 0.000237599
51 *1502:A *195:56 1.87955e-05
52 *1521:A *1284:A 3.18676e-05
53 *67:14 *195:56 0.000263524
54 *176:86 *195:56 0.000228558
55 *186:40 *195:56 0.000195396
56 *186:59 *1290:B2 0
57 *186:74 *1290:B2 8.25843e-06
58 *187:27 *195:56 0
59 *189:18 *195:56 0.000212382
60 *190:14 *195:44 0.000120123
61 *190:46 *195:44 2.50239e-05
*RES
1 *1491:X *195:4 9.3 
2 *195:4 *195:14 13.2679 
3 *195:14 *1284:A 19.1214 
4 *195:14 *1283:A 16.8179 
5 *195:4 *195:44 7.26786 
6 *195:44 *195:56 42.4643 
7 *195:56 *1290:B2 22.8536 
8 *195:56 *1289:B2 9.3 
9 *195:44 *1277:A1 9.3 
*END

*D_NET *196 0.00113736
*CONN
*I *1499:A I *D sky130_fd_sc_hd__dlymetal6s2s_1
*I *1573:X O *D sky130_fd_sc_hd__clkbuf_1
*CAP
1 *1499:A 0.000568682
2 *1573:X 0.000568682
3 *1499:A *1511:A 0
*RES
1 *1573:X *1499:A 37.1357 
*END

*D_NET *197 0.0146447
*CONN
*I *1407:RESET_B I *D sky130_fd_sc_hd__dfrtp_1
*I *1438:RESET_B I *D sky130_fd_sc_hd__dfrtp_1
*I *1439:RESET_B I *D sky130_fd_sc_hd__dfrtp_1
*I *1442:RESET_B I *D sky130_fd_sc_hd__dfrtp_1
*I *1413:RESET_B I *D sky130_fd_sc_hd__dfrtp_2
*I *1412:RESET_B I *D sky130_fd_sc_hd__dfrtp_2
*I *1411:RESET_B I *D sky130_fd_sc_hd__dfrtp_1
*I *1429:RESET_B I *D sky130_fd_sc_hd__dfrtp_1
*I *1408:RESET_B I *D sky130_fd_sc_hd__dfrtp_1
*I *1409:RESET_B I *D sky130_fd_sc_hd__dfrtp_4
*I *1492:X O *D sky130_fd_sc_hd__clkbuf_4
*CAP
1 *1407:RESET_B 8.98037e-05
2 *1438:RESET_B 0.000211883
3 *1439:RESET_B 1.90348e-05
4 *1442:RESET_B 0.000544933
5 *1413:RESET_B 5.09819e-05
6 *1412:RESET_B 0.000126636
7 *1411:RESET_B 1.25902e-05
8 *1429:RESET_B 0.000235909
9 *1408:RESET_B 0
10 *1409:RESET_B 0.000273373
11 *1492:X 0.00024017
12 *197:93 0.000778522
13 *197:79 0.00103992
14 *197:61 0.000690597
15 *197:59 0.000892513
16 *197:55 0.000449867
17 *197:51 0.00147372
18 *197:35 0.00138925
19 *197:24 0.000431696
20 *197:12 0.000796117
21 *1407:RESET_B *1327:A0 0.000171375
22 *1407:RESET_B *262:119 0.000162125
23 *1407:RESET_B *294:10 8.94203e-05
24 *1429:RESET_B *1503:A 0.000230475
25 *1438:RESET_B *1379:A0 0
26 *1442:RESET_B *1438:D 9.11048e-06
27 *1442:RESET_B *262:42 0.000173804
28 *197:12 *1341:B2 0.000105979
29 *197:12 *1492:A 0
30 *197:12 *198:44 0
31 *197:12 *281:23 1.19309e-05
32 *197:24 *1328:A1 0.000149911
33 *197:24 *1328:S 4.23086e-05
34 *197:24 *1492:A 0
35 *197:24 *281:23 0
36 *197:35 *1327:A0 0.000101545
37 *197:35 *1328:S 5.2164e-05
38 *197:35 *262:119 5.66157e-05
39 *197:51 *1321:B 0.000230482
40 *197:51 *1514:A 0.000273269
41 *197:51 *1525:A 5.33005e-05
42 *197:51 *262:119 2.59355e-05
43 *197:59 *1439:D 2.59355e-05
44 *197:79 *1439:D 0.000101227
45 *197:79 *1489:A 9.80173e-05
46 *197:93 *1346:A 0
47 *197:93 *289:10 0.000170654
48 *1284:A *197:24 8.96049e-05
49 *1284:A *197:35 3.20125e-05
50 *1286:B1 *197:51 0.00019119
51 *1286:C1 *197:24 0
52 *1352:A2 *197:93 1.81805e-05
53 *1352:A3 *197:93 0.000129868
54 *1355:A2_N *197:93 0.000270229
55 *1355:B2 *197:79 0
56 *1355:B2 *197:93 0
57 *1407:D *197:51 0.000445577
58 *1411:D *197:93 3.57844e-05
59 *1412:D *1412:RESET_B 2.81497e-05
60 *1413:D *197:93 0
61 *1435:CLK *1438:RESET_B 2.51837e-05
62 *1435:CLK *1442:RESET_B 4.13496e-05
63 *1460:D *197:12 2.72859e-05
64 *1465:D *197:51 0.000328655
65 *1475:A *1429:RESET_B 1.0562e-05
66 *1475:A *197:61 1.28166e-05
67 *1475:A *197:79 4.06875e-05
68 *1521:A *197:12 0.000123903
69 *1521:A *197:24 0.000101545
70 *1570:A *197:24 4.0342e-06
71 *11:29 *1412:RESET_B 0
72 *11:29 *197:93 0
73 *147:29 *1413:RESET_B 2.52688e-05
74 *166:12 *197:93 0
75 *177:12 *1442:RESET_B 5.0725e-05
76 *177:12 *197:61 2.8266e-06
77 *177:29 *1429:RESET_B 0.000240522
78 *177:85 *1442:RESET_B 6.8646e-06
79 *177:89 *1442:RESET_B 5.52302e-05
80 *193:8 *197:79 2.65105e-05
81 *193:21 *197:79 0
82 *194:21 *1438:RESET_B 0.000117478
83 *195:14 *1407:RESET_B 4.27935e-05
84 *195:14 *197:35 3.67548e-05
*RES
1 *1492:X *197:12 24.2286 
2 *197:12 *1409:RESET_B 3.75893 
3 *197:12 *197:24 10.8393 
4 *197:24 *1408:RESET_B 4.5 
5 *197:24 *197:35 3.51786 
6 *197:35 *197:51 26 
7 *197:51 *197:55 1.78571 
8 *197:55 *197:59 9.55357 
9 *197:59 *197:61 0.580357 
10 *197:61 *1429:RESET_B 10.3036 
11 *197:61 *197:79 12.6339 
12 *197:79 *1411:RESET_B 0.473214 
13 *197:79 *197:93 16.2321 
14 *197:93 *1412:RESET_B 6.61607 
15 *197:93 *1413:RESET_B 5.38393 
16 *197:59 *1442:RESET_B 13.8661 
17 *197:55 *1439:RESET_B 0.366071 
18 *197:51 *1438:RESET_B 13.5446 
19 *197:35 *1407:RESET_B 7.63393 
*END

*D_NET *198 0.00823879
*CONN
*I *1465:RESET_B I *D sky130_fd_sc_hd__dfrtp_1
*I *1435:RESET_B I *D sky130_fd_sc_hd__dfrtp_1
*I *1461:RESET_B I *D sky130_fd_sc_hd__dfrtp_2
*I *1460:RESET_B I *D sky130_fd_sc_hd__dfrtp_4
*I *1459:RESET_B I *D sky130_fd_sc_hd__dfrtp_4
*I *1410:RESET_B I *D sky130_fd_sc_hd__dfrtp_1
*I *1458:RESET_B I *D sky130_fd_sc_hd__dfrtp_1
*I *1493:X O *D sky130_fd_sc_hd__buf_2
*CAP
1 *1465:RESET_B 0
2 *1435:RESET_B 0.000231995
3 *1461:RESET_B 2.36999e-05
4 *1460:RESET_B 5.42475e-05
5 *1459:RESET_B 0.000263932
6 *1410:RESET_B 0.00024998
7 *1458:RESET_B 2.88345e-05
8 *1493:X 9.60729e-05
9 *198:50 0.00051747
10 *198:44 0.000949128
11 *198:32 0.00133971
12 *198:28 0.000595591
13 *198:20 0.000444426
14 *198:10 0.000511664
15 *1410:RESET_B *282:10 8.53409e-05
16 *1435:RESET_B *1376:A0 2.15245e-05
17 *1435:RESET_B *1539:A 4.884e-05
18 *1435:RESET_B *281:33 0
19 *1459:RESET_B *285:10 0.000229456
20 *1459:RESET_B *286:10 0.000274294
21 *198:10 *200:12 0.000103253
22 *198:10 *262:10 0
23 *198:20 *1491:A 8.0249e-05
24 *198:20 *1495:A 0
25 *198:20 *200:12 8.89385e-05
26 *198:20 *262:10 7.27028e-05
27 *198:20 *262:119 0
28 *198:20 *281:33 0
29 *198:20 *294:10 0
30 *198:32 *1408:D 0
31 *198:32 *1491:A 6.76365e-05
32 *198:32 *1525:A 4.48206e-05
33 *198:32 *281:33 0
34 *198:32 *282:10 5.03694e-05
35 *198:44 *1284:B 9.25014e-06
36 *198:44 *1341:B2 0.000148851
37 *198:44 *1408:D 0.000114305
38 *198:44 *281:23 8.21706e-05
39 *1400:A2 *198:44 7.22594e-05
40 *1400:A2 *198:50 9.25014e-06
41 *1407:CLK *1458:RESET_B 4.50675e-05
42 *1407:CLK *198:20 4.72917e-05
43 *1410:CLK *1410:RESET_B 0.000223808
44 *1460:D *198:44 0
45 *1460:D *198:50 0
46 *1461:D *1461:RESET_B 5.60106e-05
47 *1465:D *1435:RESET_B 0.000114759
48 *1465:D *198:32 0.000218741
49 *3:21 *198:10 5.33005e-05
50 *146:23 *1461:RESET_B 3.40725e-05
51 *146:46 *198:44 0.000173797
52 *146:52 *198:44 0
53 *146:78 *198:44 0
54 *176:28 *1458:RESET_B 8.94203e-05
55 *176:28 *198:20 0.000272255
56 *178:8 *198:32 0
57 *197:12 *198:44 0
*RES
1 *1493:X *198:10 15.675 
2 *198:10 *198:20 13.9643 
3 *198:20 *1458:RESET_B 0.883929 
4 *198:20 *198:28 4.5 
5 *198:28 *198:32 12.5179 
6 *198:32 *1410:RESET_B 5.40179 
7 *198:32 *198:44 19.8036 
8 *198:44 *198:50 7.28571 
9 *198:50 *1459:RESET_B 6.22321 
10 *198:50 *1460:RESET_B 0.901786 
11 *198:44 *1461:RESET_B 5.38393 
12 *198:28 *1435:RESET_B 8.66964 
13 *198:10 *1465:RESET_B 4.5 
*END

*D_NET *199 0.0147066
*CONN
*I *1427:RESET_B I *D sky130_fd_sc_hd__dfrtp_1
*I *1434:RESET_B I *D sky130_fd_sc_hd__dfrtp_1
*I *1437:RESET_B I *D sky130_fd_sc_hd__dfrtp_1
*I *1445:RESET_B I *D sky130_fd_sc_hd__dfrtp_1
*I *1436:RESET_B I *D sky130_fd_sc_hd__dfrtp_1
*I *1440:RESET_B I *D sky130_fd_sc_hd__dfrtp_1
*I *1441:RESET_B I *D sky130_fd_sc_hd__dfrtp_1
*I *1443:RESET_B I *D sky130_fd_sc_hd__dfrtp_1
*I *1444:RESET_B I *D sky130_fd_sc_hd__dfrtp_1
*I *1426:RESET_B I *D sky130_fd_sc_hd__dfrtp_1
*I *1494:X O *D sky130_fd_sc_hd__clkbuf_4
*CAP
1 *1427:RESET_B 0.000340196
2 *1434:RESET_B 4.5586e-05
3 *1437:RESET_B 0.00049257
4 *1445:RESET_B 0.000103701
5 *1436:RESET_B 0
6 *1440:RESET_B 0
7 *1441:RESET_B 0.000286629
8 *1443:RESET_B 0.000578668
9 *1444:RESET_B 0.000435263
10 *1426:RESET_B 0.000248113
11 *1494:X 0
12 *199:100 0.0010121
13 *199:64 0.000498109
14 *199:62 0.000602776
15 *199:36 0.000484421
16 *199:30 0.00237222
17 *199:6 0.00219926
18 *199:4 0.000525891
19 *1426:RESET_B *1260:C1 0.000268521
20 *1426:RESET_B *1387:S 0
21 *1426:RESET_B *1426:D 0.000128146
22 *1427:RESET_B *1260:C1 0
23 *1437:RESET_B *1299:C1 9.17414e-05
24 *1437:RESET_B *1377:A0 2.35835e-05
25 *1437:RESET_B *272:12 2.56694e-05
26 *1441:RESET_B *1380:A0 0.000153054
27 *1441:RESET_B *1380:S 0
28 *1441:RESET_B *1567:A 0
29 *1443:RESET_B *1299:C1 0
30 *1443:RESET_B *1547:A 0.000106542
31 *1443:RESET_B *210:10 2.51935e-05
32 *1444:RESET_B *1385:A1 0.00066101
33 *1444:RESET_B *1547:A 0.000442116
34 *1444:RESET_B *210:10 0.000186976
35 *1445:RESET_B *251:96 6.94623e-05
36 *199:6 *281:107 0.000399841
37 *199:30 *1301:B 5.41794e-05
38 *199:30 *1304:C1 0.000261513
39 *199:30 *1372:A1 4.00048e-05
40 *199:30 *1385:A0 8.46507e-06
41 *199:30 *281:98 1.99131e-05
42 *199:30 *281:107 0.000209219
43 *199:36 *1385:A0 3.06878e-06
44 *199:36 *1385:A1 8.25843e-06
45 *199:36 *251:87 5.14655e-05
46 *199:36 *251:96 1.08847e-05
47 *199:62 *1281:C1 0
48 *199:64 *1281:C1 0
49 *199:64 *1380:A0 0.000271958
50 *199:100 *1299:C1 0
51 *199:100 *251:87 7.6644e-05
52 *1304:B1 *199:30 3.14078e-05
53 *1434:D *1434:RESET_B 0.000141729
54 *1436:D *199:64 0
55 *1445:CLK *199:100 0
56 *1446:CLK *199:100 7.6644e-05
57 *179:23 *1434:RESET_B 9.69556e-05
58 *179:23 *199:100 0.000286986
59 *179:38 *1443:RESET_B 9.23695e-05
60 *179:38 *199:62 5.15078e-05
61 *180:64 *1426:RESET_B 0
62 *188:59 *1427:RESET_B 0
63 *194:64 *199:30 9.36353e-05
64 *194:74 *199:30 1.24368e-05
*RES
1 *1494:X *199:4 9.3 
2 *199:4 *199:6 3.82143 
3 *199:6 *1426:RESET_B 14.1696 
4 *199:6 *199:30 31.4464 
5 *199:30 *199:36 6.48214 
6 *199:36 *1444:RESET_B 13.1875 
7 *1444:RESET_B *1443:RESET_B 13.2143 
8 *1443:RESET_B *199:62 11.2054 
9 *199:62 *199:64 4.67857 
10 *199:64 *1441:RESET_B 9.78571 
11 *199:64 *1440:RESET_B 4.5 
12 *199:62 *1436:RESET_B 4.5 
13 *199:36 *1445:RESET_B 6.44643 
14 *199:30 *199:100 20.9286 
15 *199:100 *1437:RESET_B 13.2411 
16 *199:100 *1434:RESET_B 6.20536 
17 *199:4 *1427:RESET_B 14.4554 
*END

*D_NET *200 0.00807549
*CONN
*I *1428:RESET_B I *D sky130_fd_sc_hd__dfrtp_1
*I *1430:RESET_B I *D sky130_fd_sc_hd__dfrtp_1
*I *1447:RESET_B I *D sky130_fd_sc_hd__dfrtp_1
*I *1431:RESET_B I *D sky130_fd_sc_hd__dfrtp_1
*I *1446:RESET_B I *D sky130_fd_sc_hd__dfrtp_1
*I *1433:RESET_B I *D sky130_fd_sc_hd__dfrtp_1
*I *1432:RESET_B I *D sky130_fd_sc_hd__dfrtp_1
*I *1495:X O *D sky130_fd_sc_hd__buf_2
*CAP
1 *1428:RESET_B 0.000136498
2 *1430:RESET_B 2.07777e-05
3 *1447:RESET_B 0.000496577
4 *1431:RESET_B 2.11316e-05
5 *1446:RESET_B 0.000818883
6 *1433:RESET_B 3.4472e-05
7 *1432:RESET_B 0
8 *1495:X 0.000334255
9 *200:64 0.000937897
10 *200:41 0.000713329
11 *200:35 0.0004786
12 *200:26 0.000462129
13 *200:12 0.000755222
14 *1430:RESET_B *302:8 4.70821e-05
15 *1446:RESET_B *1271:C1 0
16 *1446:RESET_B *1304:C1 0
17 *1446:RESET_B *1375:A0 0.000205699
18 *1446:RESET_B *1377:A0 0
19 *1446:RESET_B *1512:A 0
20 *1446:RESET_B *1531:A 3.9745e-05
21 *1446:RESET_B *300:10 0.000136178
22 *1447:RESET_B *1512:A 0
23 *200:12 *1370:S 0
24 *200:12 *1493:A 9.88136e-05
25 *200:12 *1495:A 6.5185e-05
26 *200:12 *262:10 5.71472e-05
27 *200:12 *262:87 0
28 *200:26 *1432:D 0
29 *200:26 *245:12 2.6726e-05
30 *200:26 *301:16 0
31 *200:35 *1272:A2 9.59321e-05
32 *200:35 *245:12 5.0371e-05
33 *200:35 *281:98 0
34 *200:35 *301:16 0
35 *200:41 *1270:B 4.46186e-06
36 *200:41 *1271:A2 7.32272e-05
37 *200:41 *1377:A0 0
38 *200:41 *302:8 9.90367e-05
39 *200:64 *1301:B 1.02504e-05
40 *200:64 *1372:A0 5.71472e-05
41 *200:64 *1512:A 0
42 *200:64 *237:10 0
43 *200:64 *303:10 0.00014209
44 *1317:A *1428:RESET_B 7.07903e-05
45 *1317:A *200:12 1.63058e-05
46 *1317:A *200:26 0.000210476
47 *1428:D *200:12 0.000125724
48 *1431:CLK *1431:RESET_B 4.85567e-05
49 *1431:D *200:64 0
50 *1432:CLK *200:26 0.000227637
51 *1447:CLK *1447:RESET_B 3.65178e-05
52 *1447:D *1447:RESET_B 0.000123603
53 *180:20 *200:12 2.94103e-05
54 *189:61 *1446:RESET_B 9.88679e-05
55 *189:63 *1446:RESET_B 9.25014e-06
56 *189:63 *200:41 0.00012401
57 *190:96 *200:35 0.000250915
58 *194:64 *1433:RESET_B 9.23695e-05
59 *194:64 *1446:RESET_B 0
60 *198:10 *200:12 0.000103253
61 *198:20 *200:12 8.89385e-05
*RES
1 *1495:X *200:12 25.9429 
2 *200:12 *200:26 11.3929 
3 *200:26 *1432:RESET_B 4.5 
4 *200:26 *200:35 9.48214 
5 *200:35 *200:41 9.55357 
6 *200:41 *1433:RESET_B 5.38393 
7 *200:41 *1446:RESET_B 14.6429 
8 *1446:RESET_B *200:64 12.3661 
9 *200:64 *1431:RESET_B 4.97321 
10 *200:64 *1447:RESET_B 12.8304 
11 *200:35 *1430:RESET_B 0.473214 
12 *200:12 *1428:RESET_B 2.52679 
*END

*D_NET *201 0.0158204
*CONN
*I *1451:RESET_B I *D sky130_fd_sc_hd__dfrtp_1
*I *1452:RESET_B I *D sky130_fd_sc_hd__dfrtp_1
*I *1417:RESET_B I *D sky130_fd_sc_hd__dfrtp_1
*I *1462:RESET_B I *D sky130_fd_sc_hd__dfrtp_1
*I *1419:RESET_B I *D sky130_fd_sc_hd__dfrtp_1
*I *1457:RESET_B I *D sky130_fd_sc_hd__dfrtp_1
*I *1418:RESET_B I *D sky130_fd_sc_hd__dfrtp_1
*I *1406:RESET_B I *D sky130_fd_sc_hd__dfrtp_1
*I *1454:RESET_B I *D sky130_fd_sc_hd__dfrtp_1
*I *1453:RESET_B I *D sky130_fd_sc_hd__dfrtp_1
*I *1496:X O *D sky130_fd_sc_hd__clkbuf_4
*CAP
1 *1451:RESET_B 0.000459817
2 *1452:RESET_B 5.72059e-06
3 *1417:RESET_B 1.91209e-05
4 *1462:RESET_B 0.000210667
5 *1419:RESET_B 1.91209e-05
6 *1457:RESET_B 0.000721043
7 *1418:RESET_B 0
8 *1406:RESET_B 7.58015e-05
9 *1454:RESET_B 0.000140827
10 *1453:RESET_B 0.000470847
11 *1496:X 0.000398371
12 *201:78 0.0011182
13 *201:62 0.000965794
14 *201:54 0.00116709
15 *201:44 0.00105714
16 *201:34 0.000860877
17 *201:32 0.000653725
18 *201:20 0.000935566
19 *201:12 0.00121571
20 *1406:RESET_B *1326:A0 0
21 *1451:RESET_B *1392:A1 0
22 *1451:RESET_B *1403:A1 0
23 *1451:RESET_B *1463:D 0
24 *1451:RESET_B *203:10 0
25 *1451:RESET_B *267:12 0
26 *1453:RESET_B *292:8 2.89016e-05
27 *1454:RESET_B *273:62 0
28 *1457:RESET_B *1308:B 0
29 *1457:RESET_B *1457:D 8.86129e-06
30 *1457:RESET_B *273:14 9.41642e-05
31 *1462:RESET_B *1243:A 8.54136e-05
32 *1462:RESET_B *1464:RESET_B 0
33 *1462:RESET_B *273:50 0
34 *1462:RESET_B *320:8 6.76337e-05
35 *201:12 *1392:A0 0.000193637
36 *201:12 *1496:A 0.000136039
37 *201:12 *203:22 0.000130012
38 *201:20 *203:10 0
39 *201:20 *267:12 0
40 *201:32 *1555:A 2.46078e-05
41 *201:32 *290:22 0
42 *201:44 *1361:A1 0
43 *201:44 *273:50 0.000132577
44 *201:44 *290:22 0.000426435
45 *201:44 *292:33 0
46 *201:62 *1245:A 1.94879e-05
47 *201:78 *1245:A 0.000147125
48 *201:78 *1273:A2_N 0.000501585
49 *201:78 *1276:C1 0
50 *201:78 *290:22 7.6644e-05
51 *201:78 *292:33 0.00017309
52 *201:78 *324:19 0
53 *1308:A *1457:RESET_B 0.00096382
54 *1320:A_N *1406:RESET_B 0.000129636
55 *1320:A_N *1454:RESET_B 0.000257075
56 *1419:CLK *201:44 7.15846e-05
57 *1452:D *201:32 1.02504e-05
58 *1453:CLK *1419:RESET_B 0
59 *1453:CLK *1453:RESET_B 0.00010844
60 *1457:CLK *1457:RESET_B 0.000134978
61 *1462:D *201:32 0.000171375
62 *1464:D *201:44 1.02504e-05
63 *1516:A *201:62 2.11419e-05
64 *1516:A *201:78 0.000139157
65 *1556:A *1452:RESET_B 2.0714e-05
66 *1556:A *201:20 0.000101967
67 *1556:A *201:32 7.32272e-05
68 *67:14 *201:78 4.25622e-05
69 *181:14 *1453:RESET_B 0.000174362
70 *181:14 *201:54 4.70821e-05
71 *181:24 *1406:RESET_B 0
72 *181:24 *1454:RESET_B 0
73 *182:20 *1457:RESET_B 0.000195386
74 *182:70 *201:32 0
75 *182:76 *201:32 0.000126639
76 *189:30 *1457:RESET_B 6.95508e-05
77 *189:30 *201:78 5.80217e-05
78 *191:10 *1457:RESET_B 8.4038e-05
79 *191:10 *201:78 4.98872e-05
80 *191:32 *1457:RESET_B 1.76135e-05
*RES
1 *1496:X *201:12 22.6929 
2 *201:12 *201:20 9.57143 
3 *201:20 *201:32 17.9821 
4 *201:32 *201:34 0.946429 
5 *201:34 *201:44 22.375 
6 *201:44 *1453:RESET_B 9.41964 
7 *1453:RESET_B *201:54 4.97321 
8 *201:54 *201:62 8.36892 
9 *201:62 *1454:RESET_B 7.8125 
10 *201:62 *1406:RESET_B 6.29464 
11 *201:54 *201:78 11.3571 
12 *201:78 *1418:RESET_B 4.5 
13 *201:78 *1457:RESET_B 22.4732 
14 *201:44 *1419:RESET_B 0.366071 
15 *201:34 *1462:RESET_B 12.9554 
16 *201:32 *1417:RESET_B 0.366071 
17 *201:20 *1452:RESET_B 0.473214 
18 *201:12 *1451:RESET_B 12.5179 
*END

*D_NET *202 0.0176191
*CONN
*I *1448:RESET_B I *D sky130_fd_sc_hd__dfrtp_1
*I *1424:RESET_B I *D sky130_fd_sc_hd__dfrtp_1
*I *1449:RESET_B I *D sky130_fd_sc_hd__dfrtp_1
*I *1415:RESET_B I *D sky130_fd_sc_hd__dfrtp_1
*I *1420:RESET_B I *D sky130_fd_sc_hd__dfrtp_1
*I *1423:RESET_B I *D sky130_fd_sc_hd__dfrtp_1
*I *1425:RESET_B I *D sky130_fd_sc_hd__dfrtp_1
*I *1422:RESET_B I *D sky130_fd_sc_hd__dfrtp_1
*I *1416:RESET_B I *D sky130_fd_sc_hd__dfrtp_1
*I *1414:RESET_B I *D sky130_fd_sc_hd__dfrtp_1
*I *1497:X O *D sky130_fd_sc_hd__clkbuf_4
*CAP
1 *1448:RESET_B 0.000662685
2 *1424:RESET_B 0.00130346
3 *1449:RESET_B 0.000824894
4 *1415:RESET_B 0.000427706
5 *1420:RESET_B 0.000369649
6 *1423:RESET_B 0
7 *1425:RESET_B 0.000490522
8 *1422:RESET_B 0.000163524
9 *1416:RESET_B 0.000247684
10 *1414:RESET_B 0.000730494
11 *1497:X 0.000341787
12 *202:95 0.000795783
13 *202:69 0.00157597
14 *202:53 0.00138883
15 *202:28 0.00071759
16 *202:26 0.000812774
17 *1414:RESET_B *1535:A 0.000548053
18 *1415:RESET_B *1363:A0 0.000532305
19 *1416:RESET_B *1263:A 0
20 *1416:RESET_B *1288:B 9.69119e-06
21 *1416:RESET_B *1358:A1 0
22 *1416:RESET_B *316:10 2.56751e-05
23 *1420:RESET_B *1390:A1 0
24 *1422:RESET_B *1522:A 0.000140933
25 *1422:RESET_B *1524:A 4.78057e-05
26 *1422:RESET_B *234:8 0.000181796
27 *1422:RESET_B *313:8 0.000181796
28 *1424:RESET_B *1255:A 0.000170964
29 *1424:RESET_B *1290:C1 6.36336e-05
30 *1425:RESET_B *1312:B1 0.000360102
31 *1449:RESET_B *1255:A 4.47762e-05
32 *1449:RESET_B *1290:C1 9.23695e-05
33 *1449:RESET_B *1390:A1 9.30093e-05
34 *1449:RESET_B *1541:A 1.65169e-05
35 *1449:RESET_B *331:6 5.52302e-05
36 *202:26 *1390:A0 0.000531286
37 *202:26 *1390:A1 0.000186662
38 *202:26 *315:29 6.42242e-05
39 *202:26 *332:16 0.000125724
40 *202:28 *1288:B 4.24858e-05
41 *202:28 *1290:A2 8.91726e-05
42 *202:28 *1390:A1 0
43 *202:28 *311:12 0
44 *202:28 *311:18 0.000118339
45 *202:53 *1390:A1 0
46 *202:69 *1254:A 4.35048e-05
47 *202:95 *1390:A1 0.000443792
48 *202:95 *1553:A 4.06875e-05
49 *202:95 *311:12 2.42082e-05
50 *1290:A1 *202:28 0.000153054
51 *1290:B1 *202:26 0
52 *1290:B2 *202:26 0
53 *1291:C_N *202:26 0.000963516
54 *1312:A1_N *1425:RESET_B 0.000193118
55 *1316:C1 *1425:RESET_B 5.75896e-05
56 *1316:C1 *202:69 8.71535e-05
57 *1367:S *1425:RESET_B 0
58 *1390:S *202:26 1.38323e-05
59 *1395:S *202:26 5.33005e-05
60 *1414:CLK *1414:RESET_B 9.71197e-05
61 *1420:CLK *202:69 9.18348e-05
62 *1421:CLK *1449:RESET_B 0
63 *1421:CLK *202:95 0
64 *1423:D *1425:RESET_B 0
65 *1448:D *1448:RESET_B 2.81497e-05
66 *1450:CLK *1420:RESET_B 0
67 *1455:CLK *1416:RESET_B 0
68 *1554:A *1420:RESET_B 4.90803e-05
69 *1554:A *202:53 7.6644e-05
70 *70:39 *1425:RESET_B 0.000123295
71 *183:16 *202:69 0
72 *183:79 *202:69 3.28797e-05
73 *184:10 *1416:RESET_B 0
74 *184:10 *202:28 0
75 *184:88 *202:95 0
76 *186:25 *1425:RESET_B 0
77 *186:59 *202:28 9.11365e-06
78 *186:59 *202:53 4.36551e-06
79 *186:74 *202:26 0.000269878
80 *189:30 *1425:RESET_B 0.000177942
81 *191:32 *1425:RESET_B 9.10431e-06
*RES
1 *1497:X *1414:RESET_B 17.6125 
2 *1414:RESET_B *202:26 28.0357 
3 *202:26 *202:28 7.10714 
4 *202:28 *1416:RESET_B 8.625 
5 *202:28 *1422:RESET_B 8.66964 
6 *202:26 *202:53 2.30357 
7 *202:53 *202:69 32.5357 
8 *202:69 *1425:RESET_B 15.8571 
9 *202:69 *1423:RESET_B 4.5 
10 *202:53 *1420:RESET_B 7.77679 
11 *1420:RESET_B *202:95 10.0893 
12 *202:95 *1415:RESET_B 10.8661 
13 *202:95 *1449:RESET_B 8.36607 
14 *1449:RESET_B *1424:RESET_B 11.8393 
15 *1424:RESET_B *1448:RESET_B 9.08929 
*END

*D_NET *203 0.0123248
*CONN
*I *1421:RESET_B I *D sky130_fd_sc_hd__dfrtp_1
*I *1450:RESET_B I *D sky130_fd_sc_hd__dfrtp_1
*I *1456:RESET_B I *D sky130_fd_sc_hd__dfrtp_1
*I *1497:A I *D sky130_fd_sc_hd__clkbuf_4
*I *1455:RESET_B I *D sky130_fd_sc_hd__dfrtp_1
*I *1496:A I *D sky130_fd_sc_hd__clkbuf_4
*I *1463:RESET_B I *D sky130_fd_sc_hd__dfrtp_1
*I *1464:RESET_B I *D sky130_fd_sc_hd__dfrtp_1
*I *1498:X O *D sky130_fd_sc_hd__buf_2
*CAP
1 *1421:RESET_B 0.000501266
2 *1450:RESET_B 0.000798184
3 *1456:RESET_B 0.000763237
4 *1497:A 0
5 *1455:RESET_B 8.88406e-05
6 *1496:A 0.000265409
7 *1463:RESET_B 8.01358e-06
8 *1464:RESET_B 0.000302657
9 *1498:X 0
10 *203:60 0.000748428
11 *203:50 0.000817095
12 *203:22 0.00128394
13 *203:10 0.00150874
14 *203:6 0.000716208
15 *1421:RESET_B *1357:A0 0.000151333
16 *1421:RESET_B *1357:A1 0
17 *1421:RESET_B *1390:A0 0
18 *1421:RESET_B *1510:A 6.39901e-05
19 *1421:RESET_B *1541:A 5.33334e-05
20 *1421:RESET_B *253:10 0.000274294
21 *1421:RESET_B *315:23 0
22 *1421:RESET_B *332:16 3.17163e-05
23 *1450:RESET_B *332:8 5.67624e-05
24 *1455:RESET_B *1309:A2 0.000138106
25 *1455:RESET_B *317:23 4.18895e-05
26 *1455:RESET_B *318:20 7.33037e-05
27 *1456:RESET_B *1396:A0 7.43578e-06
28 *1456:RESET_B *1563:A 9.90367e-05
29 *1456:RESET_B *315:23 0
30 *1456:RESET_B *318:8 0
31 *1456:RESET_B *318:20 0.000177941
32 *1463:RESET_B *321:10 1.91419e-05
33 *1463:RESET_B *322:12 1.24368e-05
34 *1464:RESET_B *1243:A 0
35 *1464:RESET_B *1292:B 5.33005e-05
36 *1464:RESET_B *1359:A0 0
37 *1464:RESET_B *273:42 6.26653e-05
38 *1464:RESET_B *273:50 6.31653e-05
39 *1464:RESET_B *322:12 0.000128496
40 *203:10 *1392:A1 0
41 *203:10 *1511:A 0
42 *203:10 *204:10 6.75007e-05
43 *203:22 *1392:A0 0.000232399
44 *203:22 *1463:D 3.80385e-05
45 *203:22 *321:10 2.65319e-06
46 *203:50 *1306:B 0.000131472
47 *203:50 *1392:A1 0
48 *203:50 *1571:A 0
49 *203:50 *204:10 2.82057e-05
50 *203:50 *204:27 2.34337e-05
51 *203:50 *318:20 0.000106403
52 *203:60 *1306:B 1.08359e-05
53 *203:60 *1548:A 0.00017379
54 *203:60 *318:20 0.000760846
55 *1357:S *1421:RESET_B 0
56 *1392:S *203:10 0
57 *1414:CLK *1450:RESET_B 8.45419e-05
58 *1414:CLK *1456:RESET_B 0.00011908
59 *1421:CLK *1421:RESET_B 0.000199173
60 *1451:RESET_B *203:10 0
61 *1452:D *203:22 0.00044366
62 *1456:D *1456:RESET_B 0
63 *1462:RESET_B *1464:RESET_B 0
64 *1463:CLK *203:22 9.03975e-05
65 *1472:A *1464:RESET_B 0.000126446
66 *184:62 *1450:RESET_B 0.000109541
67 *201:12 *1496:A 0.000136039
68 *201:12 *203:22 0.000130012
69 *201:20 *203:10 0
*RES
1 *1498:X *203:6 13.8 
2 *203:6 *203:10 9.48214 
3 *203:10 *203:22 16.0357 
4 *203:22 *1464:RESET_B 15.4464 
5 *203:22 *1463:RESET_B 0.473214 
6 *203:10 *1496:A 13.1393 
7 *203:6 *203:50 8.625 
8 *203:50 *1455:RESET_B 7.02679 
9 *203:50 *203:60 9.53571 
10 *203:60 *1497:A 13.8 
11 *203:60 *1456:RESET_B 23.3929 
12 *1456:RESET_B *1450:RESET_B 5.89286 
13 *1450:RESET_B *1421:RESET_B 21.0446 
*END

*D_NET *204 0.0187841
*CONN
*I *1494:A I *D sky130_fd_sc_hd__clkbuf_4
*I *1492:A I *D sky130_fd_sc_hd__clkbuf_4
*I *1493:A I *D sky130_fd_sc_hd__buf_2
*I *1495:A I *D sky130_fd_sc_hd__buf_2
*I *1498:A I *D sky130_fd_sc_hd__buf_2
*I *1499:X O *D sky130_fd_sc_hd__dlymetal6s2s_1
*CAP
1 *1494:A 0.000940413
2 *1492:A 0.000940613
3 *1493:A 0.000125682
4 *1495:A 0.00014527
5 *1498:A 0
6 *1499:X 9.82639e-05
7 *204:39 0.000400857
8 *204:35 0.00120342
9 *204:27 0.00456888
10 *204:10 0.00359383
11 *1492:A *1285:A2 6.9253e-05
12 *1492:A *1287:A2 5.74466e-05
13 *1492:A *1454:D 0.000148182
14 *1492:A *1558:A 0.000125731
15 *1492:A *281:139 0
16 *1492:A *293:10 7.50697e-05
17 *1492:A *293:19 8.24047e-05
18 *1492:A *295:8 2.26327e-05
19 *1492:A *295:23 6.42338e-05
20 *1493:A *1370:S 0
21 *1494:A *1257:B1 0.000266099
22 *1494:A *1260:A1 0
23 *1494:A *1315:A1 0.000102197
24 *1494:A *305:22 4.56498e-05
25 *1494:A *306:14 5.27412e-05
26 *1495:A *262:10 2.89114e-05
27 *204:10 *1392:A1 6.58195e-05
28 *204:27 *1392:A1 1.03245e-05
29 *204:27 *281:139 0.000269183
30 *204:35 *1325:A 4.27935e-05
31 *204:39 *1325:A 0.000572143
32 *1242:A *1492:A 4.06782e-05
33 *1242:A *1495:A 5.71472e-05
34 *1278:D *1494:A 0.000568924
35 *1286:B2 *1492:A 0.000331064
36 *1286:C1 *1492:A 3.38229e-05
37 *1296:B *1494:A 5.41794e-05
38 *1296:B *204:27 0.000100823
39 *1296:C *1494:A 5.24274e-05
40 *1308:A *204:35 0.000158783
41 *1308:A *204:39 0.000214198
42 *1318:A *1492:A 7.41454e-05
43 *1320:A_N *1492:A 0
44 *1425:CLK *1494:A 0.00033678
45 *1501:A *1493:A 0
46 *1501:A *1495:A 0
47 *1521:A *1492:A 0
48 *109:18 *1494:A 0.000190177
49 *123:8 *204:35 0.00026353
50 *176:10 *1492:A 0
51 *176:10 *1494:A 2.90164e-05
52 *176:10 *204:27 7.0603e-05
53 *176:86 *1494:A 0
54 *181:37 *1492:A 8.98994e-05
55 *183:22 *1494:A 0.000587906
56 *190:127 *1494:A 6.35303e-05
57 *190:142 *1494:A 1.27784e-05
58 *192:29 *1492:A 1.65558e-05
59 *192:53 *204:27 1.70474e-05
60 *192:53 *204:35 0.000407996
61 *192:106 *204:27 0.000167288
62 *193:102 *204:39 0.000443654
63 *197:12 *1492:A 0
64 *197:24 *1492:A 0
65 *198:20 *1495:A 0
66 *200:12 *1493:A 9.88136e-05
67 *200:12 *1495:A 6.5185e-05
68 *203:10 *204:10 6.75007e-05
69 *203:50 *204:10 2.82057e-05
70 *203:50 *204:27 2.34337e-05
*RES
1 *1499:X *204:10 16.5857 
2 *204:10 *1498:A 13.8 
3 *204:10 *204:27 15.8001 
4 *204:27 *204:35 9.69643 
5 *204:35 *204:39 10.7857 
6 *204:39 *1495:A 16.8893 
7 *204:39 *1493:A 16.3536 
8 *204:35 *1492:A 39.0143 
9 *204:27 *1494:A 38.2821 
*END

*D_NET *205 0.000458101
*CONN
*I *1439:D I *D sky130_fd_sc_hd__dfrtp_1
*I *1503:X O *D sky130_fd_sc_hd__dlygate4sd3_1
*CAP
1 *1439:D 0.000137172
2 *1503:X 0.000137172
3 *1475:A *1439:D 5.65955e-05
4 *197:59 *1439:D 2.59355e-05
5 *197:79 *1439:D 0.000101227
*RES
1 *1503:X *1439:D 30.0107 
*END

*D_NET *206 0.000786918
*CONN
*I *1321:B I *D sky130_fd_sc_hd__and2b_1
*I *1458:D I *D sky130_fd_sc_hd__dfrtp_1
*I *1514:X O *D sky130_fd_sc_hd__dlygate4sd3_1
*CAP
1 *1321:B 6.2312e-05
2 *1458:D 0.000163242
3 *1514:X 0
4 *206:4 0.000225554
5 *1458:CLK *1458:D 2.89016e-05
6 *1465:D *1321:B 5.71472e-05
7 *176:28 *1458:D 1.92789e-05
8 *197:51 *1321:B 0.000230482
*RES
1 *1514:X *206:4 9.3 
2 *206:4 *1458:D 20.7821 
3 *206:4 *1321:B 11.4786 
*END

*D_NET *207 0.000286652
*CONN
*I *1429:D I *D sky130_fd_sc_hd__dfrtp_1
*I *1574:X O *D sky130_fd_sc_hd__clkbuf_1
*CAP
1 *1429:D 0.000117086
2 *1574:X 0.000117086
3 *1574:A *1429:D 4.15914e-05
4 *177:29 *1429:D 1.08881e-05
*RES
1 *1574:X *1429:D 29.3545 
*END

*D_NET *208 0.000220999
*CONN
*I *1321:A_N I *D sky130_fd_sc_hd__and2b_1
*I *1525:X O *D sky130_fd_sc_hd__dlygate4sd3_1
*CAP
1 *1321:A_N 7.24031e-05
2 *1525:X 7.24031e-05
3 *1465:D *1321:A_N 7.61932e-05
*RES
1 *1525:X *1321:A_N 19.9571 
*END

*D_NET *209 0.000251865
*CONN
*I *1249:A I *D sky130_fd_sc_hd__inv_2
*I *1536:X O *D sky130_fd_sc_hd__dlygate4sd3_1
*CAP
1 *1249:A 3.83144e-05
2 *1536:X 3.83144e-05
3 *1249:A *1337:B1 7.61932e-05
4 *1249:A *1351:A 9.90431e-05
*RES
1 *1536:X *1249:A 19.9571 
*END

*D_NET *210 0.00200295
*CONN
*I *1384:A1 I *D sky130_fd_sc_hd__mux2_1
*I *1383:A I *D sky130_fd_sc_hd__or2_1
*I *1547:X O *D sky130_fd_sc_hd__dlygate4sd3_1
*CAP
1 *1384:A1 7.03784e-05
2 *1383:A 0.00058091
3 *1547:X 0.000215295
4 *210:10 0.000866583
5 *1384:A1 *1507:A 0
6 *1443:RESET_B *210:10 2.51935e-05
7 *1444:CLK *1383:A 5.76121e-05
8 *1444:RESET_B *210:10 0.000186976
*RES
1 *1547:X *210:10 12.8536 
2 *210:10 *1383:A 16.425 
3 *210:10 *1384:A1 19.3357 
*END

*D_NET *211 0.00111962
*CONN
*I *1327:A0 I *D sky130_fd_sc_hd__mux2_1
*I *1558:X O *D sky130_fd_sc_hd__dlygate4sd3_1
*CAP
1 *1327:A0 0.000189247
2 *1558:X 0.000189247
3 *1327:A0 *1327:A1 5.33005e-05
4 *1327:A0 *1328:S 2.61337e-05
5 *1327:A0 *262:119 7.72038e-05
6 *1327:A0 *295:8 0
7 *1285:A1 *1327:A0 0.000174805
8 *1285:B2 *1327:A0 4.06782e-05
9 *1286:B1 *1327:A0 9.60875e-05
10 *1407:RESET_B *1327:A0 0.000171375
11 *197:35 *1327:A0 0.000101545
*RES
1 *1558:X *1327:A0 33.225 
*END

*D_NET *212 0.00139411
*CONN
*I *1394:A0 I *D sky130_fd_sc_hd__mux2_1
*I *1569:X O *D sky130_fd_sc_hd__dlygate4sd3_1
*CAP
1 *1394:A0 0.000340968
2 *1569:X 0.000340968
3 *1394:A0 *1245:A 0
4 *1394:A0 *1326:A1 0.000258173
5 *1394:A0 *1394:A1 4.33174e-05
6 *1394:A0 *1394:S 0.000225609
7 *1394:A0 *324:19 1.37292e-05
8 *181:18 *1394:A0 2.59355e-05
9 *181:24 *1394:A0 0.000145406
*RES
1 *1569:X *1394:A0 35.4214 
*END

*D_NET *213 0.000521675
*CONN
*I *1454:D I *D sky130_fd_sc_hd__dfrtp_1
*I *1570:X O *D sky130_fd_sc_hd__dlygate4sd3_1
*CAP
1 *1454:D 0.000129973
2 *1570:X 0.000129973
3 *1320:A_N *1454:D 0
4 *1492:A *1454:D 0.000148182
5 *1570:A *1454:D 5.52238e-05
6 *181:37 *1454:D 5.83233e-05
*RES
1 *1570:X *1454:D 30.4929 
*END

*D_NET *214 0.00232216
*CONN
*I *1392:A1 I *D sky130_fd_sc_hd__mux2_1
*I *1391:A0 I *D sky130_fd_sc_hd__mux2_1
*I *1571:X O *D sky130_fd_sc_hd__dlygate4sd3_1
*CAP
1 *1392:A1 0.000496104
2 *1391:A0 7.03048e-05
3 *1571:X 0
4 *214:4 0.000566409
5 *1391:A0 *1391:S 6.2198e-05
6 *1392:A1 *1403:A1 0
7 *1392:A1 *1571:A 0.00012401
8 *1306:A *1391:A0 0.000116749
9 *1306:A *1392:A1 8.90199e-05
10 *1311:C *1391:A0 0.000404707
11 *1311:C *1392:A1 0.000138574
12 *1392:S *1392:A1 0.000177941
13 *1451:RESET_B *1392:A1 0
14 *203:10 *1392:A1 0
15 *203:50 *1392:A1 0
16 *204:10 *1392:A1 6.58195e-05
17 *204:27 *1392:A1 1.03245e-05
*RES
1 *1571:X *214:4 9.3 
2 *214:4 *1391:A0 13.1214 
3 *214:4 *1392:A1 30.0143 
*END

*D_NET *215 0.000617678
*CONN
*I *1451:D I *D sky130_fd_sc_hd__dfrtp_1
*I *1504:X O *D sky130_fd_sc_hd__dlygate4sd3_1
*CAP
1 *1451:D 0.000200717
2 *1504:X 0.000200717
3 *1451:D *1403:A1 0
4 *1311:C *1451:D 0.00018372
5 *187:68 *1451:D 3.25247e-05
*RES
1 *1504:X *1451:D 30.7071 
*END

*D_NET *216 0.000475188
*CONN
*I *1393:A0 I *D sky130_fd_sc_hd__mux2_1
*I *1505:X O *D sky130_fd_sc_hd__dlygate4sd3_1
*CAP
1 *1393:A0 9.56959e-05
2 *1505:X 9.56959e-05
3 *1393:A0 *1393:A1 3.18676e-05
4 *1393:A0 *1393:S 2.59355e-05
5 *1393:A0 *273:50 0.00018372
6 *1393:A0 *290:22 4.22736e-05
*RES
1 *1505:X *1393:A0 21.1893 
*END

*D_NET *217 0.00102444
*CONN
*I *1453:D I *D sky130_fd_sc_hd__dfrtp_1
*I *1506:X O *D sky130_fd_sc_hd__dlygate4sd3_1
*CAP
1 *1453:D 0.000359143
2 *1506:X 0.000359143
3 *1453:D *1393:S 7.90803e-05
4 *1453:D *273:54 0.000100823
5 *1453:D *292:33 8.55687e-05
6 *181:12 *1453:D 4.06782e-05
*RES
1 *1506:X *1453:D 33.5464 
*END

*D_NET *218 0.00338803
*CONN
*I *1561:A I *D sky130_fd_sc_hd__dlygate4sd3_1
*I *1575:A I *D sky130_fd_sc_hd__buf_2
*I *1250:A I *D sky130_fd_sc_hd__inv_2
*I *1440:Q O *D sky130_fd_sc_hd__dfrtp_1
*CAP
1 *1561:A 0.00029447
2 *1575:A 0.000470969
3 *1250:A 5.40981e-05
4 *1440:Q 4.57119e-05
5 *218:19 0.000956652
6 *218:6 0.000291022
7 *1561:A *1281:C1 0.000208762
8 *1561:A *1299:C1 7.6021e-05
9 *1561:A *296:16 0.00035683
10 *1575:A *1377:A0 0.000132924
11 *1575:A *1377:S 0.00014285
12 *218:19 *1281:C1 0.000101545
13 *218:19 *251:45 4.87953e-05
14 *1437:CLK *1575:A 0.000207376
15 *1437:D *218:19 0
*RES
1 *1440:Q *218:6 9.83571 
2 *218:6 *1250:A 10.3357 
3 *218:6 *218:19 7.19643 
4 *218:19 *1575:A 22.8714 
5 *218:19 *1561:A 20.4786 
*END

*D_NET *219 0.00267245
*CONN
*I *1385:A1 I *D sky130_fd_sc_hd__mux2_1
*I *1384:A0 I *D sky130_fd_sc_hd__mux2_1
*I *1507:X O *D sky130_fd_sc_hd__dlygate4sd3_1
*CAP
1 *1385:A1 0.000378954
2 *1384:A0 8.9583e-05
3 *1507:X 0.000105824
4 *219:10 0.000574361
5 *1384:A0 *1383:B 8.07313e-05
6 *1384:A0 *251:100 2.14658e-05
7 *1385:A1 *1299:C1 1.76135e-05
8 *1385:A1 *1385:A0 5.52302e-05
9 *1385:A1 *1507:A 5.33882e-05
10 *1385:A1 *251:100 0.000119135
11 *219:10 *1507:A 6.26653e-05
12 *1444:RESET_B *1385:A1 0.00066101
13 *1445:CLK *1385:A1 0.000126446
14 *1445:D *1385:A1 0.000317782
15 *199:36 *1385:A1 8.25843e-06
*RES
1 *1507:X *219:10 20.55 
2 *219:10 *1384:A0 11.0679 
3 *219:10 *1385:A1 28.8179 
*END

*D_NET *220 0.00447843
*CONN
*I *1390:A1 I *D sky130_fd_sc_hd__mux2_1
*I *1389:A0 I *D sky130_fd_sc_hd__mux2_1
*I *1508:X O *D sky130_fd_sc_hd__dlygate4sd3_1
*CAP
1 *1390:A1 0.000854613
2 *1389:A0 0.000445246
3 *1508:X 5.05962e-05
4 *220:6 0.00135046
5 *1389:A0 *1255:A 0
6 *1389:A0 *1290:C1 0.000101545
7 *1389:A0 *1363:A1 0.000533203
8 *1389:A0 *1508:A 0
9 *1390:A1 *1290:C1 0
10 *1390:A1 *311:12 0
11 *1290:A1 *1390:A1 0
12 *1390:S *1390:A1 5.52238e-05
13 *1420:RESET_B *1390:A1 0
14 *1421:CLK *1390:A1 0
15 *1449:RESET_B *1390:A1 9.30093e-05
16 *1509:A *1389:A0 0
17 *1542:A *1389:A0 0
18 *1542:A *1390:A1 0.000293742
19 *1554:A *1390:A1 0
20 *186:74 *1390:A1 7.03393e-05
21 *186:98 *1390:A1 0
22 *202:26 *1390:A1 0.000186662
23 *202:28 *1390:A1 0
24 *202:53 *1390:A1 0
25 *202:95 *1390:A1 0.000443792
*RES
1 *1508:X *220:6 9.83571 
2 *220:6 *1389:A0 27.1214 
3 *220:6 *1390:A1 35.1393 
*END

*D_NET *221 0.000396256
*CONN
*I *1449:D I *D sky130_fd_sc_hd__dfrtp_1
*I *1509:X O *D sky130_fd_sc_hd__dlygate4sd3_1
*CAP
1 *1449:D 0.000144828
2 *1509:X 0.000144828
3 *1449:CLK *1449:D 1.41706e-05
4 *1509:A *1449:D 9.24299e-05
*RES
1 *1509:X *1449:D 30.3857 
*END

*D_NET *222 0.00177459
*CONN
*I *1390:A0 I *D sky130_fd_sc_hd__mux2_1
*I *1510:X O *D sky130_fd_sc_hd__dlygate4sd3_1
*CAP
1 *1390:A0 0.00028587
2 *1510:X 0.00028587
3 *1390:A0 *332:16 0
4 *1357:S *1390:A0 0.000167266
5 *1390:S *1390:A0 0.00044468
6 *1421:RESET_B *1390:A0 0
7 *186:74 *1390:A0 4.43256e-05
8 *187:101 *1390:A0 1.52978e-05
9 *202:26 *1390:A0 0.000531286
*RES
1 *1510:X *1390:A0 37.0286 
*END

*D_NET *223 0.000481454
*CONN
*I *1392:A0 I *D sky130_fd_sc_hd__mux2_1
*I *1511:X O *D sky130_fd_sc_hd__dlygate4sd3_1
*CAP
1 *1392:A0 2.77093e-05
2 *1511:X 2.77093e-05
3 *201:12 *1392:A0 0.000193637
4 *203:22 *1392:A0 0.000232399
*RES
1 *1511:X *1392:A0 20.7786 
*END

*D_NET *224 0.00190418
*CONN
*I *1387:A1 I *D sky130_fd_sc_hd__mux2_1
*I *1386:A0 I *D sky130_fd_sc_hd__mux2_1
*I *1512:X O *D sky130_fd_sc_hd__dlygate4sd3_1
*CAP
1 *1387:A1 0.000617016
2 *1386:A0 0.000130837
3 *1512:X 0
4 *224:4 0.000747854
5 *1386:A0 *1386:A1 5.71472e-05
6 *1386:A0 *1386:S 0.00010096
7 *1387:A1 *1387:A0 5.52302e-05
8 *1387:A1 *1512:A 9.90431e-05
9 *1448:CLK *1387:A1 9.60939e-05
*RES
1 *1512:X *224:4 9.3 
2 *224:4 *1386:A0 11.8893 
3 *224:4 *1387:A1 19.2821 
*END

*D_NET *225 0.00114194
*CONN
*I *1446:D I *D sky130_fd_sc_hd__dfrtp_1
*I *1513:X O *D sky130_fd_sc_hd__dlygate4sd3_1
*CAP
1 *1446:D 0.000334218
2 *1513:X 0.000334218
3 *1446:D *1385:A0 0
4 *1446:D *1386:A1 0.00014279
5 *1446:D *1386:S 0.000151061
6 *1446:D *327:10 0.000179656
*RES
1 *1513:X *1446:D 34.2607 
*END

*D_NET *226 0.00103421
*CONN
*I *1326:A0 I *D sky130_fd_sc_hd__mux2_1
*I *1515:X O *D sky130_fd_sc_hd__dlygate4sd3_1
*CAP
1 *1326:A0 0.000348505
2 *1515:X 0.000348505
3 *1326:A0 *1276:C1 5.33005e-05
4 *1326:A0 *1326:A1 0
5 *1326:A0 *1328:A0 0.000126439
6 *1326:A0 *1328:A1 0.000105163
7 *1320:A_N *1326:A0 0
8 *1406:CLK *1326:A0 4.06782e-05
9 *1406:RESET_B *1326:A0 0
10 *176:60 *1326:A0 7.48301e-06
11 *181:24 *1326:A0 4.1331e-06
*RES
1 *1515:X *1326:A0 33.6536 
*END

*D_NET *227 0.00024068
*CONN
*I *1406:D I *D sky130_fd_sc_hd__dfrtp_1
*I *1516:X O *D sky130_fd_sc_hd__dlygate4sd3_1
*CAP
1 *1406:D 8.71908e-05
2 *1516:X 8.71908e-05
3 *1286:C1 *1406:D 6.62983e-05
*RES
1 *1516:X *1406:D 20.3679 
*END

*D_NET *228 0.002289
*CONN
*I *1388:A1 I *D sky130_fd_sc_hd__mux2_1
*I *1387:A0 I *D sky130_fd_sc_hd__mux2_1
*I *1517:X O *D sky130_fd_sc_hd__dlygate4sd3_1
*CAP
1 *1388:A1 0.000354935
2 *1387:A0 0.000588095
3 *1517:X 0
4 *228:4 0.00094303
5 *1387:A0 *1260:C1 0.00020112
6 *1387:A1 *1387:A0 5.52302e-05
7 *1448:CLK *1387:A0 0.000146591
*RES
1 *1517:X *228:4 9.3 
2 *228:4 *1387:A0 27.8714 
3 *228:4 *1388:A1 15.175 
*END

*D_NET *229 0.00424616
*CONN
*I *1280:B1 I *D sky130_fd_sc_hd__a22o_1
*I *1378:A1 I *D sky130_fd_sc_hd__mux2_1
*I *1281:B1 I *D sky130_fd_sc_hd__o221a_1
*I *1567:A I *D sky130_fd_sc_hd__dlygate4sd3_1
*I *1576:A I *D sky130_fd_sc_hd__buf_2
*I *1441:Q O *D sky130_fd_sc_hd__dfrtp_1
*CAP
1 *1280:B1 0.000109495
2 *1378:A1 0
3 *1281:B1 0.000147601
4 *1567:A 0.000208503
5 *1576:A 0.000182344
6 *1441:Q 0
7 *229:57 0.000285254
8 *229:36 0.000737727
9 *229:19 0.00103302
10 *229:4 0.000592494
11 *1280:B1 *1378:A0 2.84026e-05
12 *1281:B1 *1380:A1 1.32552e-05
13 *1281:B1 *281:66 5.33005e-05
14 *1567:A *1381:S 0
15 *229:36 *1380:A1 7.6644e-05
16 *229:36 *1381:S 5.49544e-05
17 *229:57 *1378:A0 3.08664e-05
18 *229:57 *251:45 1.34631e-05
19 *1280:A2 *1281:B1 4.43256e-05
20 *1280:A2 *229:57 9.1407e-06
21 *1281:B2 *1281:B1 1.74352e-05
22 *1441:CLK *1567:A 0
23 *1441:RESET_B *1567:A 0
24 *3:21 *1576:A 5.62995e-05
25 *3:21 *229:19 0.000334542
26 *3:21 *229:36 0.000209297
27 *77:12 *1281:B1 3.4323e-06
28 *77:12 *229:36 4.36551e-06
29 *77:12 *229:57 0
*RES
1 *1441:Q *229:4 9.3 
2 *229:4 *1576:A 21.1929 
3 *229:4 *229:19 5.875 
4 *229:19 *1567:A 21.7643 
5 *229:19 *229:36 10.8304 
6 *229:36 *1281:B1 16.6839 
7 *229:36 *229:57 7.47321 
8 *229:57 *1378:A1 9.3 
9 *229:57 *1280:B1 20.175 
*END

*D_NET *230 0.00100877
*CONN
*I *1385:A0 I *D sky130_fd_sc_hd__mux2_1
*I *1518:X O *D sky130_fd_sc_hd__dlygate4sd3_1
*CAP
1 *1385:A0 0.000368134
2 *1518:X 0.000368134
3 *1385:A0 *1386:S 6.75007e-05
4 *1385:A0 *251:96 1.17968e-05
5 *1385:A0 *327:10 0
6 *1385:A1 *1385:A0 5.52302e-05
7 *1446:CLK *1385:A0 0.000126439
8 *1446:D *1385:A0 0
9 *199:30 *1385:A0 8.46507e-06
10 *199:36 *1385:A0 3.06878e-06
*RES
1 *1518:X *1385:A0 33.3679 
*END

*D_NET *231 0.000127091
*CONN
*I *1388:A0 I *D sky130_fd_sc_hd__mux2_1
*I *1519:X O *D sky130_fd_sc_hd__dlygate4sd3_1
*CAP
1 *1388:A0 6.35457e-05
2 *1519:X 6.35457e-05
3 *1388:A0 *1519:A 0
*RES
1 *1519:X *1388:A0 28.6357 
*END

*D_NET *232 0.00192102
*CONN
*I *1328:A0 I *D sky130_fd_sc_hd__mux2_1
*I *1520:X O *D sky130_fd_sc_hd__dlygate4sd3_1
*CAP
1 *1328:A0 0.000584091
2 *1520:X 0.000584091
3 *1328:A0 *1276:A2 0
4 *1328:A0 *292:45 0.000127446
5 *1328:A0 *293:10 5.61338e-05
6 *1276:B2 *1328:A0 0
7 *1286:B2 *1328:A0 0.000146533
8 *1286:C1 *1328:A0 0.000296284
9 *1320:A_N *1328:A0 0
10 *1326:A0 *1328:A0 0.000126439
*RES
1 *1520:X *1328:A0 40.5643 
*END

*D_NET *233 0.00109061
*CONN
*I *1408:D I *D sky130_fd_sc_hd__dfrtp_1
*I *1521:X O *D sky130_fd_sc_hd__dlygate4sd3_1
*CAP
1 *1408:D 0.000478028
2 *1521:X 0.000478028
3 *1408:D *1284:B 0
4 *1408:D *1341:B2 2.02508e-05
5 *1408:D *281:33 0
6 *146:78 *1408:D 0
7 *198:32 *1408:D 0
8 *198:44 *1408:D 0.000114305
*RES
1 *1521:X *1408:D 35.8679 
*END

*D_NET *234 0.00228488
*CONN
*I *1364:A0 I *D sky130_fd_sc_hd__mux2_1
*I *1358:A1 I *D sky130_fd_sc_hd__mux2_1
*I *1522:X O *D sky130_fd_sc_hd__dlygate4sd3_1
*CAP
1 *1364:A0 0.000200525
2 *1358:A1 0.000237672
3 *1522:X 0.000188933
4 *234:8 0.00062713
5 *1358:A1 *1288:B 5.41794e-05
6 *1358:A1 *1364:A1 4.25809e-05
7 *1358:A1 *1367:A0 3.0285e-05
8 *1358:A1 *316:10 0.000150618
9 *1364:A0 *1288:B 0.000116717
10 *1364:A0 *1364:A1 4.59588e-05
11 *234:8 *1522:A 4.72917e-05
12 *1364:S *1364:A0 0.00017453
13 *1416:RESET_B *1358:A1 0
14 *1422:RESET_B *234:8 0.000181796
15 *1474:A *1364:A0 0.000186669
16 *1482:A *1358:A1 0
*RES
1 *1522:X *234:8 16.3893 
2 *234:8 *1358:A1 18.7821 
3 *234:8 *1364:A0 19.1036 
*END

*D_NET *235 0.000322144
*CONN
*I *1416:D I *D sky130_fd_sc_hd__dfrtp_1
*I *1523:X O *D sky130_fd_sc_hd__dlygate4sd3_1
*CAP
1 *1416:D 2.88725e-05
2 *1523:X 2.88725e-05
3 *1416:CLK *1416:D 3.18676e-05
4 *94:18 *1416:D 0.000188586
5 *191:40 *1416:D 4.39457e-05
*RES
1 *1523:X *1416:D 20.3679 
*END

*D_NET *236 0.00375247
*CONN
*I *1364:A1 I *D sky130_fd_sc_hd__mux2_1
*I *1367:A0 I *D sky130_fd_sc_hd__mux2_1
*I *1524:X O *D sky130_fd_sc_hd__dlygate4sd3_1
*CAP
1 *1364:A1 0.000263145
2 *1367:A0 0.000455076
3 *1524:X 3.92213e-05
4 *236:8 0.000757442
5 *1367:A0 *1316:A2 6.09804e-05
6 *1367:A0 *1367:A1 6.29133e-05
7 *1367:A0 *316:10 0.000229456
8 *236:8 *1524:A 5.52302e-05
9 *1316:B1 *1367:A0 0.000221641
10 *1358:A1 *1364:A1 4.25809e-05
11 *1358:A1 *1367:A0 3.0285e-05
12 *1364:A0 *1364:A1 4.59588e-05
13 *1367:S *1367:A0 5.71472e-05
14 *1474:A *1364:A1 0.00014285
15 *1482:A *1364:A1 0
16 *1482:A *1367:A0 0
17 *94:18 *1367:A0 0.000248149
18 *191:40 *1367:A0 0.00104039
19 *195:56 *1364:A1 0
*RES
1 *1524:X *236:8 14.3357 
2 *236:8 *1367:A0 28.9964 
3 *236:8 *1364:A1 18.1214 
*END

*D_NET *237 0.00210589
*CONN
*I *1369:A1 I *D sky130_fd_sc_hd__mux2_1
*I *1372:A0 I *D sky130_fd_sc_hd__mux2_1
*I *1526:X O *D sky130_fd_sc_hd__dlygate4sd3_1
*CAP
1 *1369:A1 0.00024165
2 *1372:A0 0.000222816
3 *1526:X 0.000124304
4 *237:10 0.00058877
5 *1372:A0 *1302:B 0.000142856
6 *237:10 *303:10 0
7 *1304:B2 *1372:A0 9.60875e-05
8 *1372:S *1372:A0 6.26959e-05
9 *180:64 *237:10 0.000222878
10 *194:89 *1369:A1 0.000161937
11 *194:89 *1372:A0 0.000184745
12 *200:64 *1372:A0 5.71472e-05
13 *200:64 *237:10 0
*RES
1 *1526:X *237:10 21.1571 
2 *237:10 *1372:A0 14.3536 
3 *237:10 *1369:A1 12.7286 
*END

*D_NET *238 0.00100276
*CONN
*I *1427:D I *D sky130_fd_sc_hd__dfrtp_1
*I *1527:X O *D sky130_fd_sc_hd__dlygate4sd3_1
*CAP
1 *1427:D 0.000338734
2 *1527:X 0.000338734
3 *1427:D *1260:C1 0
4 *1427:D *1387:S 6.97972e-05
5 *1372:S *1427:D 5.62995e-05
6 *1527:A *1427:D 5.71472e-05
7 *188:59 *1427:D 0.000142053
*RES
1 *1527:X *1427:D 33.0643 
*END

*D_NET *239 0.00136619
*CONN
*I *1375:A1 I *D sky130_fd_sc_hd__mux2_1
*I *1378:A0 I *D sky130_fd_sc_hd__mux2_1
*I *1528:X O *D sky130_fd_sc_hd__dlygate4sd3_1
*CAP
1 *1375:A1 0.000287177
2 *1378:A0 0.000152125
3 *1528:X 0
4 *239:6 0.000439302
5 *1375:A1 *1375:A0 1.48543e-05
6 *1375:A1 *296:16 0.000140719
7 *1378:A0 *251:41 0.000129369
8 *1378:A0 *251:45 0.000143375
9 *1280:B1 *1378:A0 2.84026e-05
10 *1437:D *1375:A1 0
11 *1437:D *1378:A0 0
12 *229:57 *1378:A0 3.08664e-05
*RES
1 *1528:X *239:6 13.8 
2 *239:6 *1378:A0 17.425 
3 *239:6 *1375:A1 18.925 
*END

*D_NET *240 0.00231049
*CONN
*I *1566:A I *D sky130_fd_sc_hd__dlygate4sd3_1
*I *1279:B I *D sky130_fd_sc_hd__xor2_1
*I *1577:A I *D sky130_fd_sc_hd__buf_2
*I *1379:A1 I *D sky130_fd_sc_hd__mux2_1
*I *1442:Q O *D sky130_fd_sc_hd__dfrtp_1
*CAP
1 *1566:A 2.23854e-05
2 *1279:B 0
3 *1577:A 0.000223938
4 *1379:A1 0.000228461
5 *1442:Q 0
6 *240:27 0.000484262
7 *240:23 0.00050455
8 *240:6 0.000450302
9 *1379:A1 *1382:A0 0
10 *1379:A1 *1382:S 5.76121e-05
11 *1379:A1 *262:42 3.67142e-05
12 *240:23 *1382:A0 0
13 *1279:A *1577:A 1.76135e-05
14 *1282:A *240:23 7.77652e-05
15 *1282:A *240:27 0.000206887
16 *1441:CLK *240:23 0
17 *193:55 *1379:A1 0
18 *193:55 *240:23 0
*RES
1 *1442:Q *240:6 13.8 
2 *240:6 *1379:A1 17.0143 
3 *240:6 *240:23 8.71429 
4 *240:23 *240:27 5.07143 
5 *240:27 *1577:A 22.2107 
6 *240:27 *1279:B 9.3 
7 *240:23 *1566:A 9.72857 
*END

*D_NET *241 0.0016566
*CONN
*I *1405:A1 I *D sky130_fd_sc_hd__mux2_1
*I *1397:A0 I *D sky130_fd_sc_hd__mux2_1
*I *1529:X O *D sky130_fd_sc_hd__dlygate4sd3_1
*CAP
1 *1405:A1 0.000224448
2 *1397:A0 3.90996e-05
3 *1529:X 0
4 *241:4 0.000263548
5 *1397:A0 *1360:A1 0.000227526
6 *1405:A1 *244:10 7.83587e-05
7 *1405:A1 *273:42 0.000474005
8 *1265:B2 *1397:A0 0.000227526
9 *1293:B2 *1405:A1 0
10 *71:16 *1405:A1 0
11 *182:20 *1405:A1 0.000122089
12 *192:87 *1405:A1 0
*RES
1 *1529:X *241:4 9.3 
2 *241:4 *1397:A0 11.4786 
3 *241:4 *1405:A1 24.4964 
*END

*D_NET *242 0.000621984
*CONN
*I *1457:D I *D sky130_fd_sc_hd__dfrtp_1
*I *1530:X O *D sky130_fd_sc_hd__dlygate4sd3_1
*CAP
1 *1457:D 0.000213153
2 *1530:X 0.000213153
3 *1457:D *1397:A1 8.77741e-05
4 *1296:C *1457:D 9.90431e-05
5 *1457:RESET_B *1457:D 8.86129e-06
6 *187:8 *1457:D 0
7 *187:27 *1457:D 0
*RES
1 *1530:X *1457:D 31.283 
*END

*D_NET *243 0.00412916
*CONN
*I *1372:A1 I *D sky130_fd_sc_hd__mux2_1
*I *1375:A0 I *D sky130_fd_sc_hd__mux2_1
*I *1531:X O *D sky130_fd_sc_hd__dlygate4sd3_1
*CAP
1 *1372:A1 0.000479599
2 *1375:A0 0.000992173
3 *1531:X 0
4 *243:4 0.00147177
5 *1372:A1 *1301:B 3.48235e-05
6 *1372:A1 *1304:C1 0.000274294
7 *1372:A1 *1512:A 0
8 *1375:A0 *1271:C1 0.000169328
9 *1375:A0 *1375:S 2.84026e-05
10 *1375:A0 *1377:A0 0.000125731
11 *1375:A0 *263:10 0.000148189
12 *1375:A0 *296:16 8.90221e-05
13 *1375:A1 *1375:A0 1.48543e-05
14 *1446:RESET_B *1375:A0 0.000205699
15 *194:64 *1375:A0 5.52653e-05
16 *199:30 *1372:A1 4.00048e-05
*RES
1 *1531:X *243:4 9.3 
2 *243:4 *1375:A0 35.4964 
3 *243:4 *1372:A1 24.8 
*END

*D_NET *244 0.00265118
*CONN
*I *1405:A0 I *D sky130_fd_sc_hd__mux2_1
*I *1361:A1 I *D sky130_fd_sc_hd__mux2_1
*I *1532:X O *D sky130_fd_sc_hd__dlygate4sd3_1
*CAP
1 *1405:A0 0
2 *1361:A1 0.000624313
3 *1532:X 0.000114264
4 *244:10 0.000738577
5 *1361:A1 *1361:A0 2.44318e-05
6 *1361:A1 *1552:A 0.000449546
7 *1361:A1 *273:42 1.31516e-05
8 *1361:A1 *273:50 0.000125918
9 *244:10 *1292:B 2.89016e-05
10 *244:10 *273:42 2.49484e-05
11 *1405:A1 *244:10 7.83587e-05
12 *1419:D *1361:A1 0.000428771
13 *1464:D *1361:A1 0
14 *71:16 *244:10 0
15 *182:26 *1361:A1 0
16 *182:26 *244:10 0
17 *201:44 *1361:A1 0
*RES
1 *1532:X *244:10 15.9786 
2 *244:10 *1361:A1 28.7286 
3 *244:10 *1405:A0 13.8 
*END

*D_NET *245 0.00222279
*CONN
*I *1370:A1 I *D sky130_fd_sc_hd__mux2_1
*I *1373:A0 I *D sky130_fd_sc_hd__mux2_1
*I *1533:X O *D sky130_fd_sc_hd__dlygate4sd3_1
*CAP
1 *1370:A1 0.000155861
2 *1373:A0 0
3 *1533:X 0.000273484
4 *245:12 0.000429345
5 *1370:A1 *1370:A0 5.71472e-05
6 *1370:A1 *262:14 8.27532e-05
7 *1370:A1 *262:28 0.00010096
8 *245:12 *1432:D 0
9 *245:12 *262:28 5.52302e-05
10 *245:12 *281:33 0
11 *245:12 *281:98 0
12 *3:21 *1370:A1 0.000465411
13 *3:21 *245:12 5.71472e-05
14 *109:18 *1370:A1 0.000468359
15 *200:26 *245:12 2.6726e-05
16 *200:35 *245:12 5.0371e-05
*RES
1 *1533:X *245:12 23.2107 
2 *245:12 *1373:A0 9.3 
3 *245:12 *1370:A1 16.9607 
*END

*D_NET *246 0.000436056
*CONN
*I *1432:D I *D sky130_fd_sc_hd__dfrtp_1
*I *1534:X O *D sky130_fd_sc_hd__dlygate4sd3_1
*CAP
1 *1432:D 0.000145142
2 *1534:X 0.000145142
3 *1432:D *301:16 4.48113e-05
4 *109:18 *1432:D 0.00010096
5 *200:26 *1432:D 0
6 *245:12 *1432:D 0
*RES
1 *1534:X *1432:D 30.1893 
*END

*D_NET *247 0.00156837
*CONN
*I *1356:A0 I *D sky130_fd_sc_hd__mux2_1
*I *1395:A1 I *D sky130_fd_sc_hd__mux2_1
*I *1535:X O *D sky130_fd_sc_hd__dlygate4sd3_1
*CAP
1 *1356:A0 0.000361857
2 *1395:A1 0.000142781
3 *1535:X 8.65751e-05
4 *247:8 0.000591213
5 *1356:A0 *1414:D 4.05411e-05
6 *1395:A1 *1395:A0 6.05161e-06
7 *1395:A1 *259:6 4.87953e-05
8 *1395:S *1395:A1 0.000101545
9 *1395:S *247:8 0.000166269
10 *1537:A *1356:A0 2.27416e-05
*RES
1 *1535:X *247:8 16.05 
2 *247:8 *1395:A1 16.0857 
3 *247:8 *1356:A0 19.2643 
*END

*D_NET *248 0.000450221
*CONN
*I *1414:D I *D sky130_fd_sc_hd__dfrtp_1
*I *1537:X O *D sky130_fd_sc_hd__dlygate4sd3_1
*CAP
1 *1414:D 0.000157976
2 *1537:X 0.000157976
3 *1414:D *315:29 4.79842e-05
4 *1356:A0 *1414:D 4.05411e-05
5 *1395:S *1414:D 4.57445e-05
*RES
1 *1537:X *1414:D 30.6 
*END

*D_NET *249 0.00310567
*CONN
*I *1367:A1 I *D sky130_fd_sc_hd__mux2_1
*I *1370:A0 I *D sky130_fd_sc_hd__mux2_1
*I *1538:X O *D sky130_fd_sc_hd__dlygate4sd3_1
*CAP
1 *1367:A1 0.000234761
2 *1370:A0 0.000502959
3 *1538:X 0
4 *249:4 0.00073772
5 *1370:A0 *1305:A2 7.95909e-05
6 *1370:A0 *1538:A 0.000139913
7 *1370:A0 *307:10 0.000125731
8 *1370:A0 *307:23 2.21038e-05
9 *1278:C *1370:A0 0.000117553
10 *1317:B *1370:A0 2.72449e-05
11 *1367:A0 *1367:A1 6.29133e-05
12 *1370:A1 *1370:A0 5.71472e-05
13 *1425:D *1367:A1 9.41642e-05
14 *1483:A *1370:A0 9.90431e-05
15 *3:21 *1370:A0 0.000229456
16 *70:65 *1370:A0 6.57815e-05
17 *105:12 *1370:A0 0.000107241
18 *109:18 *1370:A0 0.000227738
19 *188:42 *1370:A0 0.00017461
*RES
1 *1538:X *249:4 9.3 
2 *249:4 *1370:A0 32.8714 
3 *249:4 *1367:A1 13.175 
*END

*D_NET *250 0.00137726
*CONN
*I *1376:A0 I *D sky130_fd_sc_hd__mux2_1
*I *1539:X O *D sky130_fd_sc_hd__dlygate4sd3_1
*CAP
1 *1376:A0 0.000326483
2 *1539:X 0.000326483
3 *1376:A0 *1539:A 5.52302e-05
4 *1376:A0 *262:28 0.000306003
5 *1376:A0 *262:36 0.00010096
6 *1376:A0 *298:21 5.71472e-05
7 *1376:A0 *301:10 1.17968e-05
8 *1435:RESET_B *1376:A0 2.15245e-05
9 *1465:CLK *1376:A0 0.000125731
10 *1540:A *1376:A0 2.44318e-05
11 *193:102 *1376:A0 2.14658e-05
*RES
1 *1539:X *1376:A0 34.725 
*END

*D_NET *251 0.0135094
*CONN
*I *1374:S I *D sky130_fd_sc_hd__mux2_1
*I *1386:S I *D sky130_fd_sc_hd__mux2_1
*I *1384:S I *D sky130_fd_sc_hd__mux2_1
*I *1383:B I *D sky130_fd_sc_hd__or2_1
*I *1385:S I *D sky130_fd_sc_hd__mux2_1
*I *1375:S I *D sky130_fd_sc_hd__mux2_1
*I *1378:S I *D sky130_fd_sc_hd__mux2_1
*I *1377:S I *D sky130_fd_sc_hd__mux2_1
*I *1380:S I *D sky130_fd_sc_hd__mux2_1
*I *1371:S I *D sky130_fd_sc_hd__mux2_1
*I *1500:X O *D sky130_fd_sc_hd__clkbuf_4
*CAP
1 *1374:S 0
2 *1386:S 0.000509373
3 *1384:S 0
4 *1383:B 0.000489455
5 *1385:S 0
6 *1375:S 1.72843e-05
7 *1378:S 0
8 *1377:S 0.000134414
9 *1380:S 0.000237286
10 *1371:S 4.97018e-05
11 *1500:X 0.000329539
12 *251:100 0.00107594
13 *251:96 0.00118834
14 *251:87 0.00033413
15 *251:45 0.000632933
16 *251:41 0.000810119
17 *251:31 0.000657296
18 *251:29 0.000672129
19 *251:23 0.000568776
20 *251:10 0.000608663
21 *1371:S *1374:A0 0.000175512
22 *1375:S *296:16 2.84026e-05
23 *1377:S *1281:C1 0.000171375
24 *1377:S *1377:A0 0.00014285
25 *1377:S *1380:A0 0
26 *1380:S *1281:C1 0.000200406
27 *1380:S *1380:A0 5.17614e-05
28 *1380:S *1380:A1 0.000189753
29 *1386:S *1386:A1 0.000119203
30 *251:10 *1374:A0 3.17148e-05
31 *251:10 *281:98 4.06782e-05
32 *251:23 *1374:A0 0.000572143
33 *251:29 *1374:A0 6.12434e-05
34 *251:41 *1251:A 9.11048e-06
35 *251:41 *1551:A 0
36 *251:41 *296:18 0
37 *251:41 *297:8 0.000114972
38 *1299:B1 *251:41 2.21728e-05
39 *1375:A0 *1375:S 2.84026e-05
40 *1378:A0 *251:41 0.000129369
41 *1378:A0 *251:45 0.000143375
42 *1384:A0 *1383:B 8.07313e-05
43 *1384:A0 *251:100 2.14658e-05
44 *1385:A0 *1386:S 6.75007e-05
45 *1385:A0 *251:96 1.17968e-05
46 *1385:A1 *251:100 0.000119135
47 *1386:A0 *1386:S 0.00010096
48 *1433:CLK *251:31 6.42338e-05
49 *1433:CLK *251:41 4.46186e-06
50 *1433:D *251:29 0.000268396
51 *1434:D *251:31 0
52 *1434:D *251:87 0
53 *1441:RESET_B *1380:S 0
54 *1444:D *1383:B 8.90314e-05
55 *1445:RESET_B *251:96 6.94623e-05
56 *1446:CLK *251:87 5.75798e-05
57 *1446:CLK *251:96 0.00020212
58 *1446:D *1386:S 0.000151061
59 *1469:A *251:29 0.000109832
60 *1470:A *251:29 0.000130493
61 *1477:A *251:10 0.000396892
62 *1513:A *1386:S 3.18676e-05
63 *1575:A *1377:S 0.00014285
64 *77:12 *1380:S 0
65 *77:12 *251:45 8.02593e-05
66 *179:8 *251:29 9.90431e-05
67 *179:19 *251:31 1.17968e-05
68 *179:19 *251:87 0.000132452
69 *194:64 *1371:S 0.000175512
70 *194:64 *251:10 0.000141375
71 *194:64 *251:41 0
72 *199:36 *251:87 5.14655e-05
73 *199:36 *251:96 1.08847e-05
74 *199:100 *251:87 7.6644e-05
75 *218:19 *251:45 4.87953e-05
76 *229:57 *251:45 1.34631e-05
*RES
1 *1500:X *251:10 19.5679 
2 *251:10 *1371:S 16.05 
3 *251:10 *251:23 9.96429 
4 *251:23 *251:29 12.4464 
5 *251:29 *251:31 1.94643 
6 *251:31 *251:41 13.5536 
7 *251:41 *251:45 9.96429 
8 *251:45 *1380:S 19.6571 
9 *251:45 *1377:S 17.4071 
10 *251:41 *1378:S 9.3 
11 *251:31 *1375:S 14.3357 
12 *251:29 *251:87 5.94643 
13 *251:87 *1385:S 13.8 
14 *251:87 *251:96 2.85714 
15 *251:96 *251:100 14.0714 
16 *251:100 *1383:B 27.2464 
17 *251:100 *1384:S 9.3 
18 *251:96 *1386:S 25.1929 
19 *251:23 *1374:S 9.3 
*END

*D_NET *252 0.000595098
*CONN
*I *1435:D I *D sky130_fd_sc_hd__dfrtp_1
*I *1540:X O *D sky130_fd_sc_hd__dlygate4sd3_1
*CAP
1 *1435:D 0.000254596
2 *1540:X 0.000254596
3 *176:34 *1435:D 0
4 *193:74 *1435:D 8.59056e-05
*RES
1 *1540:X *1435:D 32.2071 
*END

*D_NET *253 0.00237558
*CONN
*I *1363:A0 I *D sky130_fd_sc_hd__mux2_1
*I *1357:A1 I *D sky130_fd_sc_hd__mux2_1
*I *1541:X O *D sky130_fd_sc_hd__dlygate4sd3_1
*CAP
1 *1363:A0 0.000348603
2 *1357:A1 0.000160528
3 *1541:X 0.000260175
4 *253:10 0.000769307
5 *1357:A1 *1357:A0 0
6 *1357:S *1357:A1 5.80706e-06
7 *1415:D *1357:A1 0
8 *1415:D *1363:A0 2.45592e-05
9 *1415:RESET_B *1363:A0 0.000532305
10 *1421:CLK *1357:A1 0
11 *1421:CLK *253:10 0
12 *1421:RESET_B *1357:A1 0
13 *1421:RESET_B *253:10 0.000274294
14 *184:88 *1357:A1 0
*RES
1 *1541:X *253:10 17.7286 
2 *253:10 *1357:A1 16.6571 
3 *253:10 *1363:A0 21.3179 
*END

*D_NET *254 0.000708915
*CONN
*I *1421:D I *D sky130_fd_sc_hd__dfrtp_1
*I *1542:X O *D sky130_fd_sc_hd__dlygate4sd3_1
*CAP
1 *1421:D 0.000316482
2 *1542:X 0.000316482
3 *1421:CLK *1421:D 7.59512e-05
*RES
1 *1542:X *1421:D 31.6804 
*END

*D_NET *255 0.000664406
*CONN
*I *1366:A0 I *D sky130_fd_sc_hd__mux2_1
*I *1543:X O *D sky130_fd_sc_hd__dlygate4sd3_1
*CAP
1 *1366:A0 4.8839e-05
2 *1543:X 4.8839e-05
3 *1366:A0 *1389:A1 0.000262877
4 *1366:A0 *330:25 0.00010096
5 *186:104 *1366:A0 0.000202891
*RES
1 *1543:X *1366:A0 22.0107 
*END

*D_NET *256 0.000501486
*CONN
*I *1424:D I *D sky130_fd_sc_hd__dfrtp_1
*I *1544:X O *D sky130_fd_sc_hd__dlygate4sd3_1
*CAP
1 *1424:D 0.000183742
2 *1544:X 0.000183742
3 *1424:D *1519:A 4.1331e-06
4 *1388:S *1424:D 0.000129868
*RES
1 *1544:X *1424:D 30.6 
*END

*D_NET *257 0.00274608
*CONN
*I *1371:A1 I *D sky130_fd_sc_hd__mux2_1
*I *1374:A0 I *D sky130_fd_sc_hd__mux2_1
*I *1545:X O *D sky130_fd_sc_hd__dlygate4sd3_1
*CAP
1 *1371:A1 0
2 *1374:A0 0.000261663
3 *1545:X 7.35886e-05
4 *257:6 0.000335251
5 *1374:A0 *281:98 0.000104236
6 *257:6 *1545:A 0.000311183
7 *1371:S *1374:A0 0.000175512
8 *1470:A *1374:A0 0.000613013
9 *1546:A *257:6 0.00010096
10 *189:61 *257:6 0.000105569
11 *251:10 *1374:A0 3.17148e-05
12 *251:23 *1374:A0 0.000572143
13 *251:29 *1374:A0 6.12434e-05
*RES
1 *1545:X *257:6 12.3 
2 *257:6 *1374:A0 27.9607 
3 *257:6 *1371:A1 9.3 
*END

*D_NET *258 0.000542837
*CONN
*I *1430:D I *D sky130_fd_sc_hd__dfrtp_1
*I *1546:X O *D sky130_fd_sc_hd__dlygate4sd3_1
*CAP
1 *1430:D 0.000172344
2 *1546:X 0.000172344
3 *180:10 *1430:D 5.10822e-05
4 *180:20 *1430:D 4.37999e-05
5 *190:81 *1430:D 0.000103267
*RES
1 *1546:X *1430:D 31.1179 
*END

*D_NET *259 0.0022978
*CONN
*I *1403:A1 I *D sky130_fd_sc_hd__mux2_1
*I *1395:A0 I *D sky130_fd_sc_hd__mux2_1
*I *1548:X O *D sky130_fd_sc_hd__dlygate4sd3_1
*CAP
1 *1403:A1 0.000879249
2 *1395:A0 3.49619e-05
3 *1548:X 0.000139685
4 *259:6 0.0010539
5 *1403:A1 *1359:A1 6.05161e-06
6 *1403:A1 *1391:A1 0
7 *1403:A1 *1463:D 8.00806e-05
8 *1392:A1 *1403:A1 0
9 *1395:A1 *1395:A0 6.05161e-06
10 *1395:A1 *259:6 4.87953e-05
11 *1395:S *1403:A1 3.34295e-05
12 *1451:D *1403:A1 0
13 *1451:RESET_B *1403:A1 0
14 *187:68 *1403:A1 1.56e-05
*RES
1 *1548:X *259:6 11.8893 
2 *259:6 *1395:A0 9.83571 
3 *259:6 *1403:A1 32.925 
*END

*D_NET *260 0.00122012
*CONN
*I *1379:A0 I *D sky130_fd_sc_hd__mux2_1
*I *1549:X O *D sky130_fd_sc_hd__dlygate4sd3_1
*CAP
1 *1379:A0 0.000381251
2 *1549:X 0.000381251
3 *1379:A0 *262:42 9.71197e-05
4 *1379:A0 *298:10 0
5 *1438:RESET_B *1379:A0 0
6 *1550:A *1379:A0 0.000293013
7 *177:10 *1379:A0 6.74893e-05
*RES
1 *1549:X *1379:A0 35.9036 
*END

*D_NET *261 0.000619708
*CONN
*I *1438:D I *D sky130_fd_sc_hd__dfrtp_1
*I *1550:X O *D sky130_fd_sc_hd__dlygate4sd3_1
*CAP
1 *1438:D 0.000180986
2 *1550:X 0.000180986
3 *1438:D *262:42 0.00016939
4 *1282:A *1438:D 2.59355e-05
5 *1442:RESET_B *1438:D 9.11048e-06
6 *193:55 *1438:D 5.33005e-05
*RES
1 *1550:X *1438:D 31.35 
*END

*D_NET *262 0.0171345
*CONN
*I *1370:S I *D sky130_fd_sc_hd__mux2_1
*I *1328:S I *D sky130_fd_sc_hd__mux2_1
*I *1327:S I *D sky130_fd_sc_hd__mux2_1
*I *1500:A I *D sky130_fd_sc_hd__clkbuf_4
*I *1387:S I *D sky130_fd_sc_hd__mux2_1
*I *1373:S I *D sky130_fd_sc_hd__mux2_1
*I *1376:S I *D sky130_fd_sc_hd__mux2_1
*I *1381:S I *D sky130_fd_sc_hd__mux2_1
*I *1379:S I *D sky130_fd_sc_hd__mux2_1
*I *1382:S I *D sky130_fd_sc_hd__mux2_1
*I *1501:X O *D sky130_fd_sc_hd__clkbuf_4
*CAP
1 *1370:S 0.000243372
2 *1328:S 0.000212877
3 *1327:S 0
4 *1500:A 0
5 *1387:S 0.000439715
6 *1373:S 0
7 *1376:S 0
8 *1381:S 0.000221562
9 *1379:S 0
10 *1382:S 7.75749e-05
11 *1501:X 0
12 *262:119 0.000515875
13 *262:109 0.00063812
14 *262:87 0.00113151
15 *262:42 0.000331261
16 *262:36 0.000938641
17 *262:28 0.000735344
18 *262:14 0.000300946
19 *262:10 0.00111709
20 *262:4 0.000488059
21 *1328:S *1328:A1 0.000149911
22 *1328:S *295:8 7.79781e-06
23 *1381:S *1381:A0 3.92854e-05
24 *1387:S *1260:C1 0
25 *1387:S *1426:D 0
26 *262:10 *281:33 0.000323392
27 *262:28 *301:10 4.06782e-05
28 *262:28 *301:16 0
29 *262:36 *1381:A0 9.83442e-05
30 *262:36 *1549:A 0.000112782
31 *262:36 *298:21 0.000261464
32 *262:87 *1252:A 0.000222878
33 *262:87 *1303:B1 0.00027338
34 *262:87 *281:33 0.000196815
35 *262:87 *281:98 0.000134815
36 *262:87 *302:21 9.91086e-05
37 *262:87 *302:32 0.00019384
38 *262:87 *304:10 0.000115988
39 *262:119 *1287:A2 0
40 *262:119 *294:10 0
41 *1242:A *1370:S 0
42 *1242:A *262:10 0.000116749
43 *1242:A *262:109 0.00013884
44 *1282:A *1381:S 0
45 *1282:A *262:36 0.00035746
46 *1282:C_N *1381:S 0
47 *1285:A1 *1328:S 5.52238e-05
48 *1286:B1 *1328:S 6.42592e-05
49 *1286:B1 *262:119 9.60875e-05
50 *1286:C1 *1328:S 0.000184719
51 *1304:A2 *262:87 5.41609e-05
52 *1317:A *262:87 8.71989e-05
53 *1327:A0 *1328:S 2.61337e-05
54 *1327:A0 *262:119 7.72038e-05
55 *1370:A1 *262:14 8.27532e-05
56 *1370:A1 *262:28 0.00010096
57 *1376:A0 *262:28 0.000306003
58 *1376:A0 *262:36 0.00010096
59 *1379:A0 *262:42 9.71197e-05
60 *1379:A1 *1382:S 5.76121e-05
61 *1379:A1 *262:42 3.67142e-05
62 *1407:RESET_B *262:119 0.000162125
63 *1426:RESET_B *1387:S 0
64 *1427:D *1387:S 6.97972e-05
65 *1438:D *262:42 0.00016939
66 *1441:CLK *1381:S 6.9253e-05
67 *1441:CLK *262:42 0.000131491
68 *1442:RESET_B *262:42 0.000173804
69 *1447:CLK *1387:S 3.34366e-05
70 *1448:CLK *1387:S 9.90431e-05
71 *1477:A *262:87 0.000251947
72 *1493:A *1370:S 0
73 *1495:A *262:10 2.89114e-05
74 *1501:A *1370:S 0.000209491
75 *1501:A *262:119 5.58941e-05
76 *1534:A *262:28 4.81894e-05
77 *1540:A *262:28 0
78 *1550:A *262:42 0
79 *1567:A *1381:S 0
80 *3:21 *1381:S 0.000167885
81 *3:21 *262:28 0.000252529
82 *70:10 *262:10 1.32552e-05
83 *109:18 *262:14 4.87854e-05
84 *109:18 *262:28 0.000207525
85 *177:10 *262:42 9.90431e-05
86 *177:85 *262:42 0.000100969
87 *180:10 *262:87 0
88 *180:20 *262:87 6.47612e-05
89 *180:47 *262:87 0
90 *180:49 *262:87 2.89114e-05
91 *180:64 *1387:S 0.000579309
92 *180:73 *1387:S 8.32171e-05
93 *180:90 *1387:S 0.00012401
94 *192:29 *1370:S 0
95 *193:27 *1382:S 0.000320024
96 *193:27 *262:42 8.57023e-05
97 *193:55 *262:36 0.000403229
98 *193:68 *262:36 0.000310292
99 *193:74 *262:28 0
100 *193:102 *262:28 0.000262877
101 *193:102 *262:36 0.000186669
102 *195:14 *262:119 0.000173083
103 *197:24 *1328:S 4.23086e-05
104 *197:35 *1328:S 5.2164e-05
105 *197:35 *262:119 5.66157e-05
106 *197:51 *262:119 2.59355e-05
107 *198:10 *262:10 0
108 *198:20 *262:10 7.27028e-05
109 *198:20 *262:119 0
110 *200:12 *1370:S 0
111 *200:12 *262:10 5.71472e-05
112 *200:12 *262:87 0
113 *229:36 *1381:S 5.49544e-05
114 *245:12 *262:28 5.52302e-05
*RES
1 *1501:X *262:4 9.3 
2 *262:4 *262:10 13.4107 
3 *262:10 *262:14 5.44643 
4 *262:14 *262:28 18.9286 
5 *262:28 *262:36 18.625 
6 *262:36 *262:42 12.2679 
7 *262:42 *1382:S 12.3 
8 *262:42 *1379:S 9.3 
9 *262:36 *1381:S 18.55 
10 *262:28 *1376:S 9.3 
11 *262:14 *1373:S 9.3 
12 *262:10 *262:87 22.5536 
13 *262:87 *1387:S 29.3893 
14 *262:87 *1500:A 9.3 
15 *262:4 *262:109 6.26786 
16 *262:109 *262:119 11.3929 
17 *262:119 *1327:S 9.3 
18 *262:119 *1328:S 24.2286 
19 *262:109 *1370:S 18.4786 
*END

*D_NET *263 0.00527979
*CONN
*I *1374:A1 I *D sky130_fd_sc_hd__mux2_1
*I *1377:A0 I *D sky130_fd_sc_hd__mux2_1
*I *1551:X O *D sky130_fd_sc_hd__dlygate4sd3_1
*CAP
1 *1374:A1 0
2 *1377:A0 0.00134689
3 *1551:X 0.000205871
4 *263:10 0.00155277
5 *1377:A0 *1270:B 1.17968e-05
6 *1377:A0 *1271:C1 0.000364253
7 *1377:A0 *1299:C1 8.14011e-05
8 *1377:A0 *272:12 1.92163e-05
9 *263:10 *1271:C1 0.000137939
10 *263:10 *300:8 1.88573e-05
11 *1270:A *1377:A0 0
12 *1271:B1 *1377:A0 5.59013e-05
13 *1271:B2 *1377:A0 0.00014285
14 *1299:A1 *1377:A0 2.59355e-05
15 *1299:B1 *1377:A0 0.000142856
16 *1300:B *1377:A0 0.000227532
17 *1375:A0 *1377:A0 0.000125731
18 *1375:A0 *263:10 0.000148189
19 *1377:S *1377:A0 0.00014285
20 *1437:CLK *1377:A0 0.000343542
21 *1437:D *1377:A0 2.89016e-05
22 *1437:RESET_B *1377:A0 2.35835e-05
23 *1446:RESET_B *1377:A0 0
24 *1575:A *1377:A0 0.000132924
25 *200:41 *1377:A0 0
*RES
1 *1551:X *263:10 17.5143 
2 *263:10 *1377:A0 39.2464 
3 *263:10 *1374:A1 13.8 
*END

*D_NET *264 0.000407114
*CONN
*I *1361:A0 I *D sky130_fd_sc_hd__mux2_1
*I *1552:X O *D sky130_fd_sc_hd__dlygate4sd3_1
*CAP
1 *1361:A0 9.70482e-05
2 *1552:X 9.70482e-05
3 *1361:A0 *1552:A 0.000188586
4 *1361:A1 *1361:A0 2.44318e-05
*RES
1 *1552:X *1361:A0 20.7786 
*END

*D_NET *265 0.00193751
*CONN
*I *1362:A0 I *D sky130_fd_sc_hd__mux2_1
*I *1553:X O *D sky130_fd_sc_hd__dlygate4sd3_1
*CAP
1 *1362:A0 0.0004654
2 *1553:X 0.0004654
3 *1362:A0 *1290:C1 0.000327771
4 *1362:A0 *1420:D 0.000104974
5 *1289:B1 *1362:A0 1.52978e-05
6 *1290:B1 *1362:A0 9.71197e-05
7 *1290:B2 *1362:A0 2.89114e-05
8 *1362:S *1362:A0 4.43256e-05
9 *82:8 *1362:A0 7.90459e-05
10 *194:110 *1362:A0 0.000309266
*RES
1 *1553:X *1362:A0 37.4036 
*END

*D_NET *266 0.00022721
*CONN
*I *1420:D I *D sky130_fd_sc_hd__dfrtp_1
*I *1554:X O *D sky130_fd_sc_hd__dlygate4sd3_1
*CAP
1 *1420:D 3.32706e-05
2 *1554:X 3.32706e-05
3 *1362:A0 *1420:D 0.000104974
4 *82:8 *1420:D 5.56943e-05
*RES
1 *1554:X *1420:D 28.9393 
*END

*D_NET *267 0.00368483
*CONN
*I *1403:A0 I *D sky130_fd_sc_hd__mux2_1
*I *1359:A1 I *D sky130_fd_sc_hd__mux2_1
*I *1555:X O *D sky130_fd_sc_hd__dlygate4sd3_1
*CAP
1 *1403:A0 0
2 *1359:A1 0.000749651
3 *1555:X 0.000445932
4 *267:12 0.00119558
5 *1359:A1 *1243:A 4.55516e-05
6 *1359:A1 *1463:D 0
7 *1359:A1 *334:8 2.88018e-06
8 *267:12 *1417:D 0.000186669
9 *267:12 *1463:D 0.000148903
10 *267:12 *1555:A 4.72917e-05
11 *1403:A1 *1359:A1 6.05161e-06
12 *1451:RESET_B *267:12 0
13 *1452:CLK *1359:A1 2.89114e-05
14 *1452:D *1359:A1 7.6644e-05
15 *1462:CLK *267:12 9.90367e-05
16 *1462:D *1359:A1 6.67033e-05
17 *1462:D *267:12 0
18 *1556:A *1359:A1 0.000137635
19 *182:68 *1359:A1 6.39262e-05
20 *182:70 *1359:A1 5.26091e-05
21 *187:68 *1359:A1 0.000330848
22 *201:20 *267:12 0
*RES
1 *1555:X *267:12 27.175 
2 *267:12 *1359:A1 31.55 
3 *267:12 *1403:A0 9.3 
*END

*D_NET *268 0.00141242
*CONN
*I *1417:D I *D sky130_fd_sc_hd__dfrtp_1
*I *1556:X O *D sky130_fd_sc_hd__dlygate4sd3_1
*CAP
1 *1417:D 0.000511413
2 *1556:X 0.000511413
3 *1417:D *1555:A 0.000104611
4 *1462:CLK *1417:D 2.44318e-05
5 *182:76 *1417:D 7.38848e-05
6 *267:12 *1417:D 0.000186669
*RES
1 *1556:X *1417:D 34.8411 
*END

*D_NET *269 0.00473324
*CONN
*I *1404:A0 I *D sky130_fd_sc_hd__mux2_1
*I *1360:A1 I *D sky130_fd_sc_hd__mux2_1
*I *1557:X O *D sky130_fd_sc_hd__dlygate4sd3_1
*CAP
1 *1404:A0 0
2 *1360:A1 0.000342517
3 *1557:X 0.000331892
4 *269:6 0.000674409
5 *1360:A1 *1397:A1 9.37079e-05
6 *1360:A1 *1404:S 8.9036e-05
7 *1360:A1 *1529:A 0.000142856
8 *1360:A1 *1557:A 0.000316184
9 *1360:A1 *273:14 5.62995e-05
10 *1360:A1 *273:31 0.000114723
11 *1360:A1 *273:38 0.00018077
12 *269:6 *1557:A 0.000744452
13 *1241:A *1360:A1 5.52238e-05
14 *1265:B2 *1360:A1 0.000679125
15 *1265:B2 *269:6 4.08637e-05
16 *1397:A0 *1360:A1 0.000227526
17 *1485:A *1360:A1 0.000185643
18 *189:12 *1360:A1 0.000142856
19 *189:136 *1360:A1 0.000315158
*RES
1 *1557:X *269:6 16.4071 
2 *269:6 *1360:A1 24.4964 
3 *269:6 *1404:A0 9.3 
*END

*D_NET *270 0.00102788
*CONN
*I *1463:D I *D sky130_fd_sc_hd__dfrtp_1
*I *1559:X O *D sky130_fd_sc_hd__dlygate4sd3_1
*CAP
1 *1463:D 0.000332133
2 *1559:X 0.000332133
3 *1359:A1 *1463:D 0
4 *1403:A1 *1463:D 8.00806e-05
5 *1451:RESET_B *1463:D 0
6 *1462:D *1463:D 2.56694e-05
7 *1463:CLK *1463:D 7.09187e-05
8 *187:68 *1463:D 0
9 *203:22 *1463:D 3.80385e-05
10 *267:12 *1463:D 0.000148903
*RES
1 *1559:X *1463:D 33.5732 
*END

*D_NET *271 0.000613571
*CONN
*I *1360:A0 I *D sky130_fd_sc_hd__mux2_1
*I *1560:X O *D sky130_fd_sc_hd__dlygate4sd3_1
*CAP
1 *1360:A0 0.000214461
2 *1560:X 0.000214461
3 *1360:A0 *1293:A1 1.33343e-05
4 *1296:D *1360:A0 3.92854e-05
5 *189:12 *1360:A0 2.56694e-05
6 *189:18 *1360:A0 0.000106359
*RES
1 *1560:X *1360:A0 30.8143 
*END

*D_NET *272 0.00236853
*CONN
*I *1377:A1 I *D sky130_fd_sc_hd__mux2_1
*I *1380:A0 I *D sky130_fd_sc_hd__mux2_1
*I *1561:X O *D sky130_fd_sc_hd__dlygate4sd3_1
*CAP
1 *1377:A1 0
2 *1380:A0 0.000334354
3 *1561:X 0.000348233
4 *272:12 0.000682587
5 *1380:A0 *1281:C1 0
6 *1380:A0 *1380:A1 3.48705e-05
7 *272:12 *1299:C1 0.000133596
8 *1377:A0 *272:12 1.92163e-05
9 *1377:S *1380:A0 0
10 *1380:S *1380:A0 5.17614e-05
11 *1437:CLK *272:12 0.000313235
12 *1437:RESET_B *272:12 2.56694e-05
13 *1441:RESET_B *1380:A0 0.000153054
14 *199:64 *1380:A0 0.000271958
*RES
1 *1561:X *272:12 23.5679 
2 *272:12 *1380:A0 25.7643 
3 *272:12 *1377:A1 9.3 
*END

*D_NET *273 0.0137823
*CONN
*I *1404:S I *D sky130_fd_sc_hd__mux2_1
*I *1391:S I *D sky130_fd_sc_hd__mux2_1
*I *1359:S I *D sky130_fd_sc_hd__mux2_1
*I *1405:S I *D sky130_fd_sc_hd__mux2_1
*I *1393:S I *D sky130_fd_sc_hd__mux2_1
*I *1361:S I *D sky130_fd_sc_hd__mux2_1
*I *1326:S I *D sky130_fd_sc_hd__mux2_1
*I *1394:S I *D sky130_fd_sc_hd__mux2_1
*I *1397:S I *D sky130_fd_sc_hd__mux2_1
*I *1360:S I *D sky130_fd_sc_hd__mux2_1
*I *1502:X O *D sky130_fd_sc_hd__clkbuf_4
*CAP
1 *1404:S 0.000104283
2 *1391:S 0.000616579
3 *1359:S 5.53573e-05
4 *1405:S 0
5 *1393:S 4.90631e-05
6 *1361:S 8.13482e-05
7 *1326:S 0
8 *1394:S 5.37373e-05
9 *1397:S 0
10 *1360:S 0
11 *1502:X 0.000245007
12 *273:98 5.53573e-05
13 *273:62 0.000743652
14 *273:54 0.000965561
15 *273:50 0.00113163
16 *273:42 0.00117698
17 *273:40 0.000905295
18 *273:38 0.000159694
19 *273:31 0.000366307
20 *273:14 0.000555904
21 *1359:S *1243:A 0.000227539
22 *1391:S *319:8 6.01582e-05
23 *1393:S *290:22 2.59355e-05
24 *1394:S *1394:A1 0.000119125
25 *1404:S *1529:A 0.000142856
26 *1404:S *1557:A 0.000186669
27 *273:14 *1397:A1 0
28 *273:31 *1397:A1 0.000139907
29 *273:42 *1307:B 8.2226e-05
30 *273:42 *319:8 9.15621e-06
31 *273:50 *1393:A1 9.93135e-05
32 *273:50 *290:22 4.80521e-05
33 *273:54 *1552:A 0
34 *273:54 *292:33 0
35 *273:62 *1245:A 5.52238e-05
36 *273:62 *325:6 0.000363837
37 *1241:A *1391:S 0
38 *1241:A *1404:S 5.33005e-05
39 *1296:C *1391:S 0.000140933
40 *1296:D *273:14 0.000125241
41 *1306:A *1391:S 0.000186737
42 *1311:B *1391:S 4.88515e-05
43 *1311:C *1391:S 0.000534464
44 *1360:A1 *1404:S 8.9036e-05
45 *1360:A1 *273:14 5.62995e-05
46 *1360:A1 *273:31 0.000114723
47 *1360:A1 *273:38 0.00018077
48 *1361:A1 *273:42 1.31516e-05
49 *1361:A1 *273:50 0.000125918
50 *1391:A0 *1391:S 6.2198e-05
51 *1393:A0 *1393:S 2.59355e-05
52 *1393:A0 *273:50 0.00018372
53 *1394:A0 *1394:S 0.000225609
54 *1405:A1 *273:42 0.000474005
55 *1453:D *1393:S 7.90803e-05
56 *1453:D *273:54 0.000100823
57 *1454:RESET_B *273:62 0
58 *1457:RESET_B *273:14 9.41642e-05
59 *1462:RESET_B *273:50 0
60 *1464:RESET_B *273:42 6.26653e-05
61 *1464:RESET_B *273:50 6.31653e-05
62 *1472:A *1359:S 9.76689e-05
63 *1472:A *273:42 0
64 *1485:A *1404:S 0.000353086
65 *1485:A *273:31 0.00026347
66 *1485:A *273:38 0.000137983
67 *1504:A *1391:S 0.000303258
68 *1530:A *1391:S 0
69 *69:29 *1404:S 0.000131439
70 *118:12 *1391:S 9.69119e-06
71 *138:12 *1391:S 6.62983e-05
72 *181:12 *1393:S 3.90513e-05
73 *181:12 *273:54 3.92854e-05
74 *181:24 *273:62 0.000230482
75 *182:20 *1391:S 5.43661e-05
76 *182:20 *273:42 1.99921e-05
77 *182:26 *273:31 7.69776e-06
78 *187:8 *273:14 4.46186e-06
79 *201:44 *273:50 0.000132577
80 *244:10 *273:42 2.49484e-05
*RES
1 *1502:X *273:14 22.6571 
2 *273:14 *1360:S 9.3 
3 *273:14 *273:31 15.1429 
4 *273:31 *1397:S 9.3 
5 *273:31 *273:38 1.76786 
6 *273:38 *273:40 4.5 
7 *273:40 *273:42 7.71429 
8 *273:42 *273:50 22.1429 
9 *273:50 *273:54 8.26786 
10 *273:54 *273:62 21.75 
11 *273:62 *1394:S 11.4786 
12 *273:62 *1326:S 9.3 
13 *273:54 *1361:S 10.8 
14 *273:50 *1393:S 15.3714 
15 *273:42 *273:98 4.5 
16 *273:98 *1405:S 9.3 
17 *273:98 *1359:S 11.4786 
18 *273:40 *1391:S 30.4071 
19 *273:38 *1404:S 14.3536 
*END

*D_NET *274 0.000781827
*CONN
*I *1365:A0 I *D sky130_fd_sc_hd__mux2_1
*I *1562:X O *D sky130_fd_sc_hd__dlygate4sd3_1
*CAP
1 *1365:A0 6.76085e-05
2 *1562:X 6.76085e-05
3 *1365:A0 *1312:B1 0.000139913
4 *1365:A0 *1365:A1 5.71472e-05
5 *176:86 *1365:A0 0.000357952
6 *186:25 *1365:A0 4.88637e-05
7 *186:40 *1365:A0 4.27338e-05
*RES
1 *1562:X *1365:A0 22.0107 
*END

*D_NET *275 0.000907848
*CONN
*I *1396:A0 I *D sky130_fd_sc_hd__mux2_1
*I *1563:X O *D sky130_fd_sc_hd__dlygate4sd3_1
*CAP
1 *1396:A0 0.000364729
2 *1563:X 0.000364729
3 *1395:S *1396:A0 0.000170955
4 *1456:RESET_B *1396:A0 7.43578e-06
*RES
1 *1563:X *1396:A0 23.2429 
*END

*D_NET *276 0.00112619
*CONN
*I *1368:A1 I *D sky130_fd_sc_hd__mux2_1
*I *1564:X O *D sky130_fd_sc_hd__dlygate4sd3_1
*CAP
1 *1368:A1 0.000118943
2 *1564:X 0.000118943
3 *1368:A1 *1368:A0 0.000227532
4 *1368:A1 *1564:A 0.000484011
5 *1261:A *1368:A1 0.000101982
6 *1261:C *1368:A1 1.95435e-05
7 *176:86 *1368:A1 5.52302e-05
*RES
1 *1564:X *1368:A1 23.6536 
*END

*D_NET *277 0.000398209
*CONN
*I *1426:D I *D sky130_fd_sc_hd__dfrtp_1
*I *1565:X O *D sky130_fd_sc_hd__dlygate4sd3_1
*CAP
1 *1426:D 0.000108381
2 *1565:X 0.000108381
3 *1305:C1 *1426:D 5.33005e-05
4 *1387:S *1426:D 0
5 *1426:RESET_B *1426:D 0.000128146
*RES
1 *1565:X *1426:D 29.7786 
*END

*D_NET *278 0.000724417
*CONN
*I *1382:A0 I *D sky130_fd_sc_hd__mux2_1
*I *1566:X O *D sky130_fd_sc_hd__dlygate4sd3_1
*CAP
1 *1382:A0 0.000289822
2 *1566:X 0.000289822
3 *1279:A *1382:A0 0.000144773
4 *1379:A1 *1382:A0 0
5 *240:23 *1382:A0 0
*RES
1 *1566:X *1382:A0 32.4214 
*END

*D_NET *279 0.000639687
*CONN
*I *1381:A0 I *D sky130_fd_sc_hd__mux2_1
*I *1567:X O *D sky130_fd_sc_hd__dlygate4sd3_1
*CAP
1 *1381:A0 0.000217441
2 *1567:X 0.000217441
3 *1282:A *1381:A0 6.71755e-05
4 *1381:S *1381:A0 3.92854e-05
5 *262:36 *1381:A0 9.83442e-05
*RES
1 *1567:X *1381:A0 30.8143 
*END

*D_NET *280 0.0012585
*CONN
*I *1327:A1 I *D sky130_fd_sc_hd__mux2_1
*I *1568:X O *D sky130_fd_sc_hd__dlygate4sd3_1
*CAP
1 *1327:A1 0.000415045
2 *1568:X 0.000415045
3 *1327:A1 *1286:A2 1.46576e-05
4 *1327:A1 *1520:A 3.48705e-05
5 *1285:A1 *1327:A1 1.56e-05
6 *1286:B1 *1327:A1 0.000277922
7 *1327:A0 *1327:A1 5.33005e-05
8 *190:14 *1327:A1 3.20613e-05
*RES
1 *1568:X *1327:A1 24.6179 
*END

*D_NET *281 0.0248044
*CONN
*I *1293:A1 I *D sky130_fd_sc_hd__a22o_1
*I *1294:A1 I *D sky130_fd_sc_hd__o221a_1
*I *1239:A I *D sky130_fd_sc_hd__inv_2
*I *1315:A1 I *D sky130_fd_sc_hd__o221a_1
*I *1260:A1 I *D sky130_fd_sc_hd__o221a_1
*I *1304:A1 I *D sky130_fd_sc_hd__o221a_1
*I *1281:A1 I *D sky130_fd_sc_hd__o221a_1
*I *1380:A1 I *D sky130_fd_sc_hd__mux2_1
*I *1280:A1 I *D sky130_fd_sc_hd__a22o_1
*I *1341:B2 I *D sky130_fd_sc_hd__o32a_1
*I *1409:Q O *D sky130_fd_sc_hd__dfrtp_4
*CAP
1 *1293:A1 0.000342008
2 *1294:A1 0
3 *1239:A 0.000146323
4 *1315:A1 0.000459209
5 *1260:A1 0.000376091
6 *1304:A1 0
7 *1281:A1 0
8 *1380:A1 0.000545637
9 *1280:A1 0
10 *1341:B2 0.000749629
11 *1409:Q 0
12 *281:154 0.00038099
13 *281:139 0.00230038
14 *281:107 0.00118352
15 *281:98 0.00117776
16 *281:66 0.000735645
17 *281:49 0.00138125
18 *281:33 0.00318727
19 *281:23 0.00342349
20 *281:6 0.000891559
21 *1239:A *1294:C1 0
22 *1260:A1 *305:10 5.10822e-05
23 *1260:A1 *305:16 3.69697e-05
24 *281:23 *1284:B 0.00015304
25 *281:33 *1284:B 0
26 *281:33 *1525:A 0.00012401
27 *281:33 *301:10 0
28 *281:98 *1252:A 0.000214335
29 *281:98 *1303:B1 0.000275087
30 *281:98 *302:21 8.98585e-05
31 *281:98 *302:32 0.000186304
32 *281:139 *1328:A1 0.000271985
33 *281:139 *293:10 0
34 *281:139 *293:19 0
35 *1256:A *1260:A1 0
36 *1260:B2 *1260:A1 4.1331e-06
37 *1261:B *1260:A1 2.39779e-05
38 *1261:C *1260:A1 0.000170661
39 *1278:A *1260:A1 1.00375e-05
40 *1280:A2 *281:66 9.58181e-05
41 *1280:B2 *281:66 6.11292e-05
42 *1281:B1 *1380:A1 1.32552e-05
43 *1281:B1 *281:66 5.33005e-05
44 *1281:B2 *1380:A1 0.00014285
45 *1281:B2 *281:66 1.10868e-05
46 *1284:A *281:23 5.26091e-05
47 *1294:A2 *1293:A1 0.000324613
48 *1296:D *1239:A 0.000146049
49 *1296:D *281:154 1.65337e-05
50 *1300:A_N *281:49 9.90431e-05
51 *1300:C *281:49 2.09897e-05
52 *1304:A2 *281:98 0
53 *1304:B1 *281:98 0
54 *1305:C1 *281:107 0.000236746
55 *1315:B1 *1315:A1 3.18676e-05
56 *1315:B2 *1315:A1 1.79687e-05
57 *1317:A *281:49 3.99614e-06
58 *1320:A_N *281:139 0.000420293
59 *1341:A1 *1341:B2 3.99614e-06
60 *1341:A3 *1341:B2 3.48705e-05
61 *1341:B1 *1341:B2 0.0001616
62 *1360:A0 *1293:A1 1.33343e-05
63 *1374:A0 *281:98 0.000104236
64 *1380:A0 *1380:A1 3.48705e-05
65 *1380:S *1380:A1 0.000189753
66 *1407:D *281:33 0.000127439
67 *1408:CLK *281:33 7.77751e-05
68 *1408:D *1341:B2 2.02508e-05
69 *1408:D *281:33 0
70 *1435:RESET_B *281:33 0
71 *1465:D *281:33 0
72 *1492:A *281:139 0
73 *1494:A *1260:A1 0
74 *1494:A *1315:A1 0.000102197
75 *1521:A *281:23 0
76 *1565:A *1260:A1 0
77 *71:16 *1293:A1 1.21258e-05
78 *77:12 *1380:A1 1.76135e-05
79 *146:56 *1341:B2 7.03295e-05
80 *176:18 *281:33 3.59438e-05
81 *176:18 *281:139 3.00093e-05
82 *176:28 *281:33 0.000150613
83 *180:64 *281:98 0
84 *183:8 *1315:A1 3.80385e-05
85 *183:22 *1260:A1 0
86 *188:42 *1260:A1 0
87 *189:12 *281:154 1.035e-05
88 *189:18 *1293:A1 5.14635e-05
89 *189:77 *281:49 0.000598455
90 *189:77 *281:66 2.57017e-05
91 *190:14 *281:139 4.03318e-05
92 *190:96 *281:98 0
93 *192:81 *1239:A 5.03772e-05
94 *194:64 *281:98 0
95 *194:74 *281:98 0.000142856
96 *197:12 *1341:B2 0.000105979
97 *197:12 *281:23 1.19309e-05
98 *197:24 *281:23 0
99 *198:20 *281:33 0
100 *198:32 *281:33 0
101 *198:44 *1341:B2 0.000148851
102 *198:44 *281:23 8.21706e-05
103 *199:6 *281:107 0.000399841
104 *199:30 *281:98 1.99131e-05
105 *199:30 *281:107 0.000209219
106 *200:35 *281:98 0
107 *204:27 *281:139 0.000269183
108 *229:36 *1380:A1 7.6644e-05
109 *245:12 *281:33 0
110 *245:12 *281:98 0
111 *251:10 *281:98 4.06782e-05
112 *262:10 *281:33 0.000323392
113 *262:87 *281:33 0.000196815
114 *262:87 *281:98 0.000134815
*RES
1 *1409:Q *281:6 13.8 
2 *281:6 *1341:B2 25.925 
3 *281:6 *281:23 8.57143 
4 *281:23 *281:33 25.5625 
5 *281:33 *281:49 23.8874 
6 *281:49 *1280:A1 9.3 
7 *281:49 *281:66 4.125 
8 *281:66 *1380:A1 27.0143 
9 *281:66 *1281:A1 9.3 
10 *281:33 *281:98 22.1696 
11 *281:98 *1304:A1 9.3 
12 *281:98 *281:107 9.48214 
13 *281:107 *1260:A1 25.4071 
14 *281:107 *1315:A1 17.1393 
15 *281:23 *281:139 27.3275 
16 *281:139 *1239:A 17.1482 
17 *281:139 *281:154 5.08036 
18 *281:154 *1294:A1 9.3 
19 *281:154 *1293:A1 14.9429 
*END

*D_NET *282 0.00470596
*CONN
*I *1491:A I *D sky130_fd_sc_hd__dlymetal6s2s_1
*I *1490:A I *D sky130_fd_sc_hd__buf_2
*I *1410:Q O *D sky130_fd_sc_hd__dfrtp_1
*CAP
1 *1491:A 0.0010687
2 *1490:A 0.000265795
3 *1410:Q 0.000297592
4 *282:10 0.00163208
5 *1491:A *1285:A2 0.000145286
6 *1491:A *1525:A 5.71472e-05
7 *1491:A *294:10 3.3785e-05
8 *1407:CLK *1491:A 0.00022459
9 *1408:CLK *1490:A 0.000228558
10 *1410:CLK *282:10 2.89016e-05
11 *1410:RESET_B *282:10 8.53409e-05
12 *1465:D *1491:A 7.60306e-05
13 *178:8 *282:10 0
14 *178:56 *282:10 0
15 *178:69 *1491:A 0
16 *178:84 *1491:A 0
17 *195:14 *1491:A 0.000363896
18 *198:20 *1491:A 8.0249e-05
19 *198:32 *1491:A 6.76365e-05
20 *198:32 *282:10 5.03694e-05
*RES
1 *1410:Q *282:10 18.3357 
2 *282:10 *1490:A 18.8536 
3 *282:10 *1491:A 32.2821 
*END

*D_NET *283 0.000226934
*CONN
*I *1489:A I *D sky130_fd_sc_hd__buf_2
*I *1411:Q O *D sky130_fd_sc_hd__dfrtp_1
*CAP
1 *1489:A 5.48131e-05
2 *1411:Q 5.48131e-05
3 *193:8 *1489:A 1.92905e-05
4 *197:79 *1489:A 9.80173e-05
*RES
1 *1411:Q *1489:A 19.975 
*END

*D_NET *284 0.000317773
*CONN
*I *1319:B I *D sky130_fd_sc_hd__or2_2
*I *1320:X O *D sky130_fd_sc_hd__and2b_1
*CAP
1 *1319:B 0.000103701
2 *1320:X 0.000103701
3 *1460:CLK *1319:B 0.000104974
4 *146:12 *1319:B 0
5 *146:23 *1319:B 5.39629e-06
*RES
1 *1320:X *1319:B 29.475 
*END

*D_NET *285 0.00586632
*CONN
*I *1399:A I *D sky130_fd_sc_hd__and3_1
*I *1330:A I *D sky130_fd_sc_hd__nor2_1
*I *1333:A1 I *D sky130_fd_sc_hd__a21oi_1
*I *1339:A1 I *D sky130_fd_sc_hd__a22o_1
*I *1345:A1 I *D sky130_fd_sc_hd__a211o_1
*I *1246:A I *D sky130_fd_sc_hd__inv_2
*I *1331:A I *D sky130_fd_sc_hd__nor2_1
*I *1400:A1 I *D sky130_fd_sc_hd__a21oi_1
*I *1459:Q O *D sky130_fd_sc_hd__dfrtp_4
*CAP
1 *1399:A 0.000104974
2 *1330:A 0
3 *1333:A1 0.000354075
4 *1339:A1 0.000112879
5 *1345:A1 1.24159e-05
6 *1246:A 0.000132261
7 *1331:A 2.90796e-05
8 *1400:A1 0
9 *1459:Q 0.000169146
10 *285:83 0.000495882
11 *285:64 0.000306826
12 *285:35 0.000211167
13 *285:33 0.000244719
14 *285:27 0.000406103
15 *285:21 0.000478376
16 *285:10 0.000371062
17 *1331:A *1331:B 3.57366e-05
18 *1331:A *287:24 6.5647e-05
19 *1399:A *1399:B 3.67257e-05
20 *1399:A *286:27 2.95726e-05
21 *285:10 *286:10 5.33978e-05
22 *285:21 *1338:A1 0
23 *285:21 *286:10 3.07555e-05
24 *285:21 *286:21 6.9253e-05
25 *285:21 *286:27 4.04969e-05
26 *285:21 *286:46 4.6025e-06
27 *285:21 *287:16 0
28 *285:27 *1338:A1 5.52302e-05
29 *285:27 *286:27 5.03772e-05
30 *285:33 *287:16 0
31 *285:33 *287:20 0.000346541
32 *285:35 *287:20 1.24368e-05
33 *285:35 *287:24 0.000259934
34 *1334:B *1246:A 0
35 *1338:B1 *285:33 0.000193374
36 *1338:B1 *285:35 4.58976e-05
37 *1338:B1 *285:64 9.71123e-06
38 *1339:A2 *1339:A1 2.08721e-05
39 *1339:A2 *285:33 1.76135e-05
40 *1339:A2 *285:64 1.01075e-05
41 *1339:B1 *1339:A1 1.1147e-05
42 *1339:B2 *285:27 2.89114e-05
43 *1340:B *1399:A 6.05161e-06
44 *1340:B *285:27 9.89883e-05
45 *1340:B *285:83 0
46 *1341:A1 *1333:A1 6.75805e-05
47 *1341:A1 *285:83 0.000140933
48 *1341:A2 *1333:A1 7.52646e-06
49 *1345:A2 *285:33 0.00010096
50 *1345:B1 *1331:A 0
51 *1345:B1 *1345:A1 5.7661e-06
52 *1401:A *1399:A 0
53 *1459:CLK *285:33 6.12813e-05
54 *1459:CLK *285:64 1.30572e-05
55 *1459:CLK *285:83 3.84385e-05
56 *1459:RESET_B *285:10 0.000229456
57 *147:29 *1331:A 2.89016e-05
58 *147:29 *285:35 0.000102207
59 *151:8 *1333:A1 0.000107865
*RES
1 *1459:Q *285:10 17.3179 
2 *285:10 *1400:A1 13.8 
3 *285:10 *285:21 7.96429 
4 *285:21 *285:27 8.33929 
5 *285:27 *285:33 10.7679 
6 *285:33 *285:35 2.58929 
7 *285:35 *1331:A 10.2643 
8 *285:35 *1246:A 20.2464 
9 *285:33 *1345:A1 9.72857 
10 *285:27 *285:64 1.03571 
11 *285:64 *1339:A1 15.7107 
12 *285:64 *285:83 7.5 
13 *285:83 *1333:A1 13.8536 
14 *285:83 *1330:A 9.3 
15 *285:21 *1399:A 11.4964 
*END

*D_NET *286 0.00700612
*CONN
*I *1399:B I *D sky130_fd_sc_hd__and3_1
*I *1248:A I *D sky130_fd_sc_hd__inv_2
*I *1329:B I *D sky130_fd_sc_hd__nor2_1
*I *1343:A2 I *D sky130_fd_sc_hd__a22o_1
*I *1353:A I *D sky130_fd_sc_hd__nor2_1
*I *1349:B1 I *D sky130_fd_sc_hd__o21a_1
*I *1338:A2 I *D sky130_fd_sc_hd__a21o_1
*I *1400:B1 I *D sky130_fd_sc_hd__a21oi_1
*I *1460:Q O *D sky130_fd_sc_hd__dfrtp_4
*CAP
1 *1399:B 0.000125976
2 *1248:A 0
3 *1329:B 0
4 *1343:A2 2.00304e-05
5 *1353:A 0.000151439
6 *1349:B1 0.000110163
7 *1338:A2 0
8 *1400:B1 0
9 *1460:Q 0.000234777
10 *286:68 0.000451895
11 *286:66 0.00031077
12 *286:58 0.000298685
13 *286:46 0.000771514
14 *286:27 0.000747361
15 *286:21 0.000403387
16 *286:10 0.000338103
17 *1349:B1 *289:34 0
18 *1349:B1 *289:41 0
19 *286:27 *1338:A1 4.08629e-05
20 *286:46 *1344:A 1.94945e-05
21 *1329:A *286:66 7.83366e-05
22 *1332:A *286:58 1.33343e-05
23 *1332:B *286:46 0.000161433
24 *1333:B1 *286:58 5.17614e-05
25 *1339:B1 *286:58 0.00024487
26 *1341:A2 *286:58 5.06983e-05
27 *1342:B *286:58 6.42242e-05
28 *1342:B *286:66 0.000126446
29 *1343:B2 *286:68 5.49489e-05
30 *1345:C1 *286:46 1.0562e-05
31 *1345:C1 *286:58 0
32 *1347:A3 *1353:A 0.000142152
33 *1348:A2_N *286:58 0.000155877
34 *1353:B *1353:A 0.000321931
35 *1398:B *1353:A 0.000293415
36 *1399:A *1399:B 3.67257e-05
37 *1399:A *286:27 2.95726e-05
38 *1459:RESET_B *286:10 0.000274294
39 *146:52 *1399:B 1.72894e-05
40 *146:94 *1353:A 4.90803e-05
41 *146:127 *1353:A 1.21258e-05
42 *148:21 *1349:B1 1.59373e-05
43 *150:21 *286:58 5.33005e-05
44 *150:38 *286:58 9.71197e-05
45 *152:20 *1343:A2 9.96411e-06
46 *152:20 *1349:B1 7.43578e-06
47 *152:20 *286:58 1.04232e-05
48 *152:20 *286:66 3.01392e-05
49 *152:20 *286:68 0.000146579
50 *152:28 *1349:B1 4.87953e-05
51 *155:19 *1353:A 0.00012401
52 *285:10 *286:10 5.33978e-05
53 *285:21 *286:10 3.07555e-05
54 *285:21 *286:21 6.9253e-05
55 *285:21 *286:27 4.04969e-05
56 *285:21 *286:46 4.6025e-06
57 *285:27 *286:27 5.03772e-05
*RES
1 *1460:Q *286:10 18.9429 
2 *286:10 *1400:B1 13.8 
3 *286:10 *286:21 6.44643 
4 *286:21 *286:27 7.30357 
5 *286:27 *1338:A2 13.8 
6 *286:27 *286:46 13.0016 
7 *286:46 *286:58 15.3214 
8 *286:58 *286:66 11.4821 
9 *286:66 *286:68 3.41071 
10 *286:68 *1349:B1 11.0857 
11 *286:68 *1353:A 24.3357 
12 *286:66 *1343:A2 9.72857 
13 *286:58 *1329:B 9.3 
14 *286:46 *1248:A 9.3 
15 *286:21 *1399:B 11.0679 
*END

*D_NET *287 0.00729236
*CONN
*I *1338:A1 I *D sky130_fd_sc_hd__a21o_1
*I *1247:A I *D sky130_fd_sc_hd__inv_2
*I *1344:A I *D sky130_fd_sc_hd__nor2_1
*I *1331:B I *D sky130_fd_sc_hd__nor2_1
*I *1337:A2 I *D sky130_fd_sc_hd__a211o_1
*I *1351:A I *D sky130_fd_sc_hd__nand2_1
*I *1461:Q O *D sky130_fd_sc_hd__dfrtp_2
*CAP
1 *1338:A1 8.38078e-05
2 *1247:A 0
3 *1344:A 0.000233927
4 *1331:B 2.43968e-05
5 *1337:A2 2.05251e-05
6 *1351:A 0.000452509
7 *1461:Q 0.00024494
8 *287:26 0.000595758
9 *287:24 0.000399711
10 *287:20 0.000857436
11 *287:16 0.000440301
12 *287:12 0.00039813
13 *1337:A2 *1337:B1 3.99614e-06
14 *1351:A *1337:B1 2.37369e-05
15 *1351:A *1337:C1 4.73286e-05
16 *1351:A *288:10 1.88048e-05
17 *1351:A *288:14 0.000123836
18 *1351:A *288:30 3.52562e-05
19 *1351:A *288:41 2.28428e-05
20 *1249:A *1351:A 9.90431e-05
21 *1331:A *1331:B 3.57366e-05
22 *1331:A *287:24 6.5647e-05
23 *1332:B *1344:A 8.18848e-05
24 *1333:B1 *1344:A 5.01213e-05
25 *1338:B1 *1338:A1 0.000140885
26 *1338:B1 *287:16 5.59013e-05
27 *1338:B1 *287:20 5.23057e-05
28 *1339:B2 *1344:A 7.79395e-05
29 *1340:B *1338:A1 2.89114e-05
30 *1342:A *287:26 0.000143652
31 *1345:A2 *1344:A 4.75521e-05
32 *1345:B1 *1331:B 0
33 *1345:C1 *1344:A 8.81618e-05
34 *1398:B *1351:A 1.24368e-05
35 *1398:B *287:26 0.000213384
36 *1400:A2 *287:12 0.000109856
37 *1400:A2 *287:20 1.3701e-05
38 *1401:B *287:12 0.00040279
39 *1402:A *287:12 0.000331135
40 *1402:B *287:12 9.90367e-05
41 *1459:CLK *1344:A 0
42 *11:29 *1351:A 0.00010884
43 *75:10 *287:12 6.56534e-05
44 *75:10 *287:20 1.32552e-05
45 *147:29 *1331:B 5.65357e-05
46 *147:29 *1351:A 2.97829e-05
47 *147:29 *287:24 1.21289e-05
48 *147:29 *287:26 9.43439e-05
49 *285:21 *1338:A1 0
50 *285:21 *287:16 0
51 *285:27 *1338:A1 5.52302e-05
52 *285:33 *287:16 0
53 *285:33 *287:20 0.000346541
54 *285:35 *287:20 1.24368e-05
55 *285:35 *287:24 0.000259934
56 *286:27 *1338:A1 4.08629e-05
57 *286:46 *1344:A 1.94945e-05
*RES
1 *1461:Q *287:12 21.05 
2 *287:12 *287:16 5.53571 
3 *287:16 *287:20 5.78571 
4 *287:20 *287:24 3.83929 
5 *287:24 *287:26 3.82143 
6 *287:26 *1351:A 27.3357 
7 *287:26 *1337:A2 9.72857 
8 *287:24 *1331:B 10.4071 
9 *287:20 *1344:A 23.8893 
10 *287:16 *1247:A 9.3 
11 *287:12 *1338:A1 16.2821 
*END

*D_NET *288 0.00366035
*CONN
*I *1336:C1 I *D sky130_fd_sc_hd__o211a_1
*I *1335:B1 I *D sky130_fd_sc_hd__o21ai_1
*I *1352:B1 I *D sky130_fd_sc_hd__a32o_1
*I *1346:B I *D sky130_fd_sc_hd__nand2_1
*I *1350:B I *D sky130_fd_sc_hd__or4_1
*I *1337:C1 I *D sky130_fd_sc_hd__a211o_1
*I *1536:A I *D sky130_fd_sc_hd__dlygate4sd3_1
*I *1412:Q O *D sky130_fd_sc_hd__dfrtp_2
*CAP
1 *1336:C1 7.88545e-05
2 *1335:B1 0
3 *1352:B1 1.11927e-05
4 *1346:B 0.000118328
5 *1350:B 0
6 *1337:C1 2.93154e-05
7 *1536:A 0
8 *1412:Q 0.000367758
9 *288:45 0.000161743
10 *288:43 5.48461e-05
11 *288:41 0.000274195
12 *288:30 0.000266423
13 *288:14 7.06711e-05
14 *288:10 0.00050282
15 *1337:C1 *1337:B1 0.000135002
16 *1346:B *1346:A 0.000311995
17 *288:14 *1337:B1 0.000228937
18 *288:41 *1336:B1 0
19 *288:41 *1346:A 1.52978e-05
20 *288:41 *289:47 7.60306e-05
21 *288:45 *1346:A 0.000120943
22 *288:45 *1352:B2 5.52238e-05
23 *1335:A1 *288:41 1.76039e-05
24 *1335:A2 *1336:C1 0.000112627
25 *1335:A2 *1352:B1 0
26 *1336:A2 *1336:C1 5.96135e-06
27 *1350:C *288:41 0.000127446
28 *1351:A *1337:C1 4.73286e-05
29 *1351:A *288:10 1.88048e-05
30 *1351:A *288:14 0.000123836
31 *1351:A *288:30 3.52562e-05
32 *1351:A *288:41 2.28428e-05
33 *1352:A1 *1346:B 3.14592e-05
34 *1352:A1 *288:45 3.64465e-05
35 *1352:A2 *288:41 0
36 *1412:D *288:10 3.67142e-05
37 *11:29 *288:10 0
38 *152:28 *288:41 0
39 *152:39 *1336:C1 0.000106638
40 *155:10 *288:10 0
41 *155:10 *288:30 0
42 *155:10 *288:41 0
43 *166:12 *1336:C1 6.05161e-06
44 *166:12 *288:43 2.89016e-05
45 *166:12 *288:45 2.28598e-05
*RES
1 *1412:Q *288:10 18.7464 
2 *288:10 *288:14 6.67857 
3 *288:14 *1536:A 9.3 
4 *288:14 *1337:C1 10.675 
5 *288:10 *288:30 1.64286 
6 *288:30 *1350:B 13.8 
7 *288:30 *288:41 7.96429 
8 *288:41 *288:43 0.535714 
9 *288:43 *288:45 1.5625 
10 *288:45 *1346:B 12.5232 
11 *288:45 *1352:B1 9.72857 
12 *288:43 *1335:B1 9.3 
13 *288:41 *1336:C1 12.3357 
*END

*D_NET *289 0.00539657
*CONN
*I *1337:B1 I *D sky130_fd_sc_hd__a211o_1
*I *1351:B I *D sky130_fd_sc_hd__nand2_1
*I *1336:B1 I *D sky130_fd_sc_hd__o211a_1
*I *1346:A I *D sky130_fd_sc_hd__nand2_1
*I *1352:B2 I *D sky130_fd_sc_hd__a32o_1
*I *1350:A I *D sky130_fd_sc_hd__or4_1
*I *1323:A I *D sky130_fd_sc_hd__nand2_1
*I *1322:A I *D sky130_fd_sc_hd__or2_1
*I *1413:Q O *D sky130_fd_sc_hd__dfrtp_2
*CAP
1 *1337:B1 0.000191341
2 *1351:B 0
3 *1336:B1 0.000214455
4 *1346:A 0.000182122
5 *1352:B2 1.40568e-05
6 *1350:A 0
7 *1323:A 0
8 *1322:A 0.000106744
9 *1413:Q 0
10 *289:47 0.000332313
11 *289:41 0.000369711
12 *289:34 0.000109952
13 *289:28 0.000113428
14 *289:21 4.12358e-05
15 *289:10 0.000224223
16 *289:4 0.000290181
17 *1249:A *1337:B1 7.61932e-05
18 *1322:B *1322:A 5.52238e-05
19 *1324:B *1322:A 3.48705e-05
20 *1335:A1 *1336:B1 3.4846e-06
21 *1337:A2 *1337:B1 3.99614e-06
22 *1337:C1 *1337:B1 0.000135002
23 *1346:B *1346:A 0.000311995
24 *1349:B1 *289:34 0
25 *1349:B1 *289:41 0
26 *1350:C *1336:B1 0
27 *1350:D *1336:B1 5.65955e-05
28 *1351:A *1337:B1 2.37369e-05
29 *1352:A1 *1352:B2 2.89016e-05
30 *1352:A2 *289:10 5.41794e-05
31 *1352:A2 *289:28 1.54142e-05
32 *1352:A2 *289:34 0.000139913
33 *1352:A2 *289:47 0
34 *1352:A3 *1322:A 1.33343e-05
35 *1352:A3 *289:21 1.98839e-05
36 *1352:A3 *289:28 5.33433e-05
37 *1352:A3 *289:34 1.74352e-05
38 *1352:A3 *289:47 0
39 *11:29 *1322:A 2.42554e-05
40 *11:29 *289:10 3.4323e-05
41 *11:29 *289:21 5.33005e-05
42 *11:29 *289:28 4.08637e-05
43 *11:29 *289:34 0
44 *147:29 *1337:B1 0.000699134
45 *148:21 *1336:B1 5.90825e-05
46 *148:21 *289:34 7.22199e-05
47 *152:28 *1336:B1 6.93944e-05
48 *166:12 *1346:A 0.000443648
49 *197:93 *1346:A 0
50 *197:93 *289:10 0.000170654
51 *288:14 *1337:B1 0.000228937
52 *288:41 *1336:B1 0
53 *288:41 *1346:A 1.52978e-05
54 *288:41 *289:47 7.60306e-05
55 *288:45 *1346:A 0.000120943
56 *288:45 *1352:B2 5.52238e-05
*RES
1 *1413:Q *289:4 9.3 
2 *289:4 *289:10 11.25 
3 *289:10 *1322:A 11.4964 
4 *289:10 *289:21 0.535714 
5 *289:21 *1323:A 9.3 
6 *289:21 *289:28 0.946429 
7 *289:28 *289:34 3.03571 
8 *289:34 *1350:A 9.3 
9 *289:34 *289:41 0.428571 
10 *289:41 *289:47 7.39286 
11 *289:47 *1352:B2 14.3357 
12 *289:47 *1346:A 19.9071 
13 *289:41 *1336:B1 22.425 
14 *289:28 *1351:B 9.3 
15 *289:4 *1337:B1 16.7286 
*END

*D_NET *290 0.00736779
*CONN
*I *1359:A0 I *D sky130_fd_sc_hd__mux2_1
*I *1273:A2_N I *D sky130_fd_sc_hd__o2bb2a_1
*I *1276:A2 I *D sky130_fd_sc_hd__o221a_1
*I *1326:A1 I *D sky130_fd_sc_hd__mux2_1
*I *1417:Q O *D sky130_fd_sc_hd__dfrtp_1
*CAP
1 *1359:A0 9.18879e-05
2 *1273:A2_N 0.000173286
3 *1276:A2 3.66639e-05
4 *1326:A1 0.00023877
5 *1417:Q 0
6 *290:28 0.000441411
7 *290:22 0.00180846
8 *290:4 0.00156108
9 *1273:A2_N *1276:C1 6.8646e-06
10 *1276:A2 *1276:C1 1.52978e-05
11 *1326:A1 *1276:C1 6.16744e-05
12 *1326:A1 *1394:A1 0.000116029
13 *1326:A1 *324:19 0.000111536
14 *1359:A0 *1243:A 4.03318e-05
15 *1359:A0 *322:12 0.000149904
16 *290:22 *1276:C1 2.56601e-05
17 *290:22 *1393:A1 0.000236039
18 *290:22 *1505:A 0.000149489
19 *290:28 *1276:C1 9.71197e-05
20 *1276:A1 *1273:A2_N 0.000372958
21 *1276:A1 *290:28 3.30352e-05
22 *1326:A0 *1326:A1 0
23 *1328:A0 *1276:A2 0
24 *1393:A0 *290:22 4.22736e-05
25 *1393:S *290:22 2.59355e-05
26 *1394:A0 *1326:A1 0.000258173
27 *1406:CLK *1326:A1 6.42242e-05
28 *1464:RESET_B *1359:A0 0
29 *1516:A *1326:A1 5.52302e-05
30 *176:60 *290:28 9.99644e-06
31 *181:18 *1326:A1 1.21258e-05
32 *181:24 *1326:A1 2.12933e-05
33 *182:76 *1359:A0 0
34 *191:10 *1273:A2_N 5.83304e-05
35 *201:32 *290:22 0
36 *201:44 *290:22 0.000426435
37 *201:78 *1273:A2_N 0.000501585
38 *201:78 *290:22 7.6644e-05
39 *273:50 *290:22 4.80521e-05
*RES
1 *1417:Q *290:4 9.3 
2 *290:4 *290:22 26.2143 
3 *290:22 *290:28 11.1786 
4 *290:28 *1326:A1 20.7643 
5 *290:28 *1276:A2 14.5321 
6 *290:22 *1273:A2_N 20.3 
7 *290:4 *1359:A0 20.55 
*END

*D_NET *291 0.00327624
*CONN
*I *1244:A I *D sky130_fd_sc_hd__inv_2
*I *1560:A I *D sky130_fd_sc_hd__dlygate4sd3_1
*I *1273:B1 I *D sky130_fd_sc_hd__o2bb2a_1
*I *1568:A I *D sky130_fd_sc_hd__dlygate4sd3_1
*I *1418:Q O *D sky130_fd_sc_hd__dfrtp_1
*CAP
1 *1244:A 9.9791e-05
2 *1560:A 5.56048e-06
3 *1273:B1 0
4 *1568:A 0.000362622
5 *1418:Q 0
6 *291:31 0.00025086
7 *291:21 0.00043082
8 *291:4 0.000448352
9 *1568:A *1287:A2 1.21258e-05
10 *1273:A1_N *291:31 2.70944e-05
11 *1274:A *1568:A 5.58941e-05
12 *1277:A2 *1244:A 0.000190185
13 *1277:A2 *291:31 0.000122751
14 *1277:B1 *291:31 2.79421e-05
15 *1277:C1 *1568:A 0
16 *1277:C1 *291:31 3.23658e-05
17 *1287:A1 *1568:A 5.33005e-05
18 *1287:B1 *1568:A 0.000103267
19 *1287:C1 *1568:A 7.2091e-05
20 *1296:B *1568:A 8.27184e-06
21 *1487:A *1244:A 9.65091e-05
22 *1487:A *291:31 4.04618e-05
23 *189:18 *1560:A 5.71472e-05
24 *189:18 *291:31 5.71472e-05
25 *190:46 *1244:A 2.46999e-05
26 *190:46 *291:31 0
27 *192:53 *1568:A 0.000260256
28 *195:56 *1560:A 4.38128e-05
29 *195:56 *291:31 0.000392911
*RES
1 *1418:Q *291:4 9.3 
2 *291:4 *1568:A 24.55 
3 *291:4 *291:21 5.44643 
4 *291:21 *291:31 10.9286 
5 *291:31 *1273:B1 9.3 
6 *291:31 *1560:A 9.83571 
7 *291:21 *1244:A 17.2643 
*END

*D_NET *292 0.00691221
*CONN
*I *1275:B I *D sky130_fd_sc_hd__nor2_1
*I *1274:B I *D sky130_fd_sc_hd__and2_1
*I *1328:A1 I *D sky130_fd_sc_hd__mux2_1
*I *1552:A I *D sky130_fd_sc_hd__dlygate4sd3_1
*I *1419:Q O *D sky130_fd_sc_hd__dfrtp_1
*CAP
1 *1275:B 0
2 *1274:B 0
3 *1328:A1 0.000313177
4 *1552:A 0.000239206
5 *1419:Q 4.16687e-05
6 *292:45 0.000617489
7 *292:33 0.0010303
8 *292:8 0.00100686
9 *1328:A1 *1276:C1 3.57366e-05
10 *292:33 *1294:C1 0
11 *292:33 *1393:A1 0
12 *292:45 *1520:A 0.000212672
13 *1274:A *292:45 0.00015234
14 *1276:B2 *292:33 1.98839e-05
15 *1276:B2 *292:45 0.000158902
16 *1277:C1 *292:45 0
17 *1326:A0 *1328:A1 0.000105163
18 *1328:A0 *292:45 0.000127446
19 *1328:S *1328:A1 0.000149911
20 *1361:A0 *1552:A 0.000188586
21 *1361:A1 *1552:A 0.000449546
22 *1418:CLK *292:33 0
23 *1419:CLK *292:33 0
24 *1453:D *292:33 8.55687e-05
25 *1453:RESET_B *292:8 2.89016e-05
26 *1472:A *292:33 4.18895e-05
27 *1506:A *292:33 6.42242e-05
28 *176:18 *1328:A1 0.000320113
29 *176:60 *1328:A1 7.32955e-05
30 *176:60 *292:33 0.000753293
31 *181:12 *292:33 0
32 *192:70 *292:33 1.58163e-05
33 *192:70 *292:45 8.5232e-05
34 *197:24 *1328:A1 0.000149911
35 *201:44 *292:33 0
36 *201:78 *292:33 0.00017309
37 *273:54 *1552:A 0
38 *273:54 *292:33 0
39 *281:139 *1328:A1 0.000271985
*RES
1 *1419:Q *292:8 14.3357 
2 *292:8 *1552:A 19.9786 
3 *292:8 *292:33 29.6964 
4 *292:33 *292:45 16.9643 
5 *292:45 *1328:A1 28.6214 
6 *292:45 *1274:B 9.3 
7 *292:33 *1275:B 9.3 
*END

*D_NET *293 0.00202583
*CONN
*I *1285:A2 I *D sky130_fd_sc_hd__o22ai_1
*I *1286:A2 I *D sky130_fd_sc_hd__a221o_1
*I *1515:A I *D sky130_fd_sc_hd__dlygate4sd3_1
*I *1406:Q O *D sky130_fd_sc_hd__dfrtp_1
*CAP
1 *1285:A2 0.000302754
2 *1286:A2 4.66209e-06
3 *1515:A 0
4 *1406:Q 0.000233429
5 *293:19 0.000439366
6 *293:10 0.000365379
7 *1286:B2 *293:10 5.52238e-05
8 *1327:A1 *1286:A2 1.46576e-05
9 *1328:A0 *293:10 5.61338e-05
10 *1491:A *1285:A2 0.000145286
11 *1492:A *1285:A2 6.9253e-05
12 *1492:A *293:10 7.50697e-05
13 *1492:A *293:19 8.24047e-05
14 *190:14 *1285:A2 0.00012401
15 *190:14 *1286:A2 1.46576e-05
16 *195:14 *1285:A2 4.35452e-05
17 *281:139 *293:10 0
18 *281:139 *293:19 0
*RES
1 *1406:Q *293:10 17.5143 
2 *293:10 *1515:A 13.8 
3 *293:10 *293:19 2.25 
4 *293:19 *1286:A2 13.9473 
5 *293:19 *1285:A2 18.7464 
*END

*D_NET *294 0.00261639
*CONN
*I *1558:A I *D sky130_fd_sc_hd__dlygate4sd3_1
*I *1283:B I *D sky130_fd_sc_hd__or2_1
*I *1284:B I *D sky130_fd_sc_hd__nand2_1
*I *1407:Q O *D sky130_fd_sc_hd__dfrtp_1
*CAP
1 *1558:A 0.000242796
2 *1283:B 0
3 *1284:B 0.000246158
4 *1407:Q 0
5 *294:10 0.000709871
6 *294:4 0.000706509
7 *1558:A *1287:A2 0.000125731
8 *1284:A *1284:B 0
9 *1287:B1 *1558:A 8.75403e-05
10 *1407:RESET_B *294:10 8.94203e-05
11 *1408:D *1284:B 0
12 *1491:A *294:10 3.3785e-05
13 *1492:A *1558:A 0.000125731
14 *176:28 *1284:B 0
15 *176:28 *294:10 0
16 *195:14 *1284:B 0
17 *195:14 *1558:A 7.25875e-05
18 *195:14 *294:10 1.39711e-05
19 *198:20 *294:10 0
20 *198:44 *1284:B 9.25014e-06
21 *262:119 *294:10 0
22 *281:23 *1284:B 0.00015304
23 *281:33 *1284:B 0
*RES
1 *1407:Q *294:4 9.3 
2 *294:4 *294:10 11.2679 
3 *294:10 *1284:B 18.4786 
4 *294:10 *1283:B 13.8 
5 *294:4 *1558:A 22.5321 
*END

*D_NET *295 0.00415191
*CONN
*I *1287:A2 I *D sky130_fd_sc_hd__a211o_1
*I *1285:B1 I *D sky130_fd_sc_hd__o22ai_1
*I *1520:A I *D sky130_fd_sc_hd__dlygate4sd3_1
*I *1408:Q O *D sky130_fd_sc_hd__dfrtp_1
*CAP
1 *1287:A2 0.000464322
2 *1285:B1 0
3 *1520:A 0.000359566
4 *1408:Q 8.18759e-05
5 *295:23 0.00054402
6 *295:8 0.00052114
7 *1242:A *1287:A2 9.25014e-06
8 *1274:A *1520:A 9.60939e-05
9 *1285:A1 *1520:A 0.000139913
10 *1285:A1 *295:23 0
11 *1285:B2 *1287:A2 8.91726e-05
12 *1286:B2 *295:8 0.00012501
13 *1286:C1 *295:8 0.000123295
14 *1287:A1 *1287:A2 0.000191636
15 *1287:C1 *1520:A 0.000267377
16 *1296:B *1287:A2 4.87854e-05
17 *1327:A0 *295:8 0
18 *1327:A1 *1520:A 3.48705e-05
19 *1328:S *295:8 7.79781e-06
20 *1492:A *1287:A2 5.74466e-05
21 *1492:A *295:8 2.26327e-05
22 *1492:A *295:23 6.42338e-05
23 *1558:A *1287:A2 0.000125731
24 *1568:A *1287:A2 1.21258e-05
25 *70:27 *1287:A2 0.000310259
26 *190:14 *1520:A 9.60875e-05
27 *192:70 *1520:A 0.000146591
28 *262:119 *1287:A2 0
29 *292:45 *1520:A 0.000212672
*RES
1 *1408:Q *295:8 16.05 
2 *295:8 *1520:A 23.1036 
3 *295:8 *295:23 1.64286 
4 *295:23 *1285:B1 13.8 
5 *295:23 *1287:A2 24.0857 
*END

*D_NET *296 0.00371273
*CONN
*I *1551:A I *D sky130_fd_sc_hd__dlygate4sd3_1
*I *1299:A2 I *D sky130_fd_sc_hd__o221a_1
*I *1298:A2 I *D sky130_fd_sc_hd__a22o_1
*I *1436:Q O *D sky130_fd_sc_hd__dfrtp_1
*CAP
1 *1551:A 0.000246686
2 *1299:A2 0
3 *1298:A2 0.000135804
4 *1436:Q 0.00061141
5 *296:18 0.000193934
6 *296:16 0.000916226
7 *1551:A *1271:C1 0
8 *1298:A1 *1298:A2 2.89016e-05
9 *1298:B1 *1298:A2 7.43578e-06
10 *1375:A0 *296:16 8.90221e-05
11 *1375:A1 *296:16 0.000140719
12 *1375:S *296:16 2.84026e-05
13 *1433:D *1551:A 0.000125717
14 *1561:A *296:16 0.00035683
15 *176:34 *1298:A2 0.000106552
16 *176:34 *1551:A 0.0002632
17 *176:34 *296:18 7.83174e-05
18 *179:19 *1551:A 0
19 *194:43 *1298:A2 0.000202128
20 *194:64 *1298:A2 1.02504e-05
21 *194:64 *296:16 5.33005e-05
22 *194:64 *296:18 0.000117896
23 *251:41 *1551:A 0
24 *251:41 *296:18 0
*RES
1 *1436:Q *296:16 25.4964 
2 *296:16 *296:18 1.94643 
3 *296:18 *1298:A2 17.7286 
4 *296:18 *1299:A2 13.8 
5 *296:16 *1551:A 19.7464 
*END

*D_NET *297 0.00081088
*CONN
*I *1528:A I *D sky130_fd_sc_hd__dlygate4sd3_1
*I *1251:A I *D sky130_fd_sc_hd__inv_2
*I *1437:Q O *D sky130_fd_sc_hd__dfrtp_1
*CAP
1 *1528:A 4.06461e-05
2 *1251:A 0.000120861
3 *1437:Q 4.10859e-05
4 *297:8 0.000202593
5 *1298:B1 *1528:A 6.05161e-06
6 *1299:B1 *1251:A 4.70792e-05
7 *1299:B1 *297:8 0.000125599
8 *78:8 *1251:A 0.00010288
9 *251:41 *1251:A 9.11048e-06
10 *251:41 *297:8 0.000114972
*RES
1 *1437:Q *297:8 15.4429 
2 *297:8 *1251:A 16.3536 
3 *297:8 *1528:A 14.3357 
*END

*D_NET *298 0.00281211
*CONN
*I *1376:A1 I *D sky130_fd_sc_hd__mux2_1
*I *1297:B I *D sky130_fd_sc_hd__xnor2_1
*I *1549:A I *D sky130_fd_sc_hd__dlygate4sd3_1
*I *1438:Q O *D sky130_fd_sc_hd__dfrtp_1
*CAP
1 *1376:A1 0
2 *1297:B 0.000160983
3 *1549:A 8.39049e-05
4 *1438:Q 0.000104314
5 *298:21 0.000396538
6 *298:10 0.000423774
7 *1297:B *301:16 1.17968e-05
8 *1376:A0 *298:21 5.71472e-05
9 *1379:A0 *298:10 0
10 *1540:A *1297:B 0.000125731
11 *1540:A *298:21 0.000225616
12 *3:21 *1297:B 0.000216862
13 *109:18 *1297:B 0.000400867
14 *193:74 *1297:B 5.72433e-05
15 *194:21 *298:10 0.00017309
16 *262:36 *1549:A 0.000112782
17 *262:36 *298:21 0.000261464
*RES
1 *1438:Q *298:10 20.55 
2 *298:10 *1549:A 11.0857 
3 *298:10 *298:21 5.46429 
4 *298:21 *1297:B 24.3714 
5 *298:21 *1376:A1 9.3 
*END

*D_NET *299 0.00287042
*CONN
*I *1545:A I *D sky130_fd_sc_hd__dlygate4sd3_1
*I *1268:A2 I *D sky130_fd_sc_hd__a22oi_1
*I *1272:A2 I *D sky130_fd_sc_hd__o211a_1
*I *1433:Q O *D sky130_fd_sc_hd__dfrtp_1
*CAP
1 *1545:A 0.00017016
2 *1268:A2 0
3 *1272:A2 0.000193563
4 *1433:Q 8.91748e-05
5 *299:23 0.000186341
6 *299:8 0.000298919
7 *1545:A *1371:A0 9.60875e-05
8 *299:8 *1268:B1 5.33005e-05
9 *1268:A1 *1545:A 0.000112371
10 *1268:A1 *299:8 1.24368e-05
11 *1268:A1 *299:23 5.99376e-05
12 *1268:B2 *299:8 5.52302e-05
13 *1272:B1 *1272:A2 0.000414033
14 *1546:A *1545:A 0.000143625
15 *189:61 *1545:A 9.2491e-05
16 *189:61 *299:8 5.75147e-05
17 *189:61 *299:23 2.6113e-05
18 *190:81 *1545:A 0.000372754
19 *190:96 *1272:A2 0
20 *194:64 *1272:A2 0
21 *194:64 *299:8 2.92464e-05
22 *200:35 *1272:A2 9.59321e-05
23 *257:6 *1545:A 0.000311183
*RES
1 *1433:Q *299:8 11.4964 
2 *299:8 *1272:A2 24.0143 
3 *299:8 *299:23 0.696429 
4 *299:23 *1268:A2 9.3 
5 *299:23 *1545:A 17.0679 
*END

*D_NET *300 0.00324696
*CONN
*I *1531:A I *D sky130_fd_sc_hd__dlygate4sd3_1
*I *1268:B1 I *D sky130_fd_sc_hd__a22oi_1
*I *1271:A2 I *D sky130_fd_sc_hd__o221a_1
*I *1434:Q O *D sky130_fd_sc_hd__dfrtp_1
*CAP
1 *1531:A 8.19228e-05
2 *1268:B1 1.69531e-05
3 *1271:A2 0.000158854
4 *1434:Q 0.000704817
5 *300:10 0.000447832
6 *300:8 0.00105876
7 *1272:B1 *1271:A2 0.000171375
8 *1272:B1 *300:10 5.59013e-05
9 *1272:C1 *1271:A2 2.89114e-05
10 *1446:RESET_B *1531:A 3.9745e-05
11 *1446:RESET_B *300:10 0.000136178
12 *189:61 *1271:A2 4.46186e-06
13 *189:61 *300:10 4.98872e-05
14 *189:63 *1271:A2 7.50601e-05
15 *189:77 *1271:A2 1.76135e-05
16 *194:64 *1268:B1 5.33005e-05
17 *194:64 *1531:A 0
18 *194:64 *300:10 0
19 *200:41 *1271:A2 7.32272e-05
20 *263:10 *300:8 1.88573e-05
21 *299:8 *1268:B1 5.33005e-05
*RES
1 *1434:Q *300:8 21.7286 
2 *300:8 *300:10 6.19643 
3 *300:10 *1271:A2 17.8179 
4 *300:10 *1268:B1 14.3357 
5 *300:8 *1531:A 15.4429 
*END

*D_NET *301 0.00450577
*CONN
*I *1539:A I *D sky130_fd_sc_hd__dlygate4sd3_1
*I *1373:A1 I *D sky130_fd_sc_hd__mux2_1
*I *1270:B I *D sky130_fd_sc_hd__nor2_1
*I *1269:B I *D sky130_fd_sc_hd__and2_1
*I *1435:Q O *D sky130_fd_sc_hd__dfrtp_1
*CAP
1 *1539:A 0.000201157
2 *1373:A1 0.000164688
3 *1270:B 0.000236899
4 *1269:B 3.38204e-05
5 *1435:Q 0
6 *301:16 0.000790607
7 *301:10 0.000861522
8 *301:4 0.000378104
9 *1271:B1 *1270:B 0.000150625
10 *1271:B2 *1270:B 9.31011e-05
11 *1297:B *301:16 1.17968e-05
12 *1300:B *1270:B 0
13 *1300:C *301:16 3.75052e-05
14 *1376:A0 *1539:A 5.52302e-05
15 *1376:A0 *301:10 1.17968e-05
16 *1377:A0 *1270:B 1.17968e-05
17 *1432:D *301:16 4.48113e-05
18 *1435:RESET_B *1539:A 4.884e-05
19 *1465:CLK *301:10 0.000149911
20 *1465:D *301:10 5.01213e-05
21 *1540:A *301:16 5.7616e-05
22 *3:21 *1373:A1 0.000274294
23 *3:21 *301:16 0.000357054
24 *189:63 *1270:B 4.97121e-06
25 *189:77 *1269:B 5.33005e-05
26 *189:77 *1270:B 9.19945e-05
27 *189:77 *301:16 0.000192983
28 *190:100 *1269:B 9.60875e-05
29 *200:26 *301:16 0
30 *200:35 *301:16 0
31 *200:41 *1270:B 4.46186e-06
32 *262:28 *301:10 4.06782e-05
33 *262:28 *301:16 0
34 *281:33 *301:10 0
*RES
1 *1435:Q *301:4 9.3 
2 *301:4 *301:10 12.7679 
3 *301:10 *301:16 13.5 
4 *301:16 *1269:B 14.7464 
5 *301:16 *1270:B 19.1571 
6 *301:10 *1373:A1 11.8893 
7 *301:4 *1539:A 12.7286 
*END

*D_NET *302 0.00668588
*CONN
*I *1252:A I *D sky130_fd_sc_hd__inv_2
*I *1564:A I *D sky130_fd_sc_hd__dlygate4sd3_1
*I *1371:A0 I *D sky130_fd_sc_hd__mux2_1
*I *1303:B1 I *D sky130_fd_sc_hd__o2bb2a_1
*I *1430:Q O *D sky130_fd_sc_hd__dfrtp_1
*CAP
1 *1252:A 6.01975e-05
2 *1564:A 0.000808013
3 *1371:A0 2.46213e-05
4 *1303:B1 0.000258378
5 *1430:Q 0.000325387
6 *302:32 0.000933936
7 *302:21 0.000131435
8 *302:8 0.000624854
9 *1303:B1 *304:25 0.000358971
10 *1564:A *1365:A1 5.52302e-05
11 *1564:A *1368:A0 1.74352e-05
12 *1564:A *305:16 0.000514617
13 *1278:C *1303:B1 2.42516e-05
14 *1368:A1 *1564:A 0.000484011
15 *1430:RESET_B *302:8 4.70821e-05
16 *1545:A *1371:A0 9.60875e-05
17 *1565:A *1564:A 4.3049e-05
18 *176:86 *1564:A 0.000128409
19 *190:81 *1371:A0 9.60875e-05
20 *200:41 *302:8 9.90367e-05
21 *262:87 *1252:A 0.000222878
22 *262:87 *1303:B1 0.00027338
23 *262:87 *302:21 9.91086e-05
24 *262:87 *302:32 0.00019384
25 *281:98 *1252:A 0.000214335
26 *281:98 *1303:B1 0.000275087
27 *281:98 *302:21 8.98585e-05
28 *281:98 *302:32 0.000186304
*RES
1 *1430:Q *302:8 17.6214 
2 *302:8 *1303:B1 21.4964 
3 *302:8 *302:21 1.33929 
4 *302:21 *1371:A0 14.7464 
5 *302:21 *302:32 2.55357 
6 *302:32 *1564:A 30.0857 
7 *302:32 *1252:A 16.6571 
*END

*D_NET *303 0.00119749
*CONN
*I *1526:A I *D sky130_fd_sc_hd__dlygate4sd3_1
*I *1302:B I *D sky130_fd_sc_hd__nor2_1
*I *1301:B I *D sky130_fd_sc_hd__and2_1
*I *1431:Q O *D sky130_fd_sc_hd__dfrtp_1
*CAP
1 *1526:A 5.67008e-05
2 *1302:B 2.12584e-05
3 *1301:B 0.000115467
4 *1431:Q 0
5 *303:10 0.000265237
6 *303:4 0.000185212
7 *1301:B *1512:A 0
8 *1372:A0 *1302:B 0.000142856
9 *1372:A1 *1301:B 3.48235e-05
10 *1372:S *1302:B 0.000142856
11 *1431:CLK *1526:A 2.27416e-05
12 *1431:CLK *303:10 3.81416e-06
13 *194:74 *1301:B 0
14 *199:30 *1301:B 5.41794e-05
15 *200:64 *1301:B 1.02504e-05
16 *200:64 *303:10 0.00014209
17 *237:10 *303:10 0
*RES
1 *1431:Q *303:4 9.3 
2 *303:4 *303:10 6.98214 
3 *303:10 *1301:B 16.05 
4 *303:10 *1302:B 15.1571 
5 *303:4 *1526:A 10.5679 
*END

*D_NET *304 0.00274592
*CONN
*I *1305:A2 I *D sky130_fd_sc_hd__o211a_1
*I *1303:A2_N I *D sky130_fd_sc_hd__o2bb2a_1
*I *1533:A I *D sky130_fd_sc_hd__dlygate4sd3_1
*I *1432:Q O *D sky130_fd_sc_hd__dfrtp_1
*CAP
1 *1305:A2 0.000304125
2 *1303:A2_N 0
3 *1533:A 0
4 *1432:Q 5.07397e-05
5 *304:25 0.00055633
6 *304:10 0.000302945
7 *1305:A2 *307:23 9.21418e-06
8 *1278:C *1305:A2 5.33005e-05
9 *1278:C *304:25 0.000212382
10 *1303:A1_N *1305:A2 0.000299928
11 *1303:A1_N *304:25 0
12 *1303:B1 *304:25 0.000358971
13 *1303:B2 *304:25 4.19348e-05
14 *1305:A1 *1305:A2 1.04232e-05
15 *1305:B1 *1305:A2 5.96006e-05
16 *1370:A0 *1305:A2 7.95909e-05
17 *70:65 *1305:A2 3.69047e-06
18 *180:20 *304:10 0.000150618
19 *188:42 *1305:A2 0.000101125
20 *190:58 *1305:A2 8.50063e-06
21 *190:58 *304:25 2.65105e-05
22 *262:87 *304:10 0.000115988
*RES
1 *1432:Q *304:10 20.2464 
2 *304:10 *1533:A 9.3 
3 *304:10 *304:25 6.875 
4 *304:25 *1303:A2_N 9.3 
5 *304:25 *1305:A2 23.9071 
*END

*D_NET *305 0.00385744
*CONN
*I *1368:A0 I *D sky130_fd_sc_hd__mux2_1
*I *1365:A1 I *D sky130_fd_sc_hd__mux2_1
*I *1257:A2 I *D sky130_fd_sc_hd__o22a_1
*I *1253:A I *D sky130_fd_sc_hd__inv_2
*I *1426:Q O *D sky130_fd_sc_hd__dfrtp_1
*CAP
1 *1368:A0 0.000102239
2 *1365:A1 9.13053e-05
3 *1257:A2 0
4 *1253:A 9.95927e-05
5 *1426:Q 0.000263372
6 *305:22 0.000155928
7 *305:16 0.000427306
8 *305:10 0.000645277
9 *305:16 *1257:B1 0.000175892
10 *305:22 *1257:B1 3.17148e-05
11 *1257:B2 *1253:A 1.5471e-05
12 *1260:A1 *305:10 5.10822e-05
13 *1260:A1 *305:16 3.69697e-05
14 *1260:A2 *1253:A 5.84741e-05
15 *1261:B *305:16 5.33005e-05
16 *1365:A0 *1365:A1 5.71472e-05
17 *1368:A1 *1368:A0 0.000227532
18 *1494:A *305:22 4.56498e-05
19 *1564:A *1365:A1 5.52302e-05
20 *1564:A *1368:A0 1.74352e-05
21 *1564:A *305:16 0.000514617
22 *1565:A *1368:A0 9.60875e-05
23 *1565:A *305:10 0
24 *176:86 *1365:A1 0.000134288
25 *186:25 *1365:A1 0.000230482
26 *186:25 *305:22 7.79781e-06
27 *188:42 *305:16 0
28 *188:59 *305:16 0
29 *189:30 *1253:A 8.60633e-05
30 *189:51 *1253:A 3.99614e-06
31 *190:142 *1365:A1 7.06444e-05
32 *190:142 *305:22 0.000102545
*RES
1 *1426:Q *305:10 17.3179 
2 *305:10 *305:16 10.5893 
3 *305:16 *305:22 10.6429 
4 *305:22 *1253:A 12.05 
5 *305:22 *1257:A2 9.3 
6 *305:16 *1365:A1 13.2643 
7 *305:10 *1368:A0 16.3893 
*END

*D_NET *306 0.00575419
*CONN
*I *1366:A1 I *D sky130_fd_sc_hd__mux2_1
*I *1369:A0 I *D sky130_fd_sc_hd__mux2_1
*I *1256:B I *D sky130_fd_sc_hd__nand2_1
*I *1257:B1 I *D sky130_fd_sc_hd__o22a_1
*I *1427:Q O *D sky130_fd_sc_hd__dfrtp_1
*CAP
1 *1366:A1 5.27308e-05
2 *1369:A0 0.000428933
3 *1256:B 9.66218e-05
4 *1257:B1 0.000400468
5 *1427:Q 0.000264012
6 *306:14 0.000712306
7 *306:12 0.000712499
8 *306:8 0.000385091
9 *1366:A1 *330:12 9.41642e-05
10 *306:8 *330:12 9.60875e-05
11 *306:12 *1315:C1 0.000100735
12 *306:14 *1315:C1 9.24299e-05
13 *1256:A *1256:B 1.32019e-05
14 *1256:A *1257:B1 7.83587e-05
15 *1257:B2 *1257:B1 1.24368e-05
16 *1260:A2 *1257:B1 5.52238e-05
17 *1388:S *306:12 3.34295e-05
18 *1423:D *1257:B1 0
19 *1424:CLK *1369:A0 2.59355e-05
20 *1424:CLK *306:12 0.000214342
21 *1424:CLK *306:14 5.66157e-05
22 *1494:A *1257:B1 0.000266099
23 *1494:A *306:14 5.27412e-05
24 *176:86 *1257:B1 0.000161865
25 *183:16 *1256:B 0
26 *183:16 *1257:B1 0
27 *183:16 *306:14 0
28 *183:22 *1256:B 9.41642e-05
29 *183:22 *1257:B1 5.04597e-05
30 *186:104 *1366:A1 3.93247e-05
31 *189:61 *1257:B1 1.98839e-05
32 *194:89 *1369:A0 0.000936419
33 *305:16 *1257:B1 0.000175892
34 *305:22 *1257:B1 3.17148e-05
*RES
1 *1427:Q *306:8 13.9607 
2 *306:8 *306:12 7.35714 
3 *306:12 *306:14 4.67857 
4 *306:14 *1257:B1 31.4786 
5 *306:14 *1256:B 15.5857 
6 *306:12 *1369:A0 23.5143 
7 *306:8 *1366:A1 10.675 
*END

*D_NET *307 0.00168795
*CONN
*I *1259:B I *D sky130_fd_sc_hd__nor2_1
*I *1258:B I *D sky130_fd_sc_hd__and2_1
*I *1538:A I *D sky130_fd_sc_hd__dlygate4sd3_1
*I *1428:Q O *D sky130_fd_sc_hd__dfrtp_1
*CAP
1 *1259:B 3.3415e-05
2 *1258:B 0.000113058
3 *1538:A 2.94119e-05
4 *1428:Q 0.000124204
5 *307:23 0.000280707
6 *307:10 0.00028785
7 *1259:A *1258:B 0.000101036
8 *1278:D *1258:B 1.97695e-05
9 *1305:A2 *307:23 9.21418e-06
10 *1317:A *307:10 3.4879e-05
11 *1317:B *307:10 7.83659e-05
12 *1370:A0 *1538:A 0.000139913
13 *1370:A0 *307:10 0.000125731
14 *1370:A0 *307:23 2.21038e-05
15 *70:65 *1538:A 0.000139913
16 *105:12 *307:10 2.26327e-05
17 *105:12 *307:23 6.97349e-05
18 *176:86 *307:23 0
19 *188:42 *307:23 5.6007e-05
*RES
1 *1428:Q *307:10 16.3893 
2 *307:10 *1538:A 15.1571 
3 *307:10 *307:23 7.35714 
4 *307:23 *1258:B 11.925 
5 *307:23 *1259:B 9.83571 
*END

*D_NET *308 0.0036091
*CONN
*I *1362:A1 I *D sky130_fd_sc_hd__mux2_1
*I *1254:A I *D sky130_fd_sc_hd__inv_2
*I *1562:A I *D sky130_fd_sc_hd__dlygate4sd3_1
*I *1312:B1 I *D sky130_fd_sc_hd__o2bb2a_1
*I *1423:Q O *D sky130_fd_sc_hd__dfrtp_1
*CAP
1 *1362:A1 0.000240943
2 *1254:A 0.000303546
3 *1562:A 1.65266e-05
4 *1312:B1 0.000219216
5 *1423:Q 0
6 *308:12 0.000360319
7 *308:8 0.000513748
8 *308:4 0.000326569
9 *1312:A1_N *1312:B1 5.52238e-05
10 *1316:C1 *1254:A 0
11 *1316:C1 *1312:B1 8.2395e-05
12 *1316:C1 *308:12 0
13 *1362:S *1362:A1 1.72894e-05
14 *1365:A0 *1312:B1 0.000139913
15 *1422:CLK *1312:B1 4.27437e-05
16 *1425:RESET_B *1312:B1 0.000360102
17 *1449:CLK *1254:A 0
18 *1473:A *1254:A 0
19 *1473:A *308:12 0
20 *1474:A *308:12 0
21 *1482:A *1312:B1 0.0001399
22 *176:86 *1312:B1 9.47613e-05
23 *176:86 *1562:A 5.33433e-05
24 *186:40 *1312:B1 0.000315165
25 *186:40 *1562:A 8.76257e-05
26 *189:30 *1312:B1 0.000196262
27 *195:56 *308:12 0
28 *202:69 *1254:A 4.35048e-05
*RES
1 *1423:Q *308:4 9.3 
2 *308:4 *308:8 5.44643 
3 *308:8 *308:12 6.44643 
4 *308:12 *1312:B1 27.3357 
5 *308:12 *1562:A 10.2464 
6 *308:8 *1254:A 19.3893 
7 *308:4 *1362:A1 12.3 
*END

*D_NET *309 0.00347904
*CONN
*I *1363:A1 I *D sky130_fd_sc_hd__mux2_1
*I *1543:A I *D sky130_fd_sc_hd__dlygate4sd3_1
*I *1313:B I *D sky130_fd_sc_hd__nor2_1
*I *1314:B I *D sky130_fd_sc_hd__and2_1
*I *1424:Q O *D sky130_fd_sc_hd__dfrtp_1
*CAP
1 *1363:A1 0.000206866
2 *1543:A 0
3 *1313:B 1.85698e-05
4 *1314:B 0.000205849
5 *1424:Q 0.000108785
6 *309:42 0.000206866
7 *309:14 0.000410508
8 *309:8 0.000294874
9 *1363:A1 *1389:A1 0.000272371
10 *1314:A *1313:B 0
11 *1315:A2 *1314:B 5.23057e-05
12 *1315:A2 *309:14 2.95641e-05
13 *1315:B1 *1314:B 0
14 *1363:S *1363:A1 2.89114e-05
15 *1389:A0 *1363:A1 0.000533203
16 *1449:CLK *309:8 0
17 *1449:CLK *309:14 0
18 *1480:A *1313:B 3.99614e-06
19 *1480:A *1314:B 0.000137878
20 *186:100 *1363:A1 0.000357323
21 *186:104 *1363:A1 0.000102207
22 *194:89 *1314:B 2.89016e-05
23 *194:102 *1313:B 0
24 *194:102 *1314:B 0.000274294
25 *194:102 *309:14 0.000199997
26 *194:110 *1313:B 5.7661e-06
*RES
1 *1424:Q *309:8 15.4429 
2 *309:8 *309:14 8.41071 
3 *309:14 *1314:B 23.2286 
4 *309:14 *1313:B 9.72857 
5 *309:8 *309:42 4.5 
6 *309:42 *1543:A 9.3 
7 *309:42 *1363:A1 18.05 
*END

*D_NET *310 0.00419388
*CONN
*I *1312:A2_N I *D sky130_fd_sc_hd__o2bb2a_1
*I *1524:A I *D sky130_fd_sc_hd__dlygate4sd3_1
*I *1316:A2 I *D sky130_fd_sc_hd__o211a_1
*I *1425:Q O *D sky130_fd_sc_hd__dfrtp_1
*CAP
1 *1312:A2_N 0.000430636
2 *1524:A 0.000653354
3 *1316:A2 7.54387e-05
4 *1425:Q 7.46015e-05
5 *310:21 0.00119174
6 *310:8 0.000257794
7 *1524:A *1522:A 7.03295e-05
8 *1524:A *313:8 9.76689e-05
9 *1316:B1 *1316:A2 4.04514e-05
10 *1316:C1 *1312:A2_N 6.49413e-05
11 *1316:C1 *310:21 7.73662e-05
12 *1367:A0 *1316:A2 6.09804e-05
13 *1422:D *1312:A2_N 0
14 *1422:D *1524:A 0.000175502
15 *1422:RESET_B *1524:A 4.78057e-05
16 *1482:A *1312:A2_N 0.000525375
17 *1482:A *1524:A 2.11207e-05
18 *94:18 *1316:A2 0.000236039
19 *189:30 *310:8 3.25247e-05
20 *189:30 *310:21 4.98055e-06
21 *195:56 *1312:A2_N 0
22 *195:56 *310:8 0
23 *195:56 *310:21 0
24 *236:8 *1524:A 5.52302e-05
*RES
1 *1425:Q *310:8 15.1393 
2 *310:8 *1316:A2 16.4071 
3 *310:8 *310:21 2.25 
4 *310:21 *1524:A 24.3536 
5 *310:21 *1312:A2_N 20.4964 
*END

*D_NET *311 0.00471713
*CONN
*I *1553:A I *D sky130_fd_sc_hd__dlygate4sd3_1
*I *1356:A1 I *D sky130_fd_sc_hd__mux2_1
*I *1290:A2 I *D sky130_fd_sc_hd__o221a_1
*I *1289:A2 I *D sky130_fd_sc_hd__a22o_1
*I *1420:Q O *D sky130_fd_sc_hd__dfrtp_1
*CAP
1 *1553:A 6.13387e-05
2 *1356:A1 0.000314917
3 *1290:A2 0.000138308
4 *1289:A2 2.9238e-05
5 *1420:Q 5.05799e-05
6 *311:18 0.000397562
7 *311:12 0.000897499
8 *311:8 0.000464484
9 *311:18 *1288:B 3.51442e-05
10 *1288:A *311:18 2.95726e-05
11 *1290:A1 *1289:A2 5.33005e-05
12 *1290:A1 *311:12 0
13 *1291:A *1356:A1 0.000526414
14 *1291:A *311:18 0.00040381
15 *1364:S *311:18 2.07991e-05
16 *1390:A1 *311:12 0
17 *1474:A *311:18 0.00014183
18 *184:10 *311:12 5.59013e-05
19 *184:32 *311:12 0.00016284
20 *184:47 *311:12 0.000257194
21 *184:88 *1553:A 4.25809e-05
22 *184:88 *311:12 4.79479e-05
23 *186:59 *1290:A2 0.000162125
24 *186:59 *311:18 0.000151333
25 *202:28 *1290:A2 8.91726e-05
26 *202:28 *311:12 0
27 *202:28 *311:18 0.000118339
28 *202:95 *1553:A 4.06875e-05
29 *202:95 *311:12 2.42082e-05
*RES
1 *1420:Q *311:8 14.3357 
2 *311:8 *311:12 12.8214 
3 *311:12 *311:18 12 
4 *311:18 *1289:A2 14.3357 
5 *311:18 *1290:A2 16.5857 
6 *311:12 *1356:A1 15.5857 
7 *311:8 *1553:A 15.4429 
*END

*D_NET *312 0.00372254
*CONN
*I *1541:A I *D sky130_fd_sc_hd__dlygate4sd3_1
*I *1255:A I *D sky130_fd_sc_hd__inv_2
*I *1421:Q O *D sky130_fd_sc_hd__dfrtp_1
*CAP
1 *1541:A 0.000934624
2 *1255:A 0.000636338
3 *1421:Q 0
4 *312:4 0.00157096
5 *1255:A *1290:C1 0.000122485
6 *1389:A0 *1255:A 0
7 *1421:CLK *1541:A 0.000172536
8 *1421:RESET_B *1541:A 5.33334e-05
9 *1424:RESET_B *1255:A 0.000170964
10 *1449:CLK *1255:A 0
11 *1449:RESET_B *1255:A 4.47762e-05
12 *1449:RESET_B *1541:A 1.65169e-05
13 *1509:A *1255:A 0
*RES
1 *1421:Q *312:4 9.3 
2 *312:4 *1255:A 28.8357 
3 *312:4 *1541:A 30.0857 
*END

*D_NET *313 0.00156114
*CONN
*I *1522:A I *D sky130_fd_sc_hd__dlygate4sd3_1
*I *1288:B I *D sky130_fd_sc_hd__xor2_1
*I *1422:Q O *D sky130_fd_sc_hd__dfrtp_1
*CAP
1 *1522:A 0.000207487
2 *1288:B 0.000106226
3 *1422:Q 6.6508e-05
4 *313:8 0.000380221
5 *1358:A1 *1288:B 5.41794e-05
6 *1364:A0 *1288:B 0.000116717
7 *1364:S *1288:B 4.46186e-06
8 *1416:RESET_B *1288:B 9.69119e-06
9 *1422:RESET_B *1522:A 0.000140933
10 *1422:RESET_B *313:8 0.000181796
11 *1474:A *1288:B 0
12 *1524:A *1522:A 7.03295e-05
13 *1524:A *313:8 9.76689e-05
14 *202:28 *1288:B 4.24858e-05
15 *234:8 *1522:A 4.72917e-05
16 *311:18 *1288:B 3.51442e-05
*RES
1 *1422:Q *313:8 11.4964 
2 *313:8 *1288:B 20.8536 
3 *313:8 *1522:A 13.9429 
*END

*D_NET *314 0.0049354
*CONN
*I *1535:A I *D sky130_fd_sc_hd__dlygate4sd3_1
*I *1262:A I *D sky130_fd_sc_hd__nand2_1
*I *1265:A1 I *D sky130_fd_sc_hd__o22a_1
*I *1414:Q O *D sky130_fd_sc_hd__dfrtp_1
*CAP
1 *1535:A 0.000670889
2 *1262:A 0.000123585
3 *1265:A1 7.21826e-05
4 *1414:Q 0.000210469
5 *314:14 0.000455103
6 *314:6 0.00114069
7 *1262:A *1265:B1 0.00014285
8 *1265:A1 *1263:A 0
9 *314:14 *1265:B1 0
10 *1262:B *1262:A 0.000392841
11 *1262:B *1265:A1 2.28598e-05
12 *1262:B *314:14 1.61893e-05
13 *1267:A *1262:A 2.89114e-05
14 *1267:C *1262:A 2.04134e-05
15 *1291:B *314:6 6.20656e-05
16 *1291:B *314:14 0.000409896
17 *1291:C_N *314:14 0.000439641
18 *1414:RESET_B *1535:A 0.000548053
19 *94:18 *1262:A 1.02936e-05
20 *94:18 *1265:A1 6.09112e-05
21 *187:88 *314:14 4.31289e-05
22 *187:101 *314:14 0
23 *191:40 *1265:A1 2.89016e-05
24 *191:47 *1265:A1 2.6269e-05
25 *191:51 *314:14 9.25014e-06
*RES
1 *1414:Q *314:6 11.8893 
2 *314:6 *314:14 17.1429 
3 *314:14 *1265:A1 11.2107 
4 *314:14 *1262:A 13.55 
5 *314:6 *1535:A 18.3714 
*END

*D_NET *315 0.00420176
*CONN
*I *1396:A1 I *D sky130_fd_sc_hd__mux2_1
*I *1240:A I *D sky130_fd_sc_hd__inv_2
*I *1265:B1 I *D sky130_fd_sc_hd__o22a_1
*I *1357:A0 I *D sky130_fd_sc_hd__mux2_1
*I *1415:Q O *D sky130_fd_sc_hd__dfrtp_1
*CAP
1 *1396:A1 4.05809e-05
2 *1240:A 0
3 *1265:B1 0.000198092
4 *1357:A0 0.000524007
5 *1415:Q 0
6 *315:29 0.000547024
7 *315:23 0.000738552
8 *315:4 0.000873045
9 *1265:B1 *1391:A1 2.44318e-05
10 *315:23 *1510:A 6.74911e-05
11 *315:23 *332:16 0.000115466
12 *315:29 *1391:A1 8.55173e-05
13 *315:29 *332:16 0.000148465
14 *1262:A *1265:B1 0.00014285
15 *1265:B2 *1265:B1 0
16 *1266:A1 *1265:B1 5.52302e-05
17 *1267:C *1265:B1 0.000194874
18 *1291:C_N *1265:B1 2.8266e-06
19 *1357:A1 *1357:A0 0
20 *1357:S *1357:A0 0
21 *1395:S *1396:A1 9.90367e-05
22 *1395:S *315:29 0
23 *1414:CLK *315:23 0
24 *1414:D *315:29 4.79842e-05
25 *1421:RESET_B *1357:A0 0.000151333
26 *1421:RESET_B *315:23 0
27 *1456:D *315:23 0
28 *1456:RESET_B *315:23 0
29 *94:18 *1265:B1 8.07313e-05
30 *202:26 *315:29 6.42242e-05
31 *314:14 *1265:B1 0
*RES
1 *1415:Q *315:4 9.3 
2 *315:4 *1357:A0 26.2464 
3 *315:4 *315:23 11 
4 *315:23 *315:29 12.4464 
5 *315:29 *1265:B1 23.4607 
6 *315:29 *1240:A 9.3 
7 *315:23 *1396:A1 14.7464 
*END

*D_NET *316 0.00515434
*CONN
*I *1264:A I *D sky130_fd_sc_hd__nor2_1
*I *1263:A I *D sky130_fd_sc_hd__and2_1
*I *1358:A0 I *D sky130_fd_sc_hd__mux2_1
*I *1397:A1 I *D sky130_fd_sc_hd__mux2_1
*I *1416:Q O *D sky130_fd_sc_hd__dfrtp_1
*CAP
1 *1264:A 0.000128764
2 *1263:A 0.000229972
3 *1358:A0 0
4 *1397:A1 0.000555565
5 *1416:Q 0.000183215
6 *316:38 0.000609847
7 *316:31 0.000251111
8 *316:10 0.00073878
9 *1263:B *1263:A 9.90431e-05
10 *1265:A1 *1263:A 0
11 *1358:A1 *316:10 0.000150618
12 *1360:A1 *1397:A1 9.37079e-05
13 *1367:A0 *316:10 0.000229456
14 *1416:CLK *1263:A 2.59355e-05
15 *1416:RESET_B *1263:A 0
16 *1416:RESET_B *316:10 2.56751e-05
17 *1455:CLK *1263:A 0.00012401
18 *1455:CLK *1264:A 7.02611e-05
19 *1457:CLK *1397:A1 9.54385e-05
20 *1457:D *1397:A1 8.77741e-05
21 *1482:A *1397:A1 0
22 *1482:A *316:10 0
23 *1485:A *1397:A1 2.14658e-05
24 *1523:A *1264:A 1.21289e-05
25 *1523:A *316:38 0.000144788
26 *1530:A *1397:A1 0.000185643
27 *94:18 *1263:A 0.000431857
28 *94:18 *316:10 0.000148153
29 *182:20 *1397:A1 0
30 *182:26 *1397:A1 0.000102196
31 *187:27 *1397:A1 0
32 *187:52 *316:38 8.69962e-05
33 *191:40 *1263:A 9.18206e-05
34 *191:40 *316:10 9.02133e-05
35 *273:14 *1397:A1 0
36 *273:31 *1397:A1 0.000139907
*RES
1 *1416:Q *316:10 19.8714 
2 *316:10 *1397:A1 25.425 
3 *316:10 *316:31 4.5 
4 *316:31 *1358:A0 9.3 
5 *316:31 *316:38 5.05357 
6 *316:38 *1263:A 24.6036 
7 *316:38 *1264:A 11.4964 
*END

*D_NET *317 0.00300979
*CONN
*I *1548:A I *D sky130_fd_sc_hd__dlygate4sd3_1
*I *1306:B I *D sky130_fd_sc_hd__or2_1
*I *1309:A2 I *D sky130_fd_sc_hd__a22o_1
*I *1455:Q O *D sky130_fd_sc_hd__dfrtp_1
*CAP
1 *1548:A 0.000167302
2 *1306:B 0.00015271
3 *1309:A2 0.000685981
4 *1455:Q 0
5 *317:23 0.000358513
6 *317:4 0.000724483
7 *1306:B *1571:A 5.80706e-06
8 *1309:A2 *318:20 9.42473e-05
9 *1455:CLK *1309:A2 0.000183726
10 *1455:RESET_B *1309:A2 0.000138106
11 *1455:RESET_B *317:23 4.18895e-05
12 *187:68 *1309:A2 0.000140933
13 *203:50 *1306:B 0.000131472
14 *203:60 *1306:B 1.08359e-05
15 *203:60 *1548:A 0.00017379
*RES
1 *1455:Q *317:4 9.3 
2 *317:4 *1309:A2 19.9786 
3 *317:4 *317:23 5.03571 
4 *317:23 *1306:B 17.2643 
5 *317:23 *1548:A 17.8714 
*END

*D_NET *318 0.0062248
*CONN
*I *1563:A I *D sky130_fd_sc_hd__dlygate4sd3_1
*I *1309:B1 I *D sky130_fd_sc_hd__a22o_1
*I *1310:A2 I *D sky130_fd_sc_hd__o221a_1
*I *1404:A1 I *D sky130_fd_sc_hd__mux2_1
*I *1456:Q O *D sky130_fd_sc_hd__dfrtp_1
*CAP
1 *1563:A 6.94431e-05
2 *1309:B1 1.72105e-05
3 *1310:A2 5.48524e-05
4 *1404:A1 0.000122375
5 *1456:Q 9.24594e-05
6 *318:22 0.000327644
7 *318:20 0.00153937
8 *318:8 0.00153365
9 *1310:A2 *1308:B 0
10 *1310:A2 *1310:C1 0
11 *1265:B2 *1404:A1 1.17968e-05
12 *1265:B2 *318:22 0.000108324
13 *1306:A *1309:B1 5.59013e-05
14 *1306:A *318:22 0.000100823
15 *1309:A2 *318:20 9.42473e-05
16 *1309:B2 *1404:A1 1.41706e-05
17 *1309:B2 *318:22 0.00010323
18 *1310:B1 *1404:A1 0.000199223
19 *1310:B2 *1310:A2 1.92789e-05
20 *1311:A_N *318:20 0.00018077
21 *1455:CLK *318:20 0.00024552
22 *1455:RESET_B *318:20 7.33037e-05
23 *1456:RESET_B *1563:A 9.90367e-05
24 *1456:RESET_B *318:8 0
25 *1456:RESET_B *318:20 0.000177941
26 *69:29 *1404:A1 6.1075e-05
27 *187:52 *1309:B1 4.66511e-05
28 *187:52 *318:22 9.25014e-06
29 *203:50 *318:20 0.000106403
30 *203:60 *318:20 0.000760846
*RES
1 *1456:Q *318:8 15.4429 
2 *318:8 *318:20 34.7679 
3 *318:20 *318:22 4.07143 
4 *318:22 *1404:A1 16.6571 
5 *318:22 *1310:A2 14.7643 
6 *318:20 *1309:B1 14.5321 
7 *318:8 *1563:A 15.1571 
*END

*D_NET *319 0.0018605
*CONN
*I *1308:B I *D sky130_fd_sc_hd__and2_1
*I *1529:A I *D sky130_fd_sc_hd__dlygate4sd3_1
*I *1307:B I *D sky130_fd_sc_hd__nor2_1
*I *1457:Q O *D sky130_fd_sc_hd__dfrtp_1
*CAP
1 *1308:B 0.000154568
2 *1529:A 2.12584e-05
3 *1307:B 0.00021718
4 *1457:Q 0
5 *319:8 0.00033242
6 *319:4 0.00024855
7 *1307:B *321:14 0.00027032
8 *1241:A *319:8 3.64272e-05
9 *1308:A *1308:B 4.59429e-05
10 *1310:A2 *1308:B 0
11 *1360:A1 *1529:A 0.000142856
12 *1391:S *319:8 6.01582e-05
13 *1404:S *1529:A 0.000142856
14 *1457:RESET_B *1308:B 0
15 *1472:A *1307:B 3.47641e-06
16 *182:8 *1307:B 9.3111e-05
17 *192:106 *1307:B 0
18 *273:42 *1307:B 8.2226e-05
19 *273:42 *319:8 9.15621e-06
*RES
1 *1457:Q *319:4 9.3 
2 *319:4 *319:8 6.44643 
3 *319:8 *1307:B 18.6393 
4 *319:8 *1529:A 15.1571 
5 *319:4 *1308:B 12.2286 
*END

*D_NET *320 0.00418318
*CONN
*I *1555:A I *D sky130_fd_sc_hd__dlygate4sd3_1
*I *1243:A I *D sky130_fd_sc_hd__inv_2
*I *1462:Q O *D sky130_fd_sc_hd__dfrtp_1
*CAP
1 *1555:A 0.000764295
2 *1243:A 0.000395368
3 *1462:Q 3.6957e-05
4 *320:8 0.00119662
5 *1243:A *334:8 0.000635573
6 *1359:A0 *1243:A 4.03318e-05
7 *1359:A1 *1243:A 4.55516e-05
8 *1359:S *1243:A 0.000227539
9 *1417:D *1555:A 0.000104611
10 *1462:CLK *1555:A 0.000129515
11 *1462:RESET_B *1243:A 8.54136e-05
12 *1462:RESET_B *320:8 6.76337e-05
13 *1464:D *1243:A 5.71472e-05
14 *1464:RESET_B *1243:A 0
15 *1472:A *1243:A 0.000159771
16 *182:76 *1243:A 0
17 *182:76 *1555:A 0.000164954
18 *201:32 *1555:A 2.46078e-05
19 *267:12 *1555:A 4.72917e-05
*RES
1 *1462:Q *320:8 14.6839 
2 *320:8 *1243:A 25.3089 
3 *320:8 *1555:A 26.2732 
*END

*D_NET *321 0.00526619
*CONN
*I *1557:A I *D sky130_fd_sc_hd__dlygate4sd3_1
*I *1293:B1 I *D sky130_fd_sc_hd__a22o_1
*I *1294:B1 I *D sky130_fd_sc_hd__o221a_1
*I *1463:Q O *D sky130_fd_sc_hd__dfrtp_1
*CAP
1 *1557:A 0.000628765
2 *1293:B1 3.16968e-05
3 *1294:B1 0.000197433
4 *1463:Q 0.000195299
5 *321:14 0.000432568
6 *321:10 0.0010275
7 *321:10 *322:12 9.90367e-05
8 *1294:A2 *1294:B1 0.000128317
9 *1295:C_N *1294:B1 9.94863e-05
10 *1307:B *321:14 0.00027032
11 *1310:B1 *1557:A 0
12 *1310:B1 *321:14 0.00052833
13 *1360:A1 *1557:A 0.000316184
14 *1404:S *1557:A 0.000186669
15 *1463:RESET_B *321:10 1.91419e-05
16 *1472:A *1557:A 0
17 *1472:A *321:10 0
18 *1559:A *1557:A 2.89114e-05
19 *71:16 *1293:B1 9.7049e-06
20 *71:16 *1294:B1 6.77198e-05
21 *182:8 *321:14 9.58508e-05
22 *182:68 *321:10 0
23 *189:18 *1294:B1 0
24 *192:106 *1557:A 0.000156147
25 *203:22 *321:10 2.65319e-06
26 *269:6 *1557:A 0.000744452
*RES
1 *1463:Q *321:10 17.4071 
2 *321:10 *321:14 11.1964 
3 *321:14 *1294:B1 14.1214 
4 *321:14 *1293:B1 10.2643 
5 *321:10 *1557:A 28.8 
*END

*D_NET *322 0.00164217
*CONN
*I *1532:A I *D sky130_fd_sc_hd__dlygate4sd3_1
*I *1292:B I *D sky130_fd_sc_hd__xor2_1
*I *1464:Q O *D sky130_fd_sc_hd__dfrtp_1
*CAP
1 *1532:A 0
2 *1292:B 0.000279411
3 *1464:Q 0.000263569
4 *322:12 0.000542981
5 *1359:A0 *322:12 0.000149904
6 *1463:RESET_B *322:12 1.24368e-05
7 *1464:RESET_B *1292:B 5.33005e-05
8 *1464:RESET_B *322:12 0.000128496
9 *1472:A *322:12 5.03787e-05
10 *192:81 *1292:B 3.37555e-05
11 *244:10 *1292:B 2.89016e-05
12 *321:10 *322:12 9.90367e-05
*RES
1 *1464:Q *322:12 23.7286 
2 *322:12 *1292:B 13.9607 
3 *322:12 *1532:A 9.3 
*END

*D_NET *323 0.00298451
*CONN
*I *1547:A I *D sky130_fd_sc_hd__dlygate4sd3_1
*I *1281:C1 I *D sky130_fd_sc_hd__o221a_1
*I *1443:Q O *D sky130_fd_sc_hd__dfrtp_1
*CAP
1 *1547:A 0.000286887
2 *1281:C1 0.000479684
3 *1443:Q 0
4 *323:6 0.000766571
5 *1281:C1 *1299:C1 0.000127852
6 *1547:A *1299:C1 9.27685e-05
7 *1377:S *1281:C1 0.000171375
8 *1380:A0 *1281:C1 0
9 *1380:S *1281:C1 0.000200406
10 *1443:RESET_B *1547:A 0.000106542
11 *1444:RESET_B *1547:A 0.000442116
12 *1561:A *1281:C1 0.000208762
13 *77:12 *1281:C1 0
14 *199:62 *1281:C1 0
15 *199:64 *1281:C1 0
16 *218:19 *1281:C1 0.000101545
*RES
1 *1443:Q *323:6 13.8 
2 *323:6 *1281:C1 25.1571 
3 *323:6 *1547:A 21.1929 
*END

*D_NET *324 0.0039598
*CONN
*I *1276:C1 I *D sky130_fd_sc_hd__o221a_1
*I *1505:A I *D sky130_fd_sc_hd__dlygate4sd3_1
*I *1394:A1 I *D sky130_fd_sc_hd__mux2_1
*I *1453:Q O *D sky130_fd_sc_hd__dfrtp_1
*CAP
1 *1276:C1 0.00025882
2 *1505:A 0.00015386
3 *1394:A1 0.000533572
4 *1453:Q 5.68551e-05
5 *324:19 0.00058214
6 *324:6 0.000759887
7 *1273:A2_N *1276:C1 6.8646e-06
8 *1276:A1 *1276:C1 6.05161e-06
9 *1276:A2 *1276:C1 1.52978e-05
10 *1276:B1 *1276:C1 0.00020192
11 *1286:C1 *1505:A 9.05499e-05
12 *1326:A0 *1276:C1 5.33005e-05
13 *1326:A1 *1276:C1 6.16744e-05
14 *1326:A1 *1394:A1 0.000116029
15 *1326:A1 *324:19 0.000111536
16 *1328:A1 *1276:C1 3.57366e-05
17 *1394:A0 *1394:A1 4.33174e-05
18 *1394:A0 *324:19 1.37292e-05
19 *1394:S *1394:A1 0.000119125
20 *1516:A *1394:A1 0.000140933
21 *1516:A *324:6 9.90431e-05
22 *1516:A *324:19 7.09608e-05
23 *176:60 *1276:C1 0.000156333
24 *201:78 *1276:C1 0
25 *201:78 *324:19 0
26 *290:22 *1276:C1 2.56601e-05
27 *290:22 *1505:A 0.000149489
28 *290:28 *1276:C1 9.71197e-05
*RES
1 *1453:Q *324:6 10.2464 
2 *324:6 *1394:A1 16.7286 
3 *324:6 *324:19 7.96429 
4 *324:19 *1505:A 17.6214 
5 *324:19 *1276:C1 20.8357 
*END

*D_NET *325 0.00142558
*CONN
*I *1245:A I *D sky130_fd_sc_hd__inv_2
*I *1569:A I *D sky130_fd_sc_hd__dlygate4sd3_1
*I *1454:Q O *D sky130_fd_sc_hd__dfrtp_1
*CAP
1 *1245:A 0.000289138
2 *1569:A 0
3 *1454:Q 0.000115498
4 *325:6 0.000404636
5 *1394:A0 *1245:A 0
6 *1516:A *1245:A 3.06376e-05
7 *181:12 *1245:A 0
8 *201:62 *1245:A 1.94879e-05
9 *201:78 *1245:A 0.000147125
10 *273:62 *1245:A 5.52238e-05
11 *273:62 *325:6 0.000363837
*RES
1 *1454:Q *325:6 12.7107 
2 *325:6 *1569:A 9.3 
3 *325:6 *1245:A 23.5143 
*END

*D_NET *326 0.00358269
*CONN
*I *1507:A I *D sky130_fd_sc_hd__dlygate4sd3_1
*I *1299:C1 I *D sky130_fd_sc_hd__o221a_1
*I *1444:Q O *D sky130_fd_sc_hd__dfrtp_1
*CAP
1 *1507:A 0.000274739
2 *1299:C1 0.0010793
3 *1444:Q 0
4 *326:6 0.00135404
5 *1281:C1 *1299:C1 0.000127852
6 *1299:B1 *1299:C1 2.50566e-05
7 *1377:A0 *1299:C1 8.14011e-05
8 *1384:A1 *1507:A 0
9 *1385:A1 *1299:C1 1.76135e-05
10 *1385:A1 *1507:A 5.33882e-05
11 *1437:CLK *1299:C1 0
12 *1437:D *1299:C1 2.89016e-05
13 *1437:RESET_B *1299:C1 9.17414e-05
14 *1443:RESET_B *1299:C1 0
15 *1445:CLK *1299:C1 7.44918e-05
16 *1445:CLK *1507:A 9.11365e-06
17 *1547:A *1299:C1 9.27685e-05
18 *1561:A *1299:C1 7.6021e-05
19 *199:100 *1299:C1 0
20 *219:10 *1507:A 6.26653e-05
21 *272:12 *1299:C1 0.000133596
*RES
1 *1444:Q *326:6 13.8 
2 *326:6 *1299:C1 33.1571 
3 *326:6 *1507:A 19.2286 
*END

*D_NET *327 0.00375723
*CONN
*I *1271:C1 I *D sky130_fd_sc_hd__o221a_1
*I *1386:A1 I *D sky130_fd_sc_hd__mux2_1
*I *1518:A I *D sky130_fd_sc_hd__dlygate4sd3_1
*I *1445:Q O *D sky130_fd_sc_hd__dfrtp_1
*CAP
1 *1271:C1 0.000712118
2 *1386:A1 0.000254773
3 *1518:A 0
4 *1445:Q 0.000179609
5 *327:10 0.000383727
6 *327:6 0.00102068
7 *1270:A *1271:C1 4.1331e-06
8 *1375:A0 *1271:C1 0.000169328
9 *1377:A0 *1271:C1 0.000364253
10 *1385:A0 *327:10 0
11 *1386:A0 *1386:A1 5.71472e-05
12 *1386:S *1386:A1 0.000119203
13 *1446:CLK *327:6 3.18676e-05
14 *1446:D *1386:A1 0.00014279
15 *1446:D *327:10 0.000179656
16 *1446:RESET_B *1271:C1 0
17 *1551:A *1271:C1 0
18 *176:34 *1271:C1 0
19 *263:10 *1271:C1 0.000137939
*RES
1 *1445:Q *327:6 11.4786 
2 *327:6 *327:10 7.66071 
3 *327:10 *1518:A 13.8 
4 *327:10 *1386:A1 18.3357 
5 *327:6 *1271:C1 32.2464 
*END

*D_NET *328 0.00196394
*CONN
*I *1512:A I *D sky130_fd_sc_hd__dlygate4sd3_1
*I *1304:C1 I *D sky130_fd_sc_hd__o221a_1
*I *1446:Q O *D sky130_fd_sc_hd__dfrtp_1
*CAP
1 *1512:A 0.000344492
2 *1304:C1 0.000212826
3 *1446:Q 0
4 *328:6 0.000557318
5 *1301:B *1512:A 0
6 *1304:B1 *1304:C1 3.76337e-05
7 *1372:A1 *1304:C1 0.000274294
8 *1372:A1 *1512:A 0
9 *1387:A1 *1512:A 9.90431e-05
10 *1431:D *1512:A 7.83587e-05
11 *1446:RESET_B *1304:C1 0
12 *1446:RESET_B *1512:A 0
13 *1447:RESET_B *1512:A 0
14 *194:64 *1304:C1 5.33005e-05
15 *194:74 *1304:C1 4.51641e-05
16 *199:30 *1304:C1 0.000261513
17 *200:64 *1512:A 0
*RES
1 *1446:Q *328:6 13.8 
2 *328:6 *1304:C1 20.2107 
3 *328:6 *1512:A 20.3357 
*END

*D_NET *329 0.002858
*CONN
*I *1517:A I *D sky130_fd_sc_hd__dlygate4sd3_1
*I *1260:C1 I *D sky130_fd_sc_hd__o221a_1
*I *1447:Q O *D sky130_fd_sc_hd__dfrtp_1
*CAP
1 *1517:A 3.82418e-05
2 *1260:C1 0.000911807
3 *1447:Q 5.05962e-05
4 *329:6 0.00100065
5 *1305:C1 *1260:C1 0.000289682
6 *1387:A0 *1260:C1 0.00020112
7 *1387:S *1260:C1 0
8 *1426:RESET_B *1260:C1 0.000268521
9 *1427:D *1260:C1 0
10 *1427:RESET_B *1260:C1 0
11 *1447:CLK *1260:C1 0
12 *1546:A *1260:C1 5.03772e-05
13 *180:10 *1260:C1 0
14 *180:47 *1260:C1 0
15 *180:64 *1260:C1 0
16 *188:59 *1260:C1 0
17 *189:61 *1260:C1 4.70078e-05
*RES
1 *1447:Q *329:6 9.83571 
2 *329:6 *1260:C1 36.9964 
3 *329:6 *1517:A 10.0321 
*END

*D_NET *330 0.00408937
*CONN
*I *1389:A1 I *D sky130_fd_sc_hd__mux2_1
*I *1519:A I *D sky130_fd_sc_hd__dlygate4sd3_1
*I *1315:C1 I *D sky130_fd_sc_hd__o221a_1
*I *1448:Q O *D sky130_fd_sc_hd__dfrtp_1
*CAP
1 *1389:A1 0.000319127
2 *1519:A 0.000421285
3 *1315:C1 0.00020023
4 *1448:Q 0.000163903
5 *330:25 0.000807464
6 *330:12 0.000431185
7 *1315:B1 *1315:C1 0.000249486
8 *1363:A1 *1389:A1 0.000272371
9 *1366:A0 *1389:A1 0.000262877
10 *1366:A0 *330:25 0.00010096
11 *1366:A1 *330:12 9.41642e-05
12 *1388:A0 *1519:A 0
13 *1388:S *1315:C1 5.58941e-05
14 *1388:S *1519:A 0
15 *1424:CLK *330:12 0.000103267
16 *1424:D *1519:A 4.1331e-06
17 *1544:A *1389:A1 0.000188586
18 *1544:A *1519:A 0
19 *186:104 *1389:A1 0.000114893
20 *186:104 *330:25 1.02936e-05
21 *306:8 *330:12 9.60875e-05
22 *306:12 *1315:C1 0.000100735
23 *306:14 *1315:C1 9.24299e-05
*RES
1 *1448:Q *330:12 21.4071 
2 *330:12 *1315:C1 23.5857 
3 *330:12 *330:25 1.35714 
4 *330:25 *1519:A 25.7643 
5 *330:25 *1389:A1 17.2286 
*END

*D_NET *331 0.00283005
*CONN
*I *1508:A I *D sky130_fd_sc_hd__dlygate4sd3_1
*I *1290:C1 I *D sky130_fd_sc_hd__o221a_1
*I *1449:Q O *D sky130_fd_sc_hd__dfrtp_1
*CAP
1 *1508:A 0.00014478
2 *1290:C1 0.000519372
3 *1449:Q 3.01226e-05
4 *331:6 0.000694274
5 *1255:A *1290:C1 0.000122485
6 *1362:A0 *1290:C1 0.000327771
7 *1389:A0 *1290:C1 0.000101545
8 *1389:A0 *1508:A 0
9 *1390:A1 *1290:C1 0
10 *1424:RESET_B *1290:C1 6.36336e-05
11 *1449:RESET_B *1290:C1 9.23695e-05
12 *1449:RESET_B *331:6 5.52302e-05
13 *1542:A *1508:A 0.000128214
14 *186:40 *1290:C1 0
15 *186:59 *1290:C1 5.41794e-05
16 *186:98 *1290:C1 0.00049607
*RES
1 *1449:Q *331:6 9.83571 
2 *331:6 *1290:C1 30.6571 
3 *331:6 *1508:A 21.4607 
*END

*D_NET *332 0.0051729
*CONN
*I *1510:A I *D sky130_fd_sc_hd__dlygate4sd3_1
*I *1391:A1 I *D sky130_fd_sc_hd__mux2_1
*I *1266:C1 I *D sky130_fd_sc_hd__o221a_1
*I *1450:Q O *D sky130_fd_sc_hd__dfrtp_1
*CAP
1 *1510:A 4.50522e-05
2 *1391:A1 0.000586962
3 *1266:C1 0.000539777
4 *1450:Q 7.40481e-05
5 *332:16 0.00155816
6 *332:8 0.000550526
7 *1265:B1 *1391:A1 2.44318e-05
8 *1266:A1 *1266:C1 0.000436723
9 *1266:A1 *1391:A1 4.38128e-05
10 *1266:A2 *1266:C1 0.000140933
11 *1267:C *1391:A1 7.79781e-06
12 *1291:C_N *332:16 0.000165011
13 *1390:A0 *332:16 0
14 *1395:S *1391:A1 0
15 *1403:A1 *1391:A1 0
16 *1421:RESET_B *1510:A 6.39901e-05
17 *1421:RESET_B *332:16 3.17163e-05
18 *1450:RESET_B *332:8 5.67624e-05
19 *1455:D *1391:A1 0.000291993
20 *118:12 *1266:C1 1.25363e-05
21 *202:26 *332:16 0.000125724
22 *315:23 *1510:A 6.74911e-05
23 *315:23 *332:16 0.000115466
24 *315:29 *1391:A1 8.55173e-05
25 *315:29 *332:16 0.000148465
*RES
1 *1450:Q *332:8 14.7464 
2 *332:8 *332:16 15 
3 *332:16 *1266:C1 16.7286 
4 *332:16 *1391:A1 28.0857 
5 *332:8 *1510:A 15.4429 
*END

*D_NET *333 0.0019226
*CONN
*I *1571:A I *D sky130_fd_sc_hd__dlygate4sd3_1
*I *1310:C1 I *D sky130_fd_sc_hd__o221a_1
*I *1451:Q O *D sky130_fd_sc_hd__dfrtp_1
*CAP
1 *1571:A 7.34589e-05
2 *1310:C1 0.000815023
3 *1451:Q 0
4 *333:4 0.000888482
5 *1306:B *1571:A 5.80706e-06
6 *1310:A2 *1310:C1 0
7 *1392:A1 *1571:A 0.00012401
8 *1451:CLK *1310:C1 1.58163e-05
9 *203:50 *1571:A 0
*RES
1 *1451:Q *333:4 9.3 
2 *333:4 *1310:C1 18.7821 
3 *333:4 *1571:A 19.9429 
*END

*D_NET *334 0.00720697
*CONN
*I *1511:A I *D sky130_fd_sc_hd__dlygate4sd3_1
*I *1294:C1 I *D sky130_fd_sc_hd__o221a_1
*I *1393:A1 I *D sky130_fd_sc_hd__mux2_1
*I *1452:Q O *D sky130_fd_sc_hd__dfrtp_1
*CAP
1 *1511:A 0.000381079
2 *1294:C1 0.00025762
3 *1393:A1 0.000132656
4 *1452:Q 0
5 *334:8 0.00193138
6 *334:4 0.00192218
7 *1239:A *1294:C1 0
8 *1243:A *334:8 0.000635573
9 *1295:B *1294:C1 0.000102545
10 *1295:C_N *1294:C1 3.57844e-05
11 *1296:D *1294:C1 0
12 *1359:A1 *334:8 2.88018e-06
13 *1393:A0 *1393:A1 3.18676e-05
14 *1419:CLK *1393:A1 4.46186e-06
15 *1464:D *334:8 0.000142856
16 *1472:A *334:8 3.22663e-05
17 *1499:A *1511:A 0
18 *1506:A *1294:C1 2.58997e-05
19 *1506:A *1393:A1 4.15914e-05
20 *1506:A *334:8 5.03772e-05
21 *1556:A *1511:A 0.000320024
22 *1556:A *334:8 0.000617066
23 *1573:A *1511:A 0
24 *182:26 *1294:C1 0.000134115
25 *182:26 *1393:A1 5.74562e-05
26 *189:12 *1294:C1 1.19402e-05
27 *203:10 *1511:A 0
28 *273:50 *1393:A1 9.93135e-05
29 *290:22 *1393:A1 0.000236039
30 *292:33 *1294:C1 0
31 *292:33 *1393:A1 0
*RES
1 *1452:Q *334:4 9.3 
2 *334:4 *334:8 25.9821 
3 *334:8 *1393:A1 18.4429 
4 *334:8 *1294:C1 19.6929 
5 *334:4 *1511:A 25.4071 
*END

*D_NET *335 0.000785077
*CONN
*I *1503:A I *D sky130_fd_sc_hd__dlygate4sd3_1
*I *1429:Q O *D sky130_fd_sc_hd__dfrtp_1
*CAP
1 *1503:A 0.000213228
2 *1429:Q 0.000213228
3 *1429:RESET_B *1503:A 0.000230475
4 *193:21 *1503:A 0.000128146
*RES
1 *1429:Q *1503:A 31.4214 
*END

*D_NET *336 0.00046561
*CONN
*I *1514:A I *D sky130_fd_sc_hd__dlygate4sd3_1
*I *1439:Q O *D sky130_fd_sc_hd__dfrtp_1
*CAP
1 *1514:A 9.61709e-05
2 *1439:Q 9.61709e-05
3 *197:51 *1514:A 0.000273269
*RES
1 *1439:Q *1514:A 21.1893 
*END

*D_NET *337 0.000614633
*CONN
*I *1525:A I *D sky130_fd_sc_hd__dlygate4sd3_1
*I *1458:Q O *D sky130_fd_sc_hd__dfrtp_1
*CAP
1 *1525:A 0.000167677
2 *1458:Q 0.000167677
3 *1491:A *1525:A 5.71472e-05
4 *197:51 *1525:A 5.33005e-05
5 *198:32 *1525:A 4.48206e-05
6 *281:33 *1525:A 0.00012401
*RES
1 *1458:Q *1525:A 30.85 
*END

*D_NET *338 0.00127915
*CONN
*I *1325:A I *D sky130_fd_sc_hd__and4_1
*I *1465:Q O *D sky130_fd_sc_hd__dfrtp_1
*CAP
1 *1325:A 0.000233576
2 *1465:Q 0.000233576
3 *192:8 *1325:A 5.52302e-05
4 *192:53 *1325:A 0.00014183
5 *204:35 *1325:A 4.27935e-05
6 *204:39 *1325:A 0.000572143
*RES
1 *1465:Q *1325:A 24.475 
*END
