*SPEF "ieee 1481-1999"
*DESIGN "rng_top"
*DATE "23:02:54 Thursday March 12, 2026"
*VENDOR "The OpenROAD Project"
*PROGRAM "OpenROAD"
*VERSION "edf00dff99f6c40d67a30c0e22a8191c5d2ed9d6"
*DESIGN_FLOW "NAME_SCOPE LOCAL" "PIN_CAP NONE"
*DIVIDER /
*DELIMITER :
*BUS_DELIMITER []
*T_UNIT 1 NS
*C_UNIT 1 PF
*R_UNIT 1 OHM
*L_UNIT 1 HENRY

*NAME_MAP
*3 clk_i
*4 num_to_send_o[0]
*5 num_to_send_o[1]
*6 num_to_send_o[2]
*7 req_num_i
*8 rst_i
*9 wr_i
*10 _000_
*11 _001_
*12 _002_
*13 _003_
*14 _004_
*15 _005_
*16 _006_
*17 _007_
*18 _008_
*19 _009_
*20 _010_
*21 _011_
*22 _012_
*23 _013_
*24 _014_
*25 _015_
*26 _016_
*27 _017_
*28 _018_
*29 _019_
*30 _020_
*31 _021_
*32 _022_
*33 _023_
*34 _024_
*35 _025_
*36 _026_
*37 _027_
*38 _028_
*39 _029_
*40 _030_
*41 _031_
*42 _032_
*43 _033_
*44 _034_
*45 _035_
*46 _036_
*47 _037_
*48 _038_
*49 _039_
*50 _040_
*51 _041_
*52 _042_
*53 _043_
*54 _044_
*55 _045_
*56 _046_
*57 _047_
*58 _048_
*59 _049_
*60 _050_
*61 _051_
*62 _052_
*63 _053_
*64 _054_
*65 _055_
*66 _056_
*67 _057_
*68 _058_
*69 _059_
*70 _060_
*71 _061_
*72 _062_
*73 _063_
*74 _064_
*75 _065_
*76 _066_
*77 _067_
*78 _068_
*79 _069_
*80 _070_
*81 _071_
*82 _072_
*83 _073_
*84 _074_
*85 _075_
*86 _076_
*87 _077_
*88 _078_
*89 _079_
*90 _080_
*91 clknet_0_clk_i
*92 clknet_2_0__leaf_clk_i
*93 clknet_2_1__leaf_clk_i
*94 clknet_2_2__leaf_clk_i
*95 clknet_2_3__leaf_clk_i
*96 net1
*97 net10
*98 net11
*99 net12
*100 net13
*101 net14
*102 net15
*103 net16
*104 net17
*105 net18
*106 net19
*107 net2
*108 net20
*109 net21
*110 net22
*111 net23
*112 net24
*113 net25
*114 net26
*115 net27
*116 net28
*117 net29
*118 net3
*119 net30
*120 net31
*121 net32
*122 net33
*123 net34
*124 net35
*125 net36
*126 net37
*127 net38
*128 net39
*129 net4
*130 net40
*131 net41
*132 net42
*133 net43
*134 net44
*135 net45
*136 net46
*137 net47
*138 net48
*139 net49
*140 net5
*141 net50
*142 net51
*143 net52
*144 net53
*145 net54
*146 net55
*147 net6
*148 net7
*149 net8
*150 net9
*151 num_i_bar\[0\]
*152 num_i_bar\[1\]
*153 num_i_bar\[2\]
*154 req_num_again
*155 rng_rd\.cache\[0\]
*156 rng_rd\.cache\[1\]
*157 rng_rd\.cache\[2\]
*158 rng_rd\.ram_1\[0\]
*159 rng_rd\.ram_1\[1\]
*160 rng_rd\.ram_1\[2\]
*161 rng_rd\.ram_2\[0\]
*162 rng_rd\.ram_2\[1\]
*163 rng_rd\.ram_2\[2\]
*164 rng_rd\.ram_3\[0\]
*165 rng_rd\.ram_3\[1\]
*166 rng_rd\.ram_3\[2\]
*167 rng_rd\.ram_4\[0\]
*168 rng_rd\.ram_4\[1\]
*169 rng_rd\.ram_4\[2\]
*170 rng_rd\.ram_5\[0\]
*171 rng_rd\.ram_5\[1\]
*172 rng_rd\.ram_5\[2\]
*173 rng_rd\.ram_6\[0\]
*174 rng_rd\.ram_6\[1\]
*175 rng_rd\.ram_6\[2\]
*176 rng_rd\.ram_7\[0\]
*177 rng_rd\.ram_7\[1\]
*178 rng_rd\.ram_7\[2\]
*179 rng_rd\.wr_ff1
*180 rng_rd\.wr_ff2
*181 rng_rd\.wr_ff2_d
*182 rng_rd\.wr_pulse
*183 FILLER_0_109
*184 FILLER_0_111
*185 FILLER_0_113
*186 FILLER_0_15
*187 FILLER_0_27
*188 FILLER_0_3
*189 FILLER_0_37
*190 FILLER_0_41
*191 FILLER_0_51
*192 FILLER_0_55
*193 FILLER_0_65
*194 FILLER_0_77
*195 FILLER_0_81
*196 FILLER_0_83
*197 FILLER_0_85
*198 FILLER_0_97
*199 FILLER_10_101
*200 FILLER_10_123
*201 FILLER_10_29
*202 FILLER_10_33
*203 FILLER_10_35
*204 FILLER_10_47
*205 FILLER_10_53
*206 FILLER_10_55
*207 FILLER_10_65
*208 FILLER_10_7
*209 FILLER_10_83
*210 FILLER_10_85
*211 FILLER_10_97
*212 FILLER_11_103
*213 FILLER_11_122
*214 FILLER_11_124
*215 FILLER_11_3
*216 FILLER_11_40
*217 FILLER_11_5
*218 FILLER_11_52
*219 FILLER_11_57
*220 FILLER_11_89
*221 FILLER_11_93
*222 FILLER_11_99
*223 FILLER_12_110
*224 FILLER_12_114
*225 FILLER_12_116
*226 FILLER_12_15
*227 FILLER_12_25
*228 FILLER_12_27
*229 FILLER_12_29
*230 FILLER_12_3
*231 FILLER_12_33
*232 FILLER_12_83
*233 FILLER_12_85
*234 FILLER_13_101
*235 FILLER_13_122
*236 FILLER_13_124
*237 FILLER_13_13
*238 FILLER_13_25
*239 FILLER_13_3
*240 FILLER_13_33
*241 FILLER_13_35
*242 FILLER_13_7
*243 FILLER_13_9
*244 FILLER_13_97
*245 FILLER_14_102
*246 FILLER_14_123
*247 FILLER_14_23
*248 FILLER_14_27
*249 FILLER_14_49
*250 FILLER_15_15
*251 FILLER_15_17
*252 FILLER_15_3
*253 FILLER_15_44
*254 FILLER_15_57
*255 FILLER_16_120
*256 FILLER_16_124
*257 FILLER_16_3
*258 FILLER_16_46
*259 FILLER_16_56
*260 FILLER_16_85
*261 FILLER_17_101
*262 FILLER_17_109
*263 FILLER_17_111
*264 FILLER_17_113
*265 FILLER_17_47
*266 FILLER_17_55
*267 FILLER_17_57
*268 FILLER_17_66
*269 FILLER_17_77
*270 FILLER_18_109
*271 FILLER_18_121
*272 FILLER_18_26
*273 FILLER_18_49
*274 FILLER_18_51
*275 FILLER_18_72
*276 FILLER_18_85
*277 FILLER_18_97
*278 FILLER_19_106
*279 FILLER_19_110
*280 FILLER_19_113
*281 FILLER_19_3
*282 FILLER_19_50
*283 FILLER_19_54
*284 FILLER_19_57
*285 FILLER_19_61
*286 FILLER_19_82
*287 FILLER_19_94
*288 FILLER_1_101
*289 FILLER_1_109
*290 FILLER_1_111
*291 FILLER_1_113
*292 FILLER_1_32
*293 FILLER_1_77
*294 FILLER_1_89
*295 FILLER_20_109
*296 FILLER_20_121
*297 FILLER_20_24
*298 FILLER_20_3
*299 FILLER_20_37
*300 FILLER_20_41
*301 FILLER_20_63
*302 FILLER_20_65
*303 FILLER_20_74
*304 FILLER_20_82
*305 FILLER_20_85
*306 FILLER_20_97
*307 FILLER_21_105
*308 FILLER_21_109
*309 FILLER_21_111
*310 FILLER_21_113
*311 FILLER_21_15
*312 FILLER_21_3
*313 FILLER_21_36
*314 FILLER_21_44
*315 FILLER_21_46
*316 FILLER_21_55
*317 FILLER_21_57
*318 FILLER_21_61
*319 FILLER_21_69
*320 FILLER_21_81
*321 FILLER_21_93
*322 FILLER_22_109
*323 FILLER_22_111
*324 FILLER_22_113
*325 FILLER_22_15
*326 FILLER_22_27
*327 FILLER_22_29
*328 FILLER_22_3
*329 FILLER_22_41
*330 FILLER_22_53
*331 FILLER_22_55
*332 FILLER_22_57
*333 FILLER_22_69
*334 FILLER_22_81
*335 FILLER_22_83
*336 FILLER_22_85
*337 FILLER_22_97
*338 FILLER_2_105
*339 FILLER_2_117
*340 FILLER_2_121
*341 FILLER_2_29
*342 FILLER_2_3
*343 FILLER_2_59
*344 FILLER_2_63
*345 FILLER_2_7
*346 FILLER_3_107
*347 FILLER_3_111
*348 FILLER_3_113
*349 FILLER_3_18
*350 FILLER_3_3
*351 FILLER_3_39
*352 FILLER_3_49
*353 FILLER_3_57
*354 FILLER_3_68
*355 FILLER_3_7
*356 FILLER_4_113
*357 FILLER_4_20
*358 FILLER_4_3
*359 FILLER_4_46
*360 FILLER_4_58
*361 FILLER_4_85
*362 FILLER_4_87
*363 FILLER_5_106
*364 FILLER_5_110
*365 FILLER_5_113
*366 FILLER_5_41
*367 FILLER_5_45
*368 FILLER_5_47
*369 FILLER_5_55
*370 FILLER_5_57
*371 FILLER_5_67
*372 FILLER_5_94
*373 FILLER_5_98
*374 FILLER_6_121
*375 FILLER_6_26
*376 FILLER_6_49
*377 FILLER_6_53
*378 FILLER_6_58
*379 FILLER_6_60
*380 FILLER_6_7
*381 FILLER_6_81
*382 FILLER_6_83
*383 FILLER_6_9
*384 FILLER_6_97
*385 FILLER_7_102
*386 FILLER_7_110
*387 FILLER_7_122
*388 FILLER_7_124
*389 FILLER_7_22
*390 FILLER_7_49
*391 FILLER_7_7
*392 FILLER_7_73
*393 FILLER_7_77
*394 FILLER_8_113
*395 FILLER_8_12
*396 FILLER_8_24
*397 FILLER_8_29
*398 FILLER_8_3
*399 FILLER_8_42
*400 FILLER_8_72
*401 FILLER_9_110
*402 FILLER_9_113
*403 FILLER_9_23
*404 FILLER_9_27
*405 FILLER_9_84
*406 FILLER_9_86
*407 PHY_EDGE_ROW_0_Left_23
*408 PHY_EDGE_ROW_0_Right_0
*409 PHY_EDGE_ROW_10_Left_33
*410 PHY_EDGE_ROW_10_Right_10
*411 PHY_EDGE_ROW_11_Left_34
*412 PHY_EDGE_ROW_11_Right_11
*413 PHY_EDGE_ROW_12_Left_35
*414 PHY_EDGE_ROW_12_Right_12
*415 PHY_EDGE_ROW_13_Left_36
*416 PHY_EDGE_ROW_13_Right_13
*417 PHY_EDGE_ROW_14_Left_37
*418 PHY_EDGE_ROW_14_Right_14
*419 PHY_EDGE_ROW_15_Left_38
*420 PHY_EDGE_ROW_15_Right_15
*421 PHY_EDGE_ROW_16_Left_39
*422 PHY_EDGE_ROW_16_Right_16
*423 PHY_EDGE_ROW_17_Left_40
*424 PHY_EDGE_ROW_17_Right_17
*425 PHY_EDGE_ROW_18_Left_41
*426 PHY_EDGE_ROW_18_Right_18
*427 PHY_EDGE_ROW_19_Left_42
*428 PHY_EDGE_ROW_19_Right_19
*429 PHY_EDGE_ROW_1_Left_24
*430 PHY_EDGE_ROW_1_Right_1
*431 PHY_EDGE_ROW_20_Left_43
*432 PHY_EDGE_ROW_20_Right_20
*433 PHY_EDGE_ROW_21_Left_44
*434 PHY_EDGE_ROW_21_Right_21
*435 PHY_EDGE_ROW_22_Left_45
*436 PHY_EDGE_ROW_22_Right_22
*437 PHY_EDGE_ROW_2_Left_25
*438 PHY_EDGE_ROW_2_Right_2
*439 PHY_EDGE_ROW_3_Left_26
*440 PHY_EDGE_ROW_3_Right_3
*441 PHY_EDGE_ROW_4_Left_27
*442 PHY_EDGE_ROW_4_Right_4
*443 PHY_EDGE_ROW_5_Left_28
*444 PHY_EDGE_ROW_5_Right_5
*445 PHY_EDGE_ROW_6_Left_29
*446 PHY_EDGE_ROW_6_Right_6
*447 PHY_EDGE_ROW_7_Left_30
*448 PHY_EDGE_ROW_7_Right_7
*449 PHY_EDGE_ROW_8_Left_31
*450 PHY_EDGE_ROW_8_Right_8
*451 PHY_EDGE_ROW_9_Left_32
*452 PHY_EDGE_ROW_9_Right_9
*453 TAP_TAPCELL_ROW_0_46
*454 TAP_TAPCELL_ROW_0_47
*455 TAP_TAPCELL_ROW_0_48
*456 TAP_TAPCELL_ROW_0_49
*457 TAP_TAPCELL_ROW_10_68
*458 TAP_TAPCELL_ROW_10_69
*459 TAP_TAPCELL_ROW_11_70
*460 TAP_TAPCELL_ROW_11_71
*461 TAP_TAPCELL_ROW_12_72
*462 TAP_TAPCELL_ROW_12_73
*463 TAP_TAPCELL_ROW_13_74
*464 TAP_TAPCELL_ROW_13_75
*465 TAP_TAPCELL_ROW_14_76
*466 TAP_TAPCELL_ROW_14_77
*467 TAP_TAPCELL_ROW_15_78
*468 TAP_TAPCELL_ROW_15_79
*469 TAP_TAPCELL_ROW_16_80
*470 TAP_TAPCELL_ROW_16_81
*471 TAP_TAPCELL_ROW_17_82
*472 TAP_TAPCELL_ROW_17_83
*473 TAP_TAPCELL_ROW_18_84
*474 TAP_TAPCELL_ROW_18_85
*475 TAP_TAPCELL_ROW_19_86
*476 TAP_TAPCELL_ROW_19_87
*477 TAP_TAPCELL_ROW_1_50
*478 TAP_TAPCELL_ROW_1_51
*479 TAP_TAPCELL_ROW_20_88
*480 TAP_TAPCELL_ROW_20_89
*481 TAP_TAPCELL_ROW_21_90
*482 TAP_TAPCELL_ROW_21_91
*483 TAP_TAPCELL_ROW_22_92
*484 TAP_TAPCELL_ROW_22_93
*485 TAP_TAPCELL_ROW_22_94
*486 TAP_TAPCELL_ROW_22_95
*487 TAP_TAPCELL_ROW_2_52
*488 TAP_TAPCELL_ROW_2_53
*489 TAP_TAPCELL_ROW_3_54
*490 TAP_TAPCELL_ROW_3_55
*491 TAP_TAPCELL_ROW_4_56
*492 TAP_TAPCELL_ROW_4_57
*493 TAP_TAPCELL_ROW_5_58
*494 TAP_TAPCELL_ROW_5_59
*495 TAP_TAPCELL_ROW_6_60
*496 TAP_TAPCELL_ROW_6_61
*497 TAP_TAPCELL_ROW_7_62
*498 TAP_TAPCELL_ROW_7_63
*499 TAP_TAPCELL_ROW_8_64
*500 TAP_TAPCELL_ROW_8_65
*501 TAP_TAPCELL_ROW_9_66
*502 TAP_TAPCELL_ROW_9_67
*503 _081_
*504 _082_
*505 _083_
*506 _084_
*507 _085_
*508 _086_
*509 _087_
*510 _088_
*511 _089_
*512 _090_
*513 _091_
*514 _092_
*515 _093_
*516 _094_
*517 _095_
*518 _096_
*519 _097_
*520 _098_
*521 _099_
*522 _100_
*523 _101_
*524 _102_
*525 _103_
*526 _104_
*527 _105_
*528 _106_
*529 _107_
*530 _108_
*531 _109_
*532 _110_
*533 _111_
*534 _112_
*535 _113_
*536 _114_
*537 _115_
*538 _116_
*539 _117_
*540 _118_
*541 _119_
*542 _120_
*543 _121_
*544 _122_
*545 _123_
*546 _124_
*547 _125_
*548 _126_
*549 _127_
*550 _128_
*551 _129_
*552 _130_
*553 _131_
*554 _132_
*555 _133_
*556 _134_
*557 _135_
*558 _136_
*559 _137_
*560 _138_
*561 _139_
*562 _140_
*563 _141_
*564 _142_
*565 _143_
*566 _144_
*567 _145_
*568 _146_
*569 _147_
*570 _148_
*571 _149_
*572 _150_
*573 _151_
*574 _152_
*575 _153_
*576 _154_
*577 _155_
*578 _156_
*579 _157_
*580 _158_
*581 _159_
*582 _160_
*583 _161_
*584 _162_
*585 _163_
*586 _164_
*587 _165_
*588 _166_
*589 _167_
*590 _168_
*591 _169_
*592 _170_
*593 _171_
*594 _172_
*595 _173_
*596 _174_
*597 _175_
*598 _176_
*599 _177_
*600 _178_
*601 _179_
*602 _180_
*603 _181_
*604 _182_
*605 _183_
*606 _184_
*607 _185_
*608 _186_
*609 _187_
*610 _188_
*611 _189_
*612 _190_
*613 _191_
*614 _192_
*615 _193_
*616 _194_
*617 _195_
*618 _196_
*619 clkbuf_0_clk_i
*620 clkbuf_2_0__f_clk_i
*621 clkbuf_2_1__f_clk_i
*622 clkbuf_2_2__f_clk_i
*623 clkbuf_2_3__f_clk_i
*624 clkload0
*625 clkload1
*626 clkload2
*627 fanout10
*628 fanout11
*629 fanout12
*630 fanout13
*631 fanout14
*632 fanout15
*633 fanout16
*634 fanout7
*635 fanout8
*636 fanout9
*637 hold1
*638 hold10
*639 hold11
*640 hold12
*641 hold13
*642 hold14
*643 hold15
*644 hold16
*645 hold17
*646 hold18
*647 hold19
*648 hold2
*649 hold20
*650 hold21
*651 hold22
*652 hold23
*653 hold24
*654 hold25
*655 hold26
*656 hold27
*657 hold28
*658 hold29
*659 hold3
*660 hold30
*661 hold31
*662 hold32
*663 hold33
*664 hold34
*665 hold35
*666 hold36
*667 hold37
*668 hold38
*669 hold39
*670 hold4
*671 hold5
*672 hold6
*673 hold7
*674 hold8
*675 hold9
*676 input1
*677 input2
*678 input3
*679 output4
*680 output5
*681 output6

*PORTS
clk_i I
num_to_send_o[0] O
num_to_send_o[1] O
num_to_send_o[2] O
req_num_i I
rst_i I
wr_i I

*D_NET *3 0.0070762
*CONN
*P clk_i I
*I *619:A I *D sky130_fd_sc_hd__clkbuf_16
*CAP
1 clk_i 0.00308678
2 *619:A 0
3 *3:15 0.00308678
4 *3:15 *553:A1 0
5 *3:15 *615:RESET_B 7.80954e-05
6 *3:15 *678:A 3.25681e-05
7 *3:15 *39:8 4.23817e-05
8 *3:15 *102:8 0.000111148
9 *3:15 *102:10 0.00016419
10 *3:15 *102:14 8.51329e-05
11 *3:15 *102:71 0.000167412
12 *3:15 *102:87 4.07715e-05
13 *3:15 *108:10 0
14 *3:15 *137:8 0
15 *3:15 *176:29 0
16 *3:15 *179:10 0.000180933
17 *3:15 *181:10 0
*RES
1 clk_i *3:15 48.7692 
2 *3:15 *619:A 23 
*END

*D_NET *4 0.00123678
*CONN
*P num_to_send_o[0] O
*I *679:X O *D sky130_fd_sc_hd__buf_2
*CAP
1 num_to_send_o[0] 0.000245337
2 *679:X 0.000117977
3 *4:8 0.000363314
4 num_to_send_o[0] num_to_send_o[1] 2.12457e-05
5 num_to_send_o[0] num_to_send_o[2] 0
6 *4:8 *537:A 7.57361e-05
7 *4:8 *604:CLK 0.00014411
8 *4:8 *33:8 5.80963e-05
9 *4:8 *92:97 0.000210966
*RES
1 *679:X *4:8 42.5468 
2 *4:8 num_to_send_o[0] 8.84373 
*END

*D_NET *5 0.000787601
*CONN
*P num_to_send_o[1] O
*I *680:X O *D sky130_fd_sc_hd__buf_2
*CAP
1 num_to_send_o[1] 7.65184e-05
2 *680:X 0.000291036
3 *5:14 0.000367554
4 num_to_send_o[1] num_to_send_o[2] 1.5289e-05
5 *5:14 num_to_send_o[2] 1.59585e-05
6 num_to_send_o[0] num_to_send_o[1] 2.12457e-05
*RES
1 *680:X *5:14 49.9 
2 *5:14 num_to_send_o[1] 0.382667 
*END

*D_NET *6 0.000562178
*CONN
*P num_to_send_o[2] O
*I *681:X O *D sky130_fd_sc_hd__buf_2
*CAP
1 num_to_send_o[2] 0.00025414
2 *681:X 0.00025414
3 num_to_send_o[2] *92:31 2.26497e-05
4 num_to_send_o[0] num_to_send_o[2] 0
5 num_to_send_o[1] num_to_send_o[2] 1.5289e-05
6 *5:14 num_to_send_o[2] 1.59585e-05
*RES
1 *681:X num_to_send_o[2] 47.1648 
*END

*D_NET *7 0.000751546
*CONN
*P req_num_i I
*I *676:A I *D sky130_fd_sc_hd__buf_1
*CAP
1 req_num_i 0.000365619
2 *676:A 0
3 *7:17 0.000365619
4 *7:17 *678:A 2.0307e-05
5 *7:17 *56:8 0
*RES
1 req_num_i *7:17 27.8627 
2 *7:17 *676:A 23 
*END

*D_NET *8 0.000433451
*CONN
*P rst_i I
*I *677:A I *D sky130_fd_sc_hd__buf_1
*CAP
1 rst_i 0.000216725
2 *677:A 0.000216725
*RES
1 rst_i *677:A 47.0789 
*END

*D_NET *9 0.000568137
*CONN
*P wr_i I
*I *678:A I *D sky130_fd_sc_hd__buf_1
*CAP
1 wr_i 0.000257631
2 *678:A 0.000257631
3 *678:A *578:B 0
4 *3:15 *678:A 3.25681e-05
5 *7:17 *678:A 2.0307e-05
*RES
1 wr_i *678:A 49.5289 
*END

*D_NET *10 0.000574701
*CONN
*I *614:D I *D sky130_fd_sc_hd__dfrtp_1
*I *548:Y O *D sky130_fd_sc_hd__inv_2
*CAP
1 *614:D 0
2 *548:Y 0.000287351
3 *10:10 0.000287351
*RES
1 *548:Y *10:10 42.0807 
2 *10:10 *614:D 38 
*END

*D_NET *11 0.000941272
*CONN
*I *618:D I *D sky130_fd_sc_hd__dfrtp_1
*I *549:X O *D sky130_fd_sc_hd__and2b_1
*CAP
1 *618:D 8.50849e-05
2 *549:X 0.000178319
3 *11:8 0.000263403
4 *618:D *618:CLK 7.73389e-05
5 *11:8 *549:B 8.62876e-05
6 *11:8 *610:D 0.000250839
*RES
1 *549:X *11:8 42.3707 
2 *11:8 *618:D 39.5743 
*END

*D_NET *12 0.000907917
*CONN
*I *584:D I *D sky130_fd_sc_hd__dfrtp_1
*I *550:X O *D sky130_fd_sc_hd__mux2_1
*CAP
1 *584:D 0
2 *550:X 0.0003826
3 *12:10 0.0003826
4 *12:10 *94:51 6.38342e-05
5 *12:10 *103:42 7.88828e-05
6 *12:10 *154:8 0
*RES
1 *550:X *12:10 45.0014 
2 *12:10 *584:D 38 
*END

*D_NET *13 0.000482451
*CONN
*I *585:D I *D sky130_fd_sc_hd__dfrtp_1
*I *551:X O *D sky130_fd_sc_hd__mux2_1
*CAP
1 *585:D 0
2 *551:X 0.000134949
3 *13:10 0.000134949
4 *13:10 *551:A0 9.84794e-05
5 *13:10 *94:27 0
6 *13:10 *154:8 0.000114074
*RES
1 *551:X *13:10 40.6514 
2 *13:10 *585:D 38 
*END

*D_NET *14 0.000318044
*CONN
*I *586:D I *D sky130_fd_sc_hd__dfrtp_2
*I *552:X O *D sky130_fd_sc_hd__mux2_1
*CAP
1 *586:D 0.000107996
2 *552:X 0.000107996
3 *586:D *552:A0 0.000102052
*RES
1 *552:X *586:D 48.5479 
*END

*D_NET *15 0.000592847
*CONN
*I *638:A I *D sky130_fd_sc_hd__dlygate4sd3_1
*I *553:X O *D sky130_fd_sc_hd__mux2_1
*CAP
1 *638:A 0
2 *553:X 0.000198515
3 *15:8 0.000198515
4 *15:8 *114:10 5.3304e-05
5 *15:8 *149:129 0.000142513
*RES
1 *553:X *15:8 27.3293 
2 *15:8 *638:A 23 
*END

*D_NET *16 0.000938948
*CONN
*I *672:A I *D sky130_fd_sc_hd__dlygate4sd3_1
*I *554:X O *D sky130_fd_sc_hd__mux2_1
*CAP
1 *672:A 6.7315e-05
2 *554:X 0.000304151
3 *16:10 0.000371466
4 *672:A *157:38 7.88926e-05
5 *16:10 *588:RESET_B 0.000111852
6 *16:10 *110:10 0
7 *16:10 *150:12 0
8 *16:10 *174:19 5.27215e-06
*RES
1 *554:X *16:10 43.3443 
2 *16:10 *672:A 39.5743 
*END

*D_NET *17 0.00118397
*CONN
*I *674:A I *D sky130_fd_sc_hd__dlygate4sd3_1
*I *555:X O *D sky130_fd_sc_hd__mux2_1
*CAP
1 *674:A 0
2 *555:X 0.000397617
3 *17:10 0.000397617
4 *17:10 *511:B 0.000271476
5 *17:10 *512:B 9.18447e-05
6 *17:10 *69:8 0
7 *17:10 *178:8 2.5415e-05
*RES
1 *555:X *17:10 45.7264 
2 *17:10 *674:A 38 
*END

*D_NET *18 0.00202259
*CONN
*I *590:D I *D sky130_fd_sc_hd__dfrtp_1
*I *556:X O *D sky130_fd_sc_hd__mux2_1
*CAP
1 *590:D 0
2 *556:X 0.000777611
3 *18:10 0.000777611
4 *18:10 *556:S 0.000139357
5 *18:10 *170:10 0.000328014
*RES
1 *556:X *18:10 36.6507 
2 *18:10 *590:D 23 
*END

*D_NET *19 0.000799222
*CONN
*I *658:A I *D sky130_fd_sc_hd__dlygate4sd3_1
*I *557:X O *D sky130_fd_sc_hd__mux2_1
*CAP
1 *658:A 0
2 *557:X 0.000137575
3 *19:8 0.000137575
4 *19:8 *76:8 0.000350687
5 *19:8 *97:119 0.000173385
*RES
1 *557:X *19:8 42.7229 
2 *19:8 *658:A 38 
*END

*D_NET *20 0.00123898
*CONN
*I *592:D I *D sky130_fd_sc_hd__dfrtp_1
*I *558:X O *D sky130_fd_sc_hd__mux2_1
*CAP
1 *592:D 0
2 *558:X 0.00032439
3 *20:10 0.00032439
4 *20:10 *558:S 0.000400204
5 *20:10 *617:RESET_B 4.5882e-05
6 *20:10 *168:25 0.00014411
*RES
1 *558:X *20:10 44.3386 
2 *20:10 *592:D 38 
*END

*D_NET *21 0.000638206
*CONN
*I *594:D I *D sky130_fd_sc_hd__dfrtp_1
*I *559:X O *D sky130_fd_sc_hd__mux2_1
*CAP
1 *594:D 5.38276e-05
2 *559:X 7.89549e-05
3 *21:8 0.000132783
4 *594:D *93:68 7.88926e-05
5 *594:D *100:85 0.000182826
6 *21:8 *99:46 0.000110922
7 *21:8 *155:14 0
*RES
1 *559:X *21:8 39.5536 
2 *21:8 *594:D 40.0507 
*END

*D_NET *22 0.000420957
*CONN
*I *595:D I *D sky130_fd_sc_hd__dfrtp_1
*I *560:X O *D sky130_fd_sc_hd__mux2_1
*CAP
1 *595:D 0
2 *560:X 0.000169533
3 *22:10 0.000169533
4 *22:10 *560:A0 3.70071e-06
5 *22:10 *595:RESET_B 0
6 *22:10 *596:CLK 3.22879e-05
7 *22:10 *93:81 4.59027e-05
*RES
1 *560:X *22:10 41.0036 
2 *22:10 *595:D 38 
*END

*D_NET *23 0.000445007
*CONN
*I *596:D I *D sky130_fd_sc_hd__dfrtp_1
*I *561:X O *D sky130_fd_sc_hd__mux2_1
*CAP
1 *596:D 0
2 *561:X 0.000157203
3 *23:10 0.000157203
4 *23:10 *561:A1 9.84794e-05
5 *23:10 *595:RESET_B 4.21594e-06
6 *23:10 *93:77 0
7 *23:10 *101:10 2.79064e-05
*RES
1 *561:X *23:10 40.6514 
2 *23:10 *596:D 38 
*END

*D_NET *24 0.00133609
*CONN
*I *597:D I *D sky130_fd_sc_hd__dfrtp_1
*I *562:X O *D sky130_fd_sc_hd__mux2_1
*CAP
1 *597:D 0.0001054
2 *562:X 0.000295758
3 *24:10 0.000401158
4 *597:D *565:A0 6.99492e-05
5 *24:10 *540:A 2.4754e-05
6 *24:10 *562:A1 0.000140259
7 *24:10 *155:14 0.000186955
8 *24:10 *161:10 0.000111852
*RES
1 *562:X *24:10 43.0336 
2 *24:10 *597:D 39.5743 
*END

*D_NET *25 0.000661262
*CONN
*I *598:D I *D sky130_fd_sc_hd__dfrtp_1
*I *563:X O *D sky130_fd_sc_hd__mux2_1
*CAP
1 *598:D 0
2 *563:X 0.000218033
3 *25:10 0.000218033
4 *25:10 *563:A1 1.39317e-05
5 *25:10 *598:RESET_B 5.45887e-05
6 *25:10 *664:A 1.02387e-05
7 *25:10 *93:93 5.61311e-05
8 *25:10 *101:53 9.03054e-05
9 *25:10 *162:8 0
*RES
1 *563:X *25:10 42.9921 
2 *25:10 *598:D 38 
*END

*D_NET *26 0.000833109
*CONN
*I *646:A I *D sky130_fd_sc_hd__dlygate4sd3_1
*I *564:X O *D sky130_fd_sc_hd__mux2_1
*CAP
1 *646:A 0
2 *564:X 0.000227065
3 *26:10 0.000227065
4 *26:10 *560:A1 0.000128401
5 *26:10 *122:12 0.000111852
6 *26:10 *165:10 0
7 *26:10 *166:10 0.000138727
*RES
1 *564:X *26:10 42.4329 
2 *26:10 *646:A 38 
*END

*D_NET *27 0.00098622
*CONN
*I *643:A I *D sky130_fd_sc_hd__dlygate4sd3_1
*I *565:X O *D sky130_fd_sc_hd__mux2_1
*CAP
1 *643:A 5.55097e-05
2 *565:X 6.88279e-05
3 *27:8 0.000124338
4 *643:A *528:B 0.000229797
5 *643:A *92:12 0.000227473
6 *27:8 *529:A 0.000133658
7 *27:8 *97:12 1.00084e-05
8 *27:8 *148:35 0.000136609
*RES
1 *565:X *27:8 39.9057 
2 *27:8 *643:A 40.5271 
*END

*D_NET *28 0.000735653
*CONN
*I *601:D I *D sky130_fd_sc_hd__dfrtp_1
*I *566:X O *D sky130_fd_sc_hd__mux2_1
*CAP
1 *601:D 0
2 *566:X 0.000263049
3 *28:10 0.000263049
4 *28:10 *605:RESET_B 3.53516e-05
5 *28:10 *29:12 0.000168754
6 *28:10 *92:65 5.44889e-06
7 *28:10 *148:97 0
8 *28:10 *160:32 0
*RES
1 *566:X *28:10 42.9921 
2 *28:10 *601:D 38 
*END

*D_NET *29 0.0015531
*CONN
*I *665:A I *D sky130_fd_sc_hd__dlygate4sd3_1
*I *567:X O *D sky130_fd_sc_hd__mux2_1
*CAP
1 *665:A 0.000100658
2 *567:X 0.00037631
3 *29:12 0.000476968
4 *665:A *602:CLK 4.3198e-05
5 *665:A *92:59 0.000188927
6 *29:12 *567:A1 0.000106382
7 *29:12 *567:S 0
8 *29:12 *92:65 9.1906e-05
9 *29:12 *148:97 0
10 *29:12 *160:14 0
11 *28:10 *29:12 0.000168754
*RES
1 *567:X *29:12 45.395 
2 *29:12 *665:A 40.5271 
*END

*D_NET *30 0.00114732
*CONN
*I *655:A I *D sky130_fd_sc_hd__dlygate4sd3_1
*I *568:X O *D sky130_fd_sc_hd__mux2_1
*CAP
1 *655:A 0
2 *568:X 0.000365937
3 *30:8 0.000365937
4 *30:8 *99:117 0.00041545
*RES
1 *568:X *30:8 30.7886 
2 *30:8 *655:A 23 
*END

*D_NET *31 0.000793513
*CONN
*I *605:D I *D sky130_fd_sc_hd__dfrtp_1
*I *569:X O *D sky130_fd_sc_hd__mux2_1
*CAP
1 *605:D 0
2 *569:X 0.000334413
3 *31:10 0.000334413
4 *31:10 *572:A0 2.93845e-05
5 *31:10 *100:27 4.21594e-06
6 *31:10 *100:47 3.14274e-05
7 *31:10 *147:14 3.70094e-05
8 *31:10 *147:25 2.26489e-05
*RES
1 *569:X *31:10 43.0336 
2 *31:10 *605:D 38 
*END

*D_NET *32 0.00121858
*CONN
*I *606:D I *D sky130_fd_sc_hd__dfrtp_1
*I *570:X O *D sky130_fd_sc_hd__mux2_1
*CAP
1 *606:D 7.58868e-05
2 *570:X 0.000405008
3 *32:10 0.000480894
4 *606:D *92:59 7.88828e-05
5 *32:10 *609:RESET_B 0.000177911
6 *32:10 *35:10 0
7 *32:10 *147:14 0
*RES
1 *570:X *32:10 43.9864 
2 *32:10 *606:D 39.5743 
*END

*D_NET *33 0.000632613
*CONN
*I *607:D I *D sky130_fd_sc_hd__dfrtp_1
*I *571:X O *D sky130_fd_sc_hd__mux2_1
*CAP
1 *607:D 0
2 *571:X 0.000149804
3 *33:8 0.000149804
4 *33:8 *537:A 3.92407e-05
5 *33:8 *604:CLK 2.82307e-05
6 *33:8 *679:A 0.000130433
7 *33:8 *99:125 7.70038e-05
8 *4:8 *33:8 5.80963e-05
*RES
1 *571:X *33:8 42.3707 
2 *33:8 *607:D 38 
*END

*D_NET *34 0.000504547
*CONN
*I *608:D I *D sky130_fd_sc_hd__dfrtp_1
*I *572:X O *D sky130_fd_sc_hd__mux2_1
*CAP
1 *608:D 0.000145038
2 *572:X 0.000107236
3 *34:8 0.000252274
4 *34:8 *92:33 0
5 *34:8 *148:37 0
*RES
1 *572:X *34:8 39.9057 
2 *34:8 *608:D 40.5271 
*END

*D_NET *35 0.000787689
*CONN
*I *609:D I *D sky130_fd_sc_hd__dfrtp_1
*I *573:X O *D sky130_fd_sc_hd__mux2_1
*CAP
1 *609:D 0
2 *573:X 0.000284495
3 *35:10 0.000284495
4 *35:10 *605:CLK 1.14876e-05
5 *35:10 *609:CLK 0.000113017
6 *35:10 *92:46 2.38288e-05
7 *35:10 *92:52 7.03663e-05
8 *32:10 *35:10 0
*RES
1 *573:X *35:10 43.945 
2 *35:10 *609:D 38 
*END

*D_NET *36 0.000301266
*CONN
*I *611:D I *D sky130_fd_sc_hd__dfrtp_1
*I *576:X O *D sky130_fd_sc_hd__and2_1
*CAP
1 *611:D 3.57804e-05
2 *576:X 7.23553e-05
3 *36:8 0.000108136
4 *611:D *611:CLK 2.93747e-05
5 *36:8 *578:B 0
6 *36:8 *58:10 5.56203e-05
*RES
1 *576:X *36:8 39.5536 
2 *36:8 *611:D 38.6214 
*END

*D_NET *37 0.000438943
*CONN
*I *612:D I *D sky130_fd_sc_hd__dfrtp_1
*I *579:Y O *D sky130_fd_sc_hd__nor2_1
*CAP
1 *612:D 0
2 *579:Y 0.000169381
3 *37:10 0.000169381
4 *37:10 *579:A 0.00010018
5 *37:10 *152:10 0
*RES
1 *579:Y *37:10 40.6514 
2 *37:10 *612:D 38 
*END

*D_NET *38 0.000715946
*CONN
*I *613:D I *D sky130_fd_sc_hd__dfrtp_1
*I *580:X O *D sky130_fd_sc_hd__xor2_1
*CAP
1 *613:D 0
2 *580:X 0.000354935
3 *38:8 0.000354935
4 *38:8 *552:S 6.07611e-06
5 *38:8 *613:RESET_B 0
6 *38:8 *94:120 0
7 *38:8 *103:56 0
8 *38:8 *152:10 0
9 *38:8 *152:18 0
*RES
1 *580:X *38:8 43.7793 
2 *38:8 *613:D 38 
*END

*D_NET *39 0.00157649
*CONN
*I *615:D I *D sky130_fd_sc_hd__dfrtp_1
*I *581:X O *D sky130_fd_sc_hd__mux2_1
*CAP
1 *615:D 0.000565358
2 *581:X 6.99409e-05
3 *39:8 0.000635299
4 *615:D *615:RESET_B 2.56078e-05
5 *615:D *173:8 9.91798e-05
6 *39:8 *137:8 0.000138727
7 *3:15 *39:8 4.23817e-05
*RES
1 *581:X *39:8 39.9057 
2 *39:8 *615:D 47.6736 
*END

*D_NET *40 0.000512779
*CONN
*I *641:A I *D sky130_fd_sc_hd__dlygate4sd3_1
*I *582:X O *D sky130_fd_sc_hd__mux2_1
*CAP
1 *641:A 0
2 *582:X 0.000158841
3 *40:10 0.000158841
4 *40:10 *589:CLK 4.79641e-05
5 *40:10 *67:12 0.000140958
6 *40:10 *95:51 6.17437e-06
7 *40:10 *150:12 0
*RES
1 *582:X *40:10 41.0036 
2 *40:10 *641:A 38 
*END

*D_NET *41 0.000215781
*CONN
*I *650:A I *D sky130_fd_sc_hd__dlygate4sd3_1
*I *583:X O *D sky130_fd_sc_hd__mux2_1
*CAP
1 *650:A 6.7183e-05
2 *583:X 6.7183e-05
3 *650:A *583:S 8.14152e-05
*RES
1 *583:X *650:A 47.595 
*END

*D_NET *42 0.000823438
*CONN
*I *536:B1 I *D sky130_fd_sc_hd__a221o_1
*I *534:Y O *D sky130_fd_sc_hd__nand2_1
*CAP
1 *536:B1 0
2 *534:Y 0.000109167
3 *42:8 0.000109167
4 *42:8 *536:B2 1.28818e-05
5 *42:8 *536:C1 0.000140259
6 *42:8 *47:6 0.000353214
7 *42:8 *91:29 9.87502e-05
8 *42:8 *156:24 0
9 *42:8 *156:28 0
*RES
1 *534:Y *42:8 27.4536 
2 *42:8 *536:B1 23 
*END

*D_NET *43 0.00122873
*CONN
*I *536:B2 I *D sky130_fd_sc_hd__a221o_1
*I *535:X O *D sky130_fd_sc_hd__or2_1
*CAP
1 *536:B2 3.64053e-06
2 *535:X 0.000203417
3 *43:12 0.000207058
4 *536:B2 *91:29 1.35004e-05
5 *43:12 *97:68 0.000430896
6 *43:12 *148:21 0.00031495
7 *43:12 *156:24 4.23817e-05
8 *42:8 *536:B2 1.28818e-05
*RES
1 *535:X *43:12 44.235 
2 *43:12 *536:B2 38.1502 
*END

*D_NET *44 0.00384981
*CONN
*I *546:C1 I *D sky130_fd_sc_hd__o2111a_1
*I *536:X O *D sky130_fd_sc_hd__a221o_1
*CAP
1 *546:C1 0
2 *536:X 0.000328506
3 *44:18 0.000827056
4 *44:8 0.00115556
5 *44:8 *47:6 0.000228903
6 *44:8 *50:8 5.60292e-05
7 *44:18 *634:A 0.000218943
8 *44:18 *47:12 0
9 *44:18 *52:20 5.3304e-05
10 *44:18 *55:12 0.000135547
11 *44:18 *93:10 4.6318e-06
12 *44:18 *93:25 7.34858e-05
13 *44:18 *93:34 0.000104051
14 *44:18 *93:68 7.55491e-05
15 *44:18 *97:98 4.96264e-05
16 *44:18 *99:85 0.000296017
17 *44:18 *128:23 0
18 *44:18 *150:24 7.83045e-05
19 *44:18 *182:18 0.000164291
*RES
1 *536:X *44:8 42.9093 
2 *44:8 *44:18 32.3793 
3 *44:18 *546:C1 23 
*END

*D_NET *45 0.000986785
*CONN
*I *538:C1 I *D sky130_fd_sc_hd__a221oi_1
*I *537:X O *D sky130_fd_sc_hd__xor2_1
*CAP
1 *538:C1 0
2 *537:X 0.000389332
3 *45:10 0.000389332
4 *45:10 *537:A 1.02387e-05
5 *45:10 *61:12 0.000162422
6 *45:10 *92:29 2.93845e-05
7 *45:10 *92:31 0
8 *45:10 *92:97 0
9 *45:10 *99:125 6.07611e-06
10 *45:10 *140:22 0
11 *45:10 *148:37 0
*RES
1 *537:X *45:10 44.7529 
2 *45:10 *538:C1 38 
*END

*D_NET *46 0.000781492
*CONN
*I *539:C1 I *D sky130_fd_sc_hd__o221a_1
*I *538:Y O *D sky130_fd_sc_hd__a221oi_1
*CAP
1 *539:C1 0
2 *538:Y 0.000142678
3 *46:8 0.000142678
4 *46:8 *538:A2 3.71514e-05
5 *46:8 *538:B1 0.000139352
6 *46:8 *140:14 1.32939e-05
7 *46:8 *147:40 0.000306338
*RES
1 *538:Y *46:8 27.3189 
2 *46:8 *539:C1 23 
*END

*D_NET *47 0.00553714
*CONN
*I *547:A_N I *D sky130_fd_sc_hd__and4b_1
*I *539:X O *D sky130_fd_sc_hd__o221a_1
*CAP
1 *547:A_N 0
2 *539:X 0.00104228
3 *47:12 0.000749556
4 *47:6 0.00179183
5 *47:6 *534:B 9.91798e-05
6 *47:6 *50:8 5.37348e-06
7 *47:6 *60:12 0.000619016
8 *47:6 *91:29 0.000208386
9 *47:6 *156:24 0.000269781
10 *47:6 *156:28 2.25419e-05
11 *47:12 *91:10 0
12 *47:12 *97:98 3.88504e-05
13 *47:12 *99:85 0
14 *47:12 *128:23 6.33614e-05
15 *47:12 *164:14 0
16 *47:12 *167:19 4.48671e-05
17 *42:8 *47:6 0.000353214
18 *44:8 *47:6 0.000228903
19 *44:18 *47:12 0
*RES
1 *539:X *47:6 46.0136 
2 *47:6 *47:12 43.5264 
3 *47:12 *547:A_N 23 
*END

*D_NET *48 0.0016685
*CONN
*I *544:C1 I *D sky130_fd_sc_hd__a211o_1
*I *540:X O *D sky130_fd_sc_hd__xor2_1
*CAP
1 *544:C1 2.12065e-05
2 *540:X 0.000472327
3 *48:10 0.000493533
4 *544:C1 *544:B1 0.00014196
5 *544:C1 *50:8 0.000143655
6 *48:10 *520:A 4.61435e-05
7 *48:10 *52:12 0
8 *48:10 *93:10 4.334e-05
9 *48:10 *93:25 4.08537e-05
10 *48:10 *97:98 0.000265477
*RES
1 *540:X *48:10 45.1671 
2 *48:10 *544:C1 39.5743 
*END

*D_NET *49 0.00066851
*CONN
*I *544:A1 I *D sky130_fd_sc_hd__a211o_1
*I *541:Y O *D sky130_fd_sc_hd__nand2_1
*CAP
1 *544:A1 0
2 *541:Y 0.000275388
3 *49:10 0.000275388
4 *49:10 *541:B 7.88828e-05
5 *49:10 *93:10 0
6 *49:10 *149:39 3.88504e-05
*RES
1 *541:Y *49:10 41.9564 
2 *49:10 *544:A1 38 
*END

*D_NET *50 0.00145476
*CONN
*I *544:A2 I *D sky130_fd_sc_hd__a211o_1
*I *542:X O *D sky130_fd_sc_hd__or2_1
*CAP
1 *544:A2 0
2 *542:X 0.000205535
3 *50:8 0.000205535
4 *50:8 *544:B1 7.53613e-05
5 *50:8 *592:CLK 1.22822e-05
6 *50:8 *52:12 5.25848e-05
7 *50:8 *156:28 0.000698408
8 *544:C1 *50:8 0.000143655
9 *44:8 *50:8 5.60292e-05
10 *47:6 *50:8 5.37348e-06
*RES
1 *542:X *50:8 31.265 
2 *50:8 *544:A2 23 
*END

*D_NET *51 0.000643432
*CONN
*I *544:B1 I *D sky130_fd_sc_hd__a211o_1
*I *543:X O *D sky130_fd_sc_hd__xor2_1
*CAP
1 *544:B1 7.81651e-05
2 *543:X 7.81651e-05
3 *544:B1 *592:CLK 0.000269781
4 *544:C1 *544:B1 0.00014196
5 *50:8 *544:B1 7.53613e-05
*RES
1 *543:X *544:B1 49.5007 
*END

*D_NET *52 0.00398952
*CONN
*I *546:D1 I *D sky130_fd_sc_hd__o2111a_1
*I *544:X O *D sky130_fd_sc_hd__a211o_1
*CAP
1 *546:D1 0
2 *544:X 0.000452371
3 *52:20 0.000633148
4 *52:12 0.00108552
5 *52:12 *557:S 5.24583e-05
6 *52:12 *592:CLK 0.000183733
7 *52:12 *77:8 0.00031749
8 *52:12 *79:10 0
9 *52:12 *80:10 0.000331397
10 *52:12 *93:25 0
11 *52:12 *93:34 0
12 *52:12 *93:68 0
13 *52:12 *156:28 3.17516e-05
14 *52:20 *546:B1 0.000306332
15 *52:20 *582:A1 0
16 *52:20 *634:A 0
17 *52:20 *54:10 1.24376e-05
18 *52:20 *64:10 0.000163352
19 *52:20 *74:10 3.21223e-05
20 *52:20 *80:10 1.96584e-05
21 *52:20 *87:20 0.000122407
22 *52:20 *150:24 8.10857e-05
23 *52:20 *171:10 5.83625e-05
24 *44:18 *52:20 5.3304e-05
25 *48:10 *52:12 0
26 *50:8 *52:12 5.25848e-05
*RES
1 *544:X *52:12 48.7404 
2 *52:12 *52:20 28.3504 
3 *52:20 *546:D1 23 
*END

*D_NET *53 0.000540907
*CONN
*I *547:B I *D sky130_fd_sc_hd__and4b_1
*I *545:X O *D sky130_fd_sc_hd__o311a_1
*CAP
1 *547:B 5.47416e-05
2 *545:X 5.47416e-05
3 *547:B *62:8 0.000225393
4 *547:B *99:98 2.32101e-05
5 *547:B *150:43 0.00018282
*RES
1 *545:X *547:B 48.5271 
*END

*D_NET *54 0.000455994
*CONN
*I *547:C I *D sky130_fd_sc_hd__and4b_1
*I *546:X O *D sky130_fd_sc_hd__o2111a_1
*CAP
1 *547:C 0
2 *546:X 0.000178639
3 *54:10 0.000178639
4 *54:10 *128:23 0
5 *54:10 *182:18 8.62783e-05
6 *52:20 *54:10 1.24376e-05
*RES
1 *546:X *54:10 40.7757 
2 *54:10 *547:C 38 
*END

*D_NET *55 0.00319381
*CONN
*I *636:A I *D sky130_fd_sc_hd__buf_2
*I *547:X O *D sky130_fd_sc_hd__and4b_1
*CAP
1 *636:A 0
2 *547:X 0
3 *55:12 0.000679515
4 *55:6 0.000679515
5 *55:12 *67:8 3.3577e-05
6 *55:12 *67:12 0.000480462
7 *55:12 *110:10 0
8 *55:12 *149:129 0.000164282
9 *55:12 *150:8 3.7122e-06
10 *55:12 *150:24 0.000165583
11 *55:12 *157:38 0.000402806
12 *55:12 *182:18 0.000448814
13 *44:18 *55:12 0.000135547
*RES
1 *547:X *55:6 38 
2 *55:6 *55:12 35.7764 
3 *55:12 *636:A 23 
*END

*D_NET *56 0.00111788
*CONN
*I *578:B I *D sky130_fd_sc_hd__and2b_1
*I *576:A I *D sky130_fd_sc_hd__and2_1
*I *574:Y O *D sky130_fd_sc_hd__o21ai_1
*CAP
1 *578:B 0.000343392
2 *576:A 0
3 *574:Y 8.87754e-05
4 *56:8 0.000432168
5 *578:B *579:A 1.76557e-05
6 *578:B *579:B 2.93845e-05
7 *578:B *57:8 6.07611e-06
8 *578:B *58:10 0
9 *578:B *151:20 0
10 *56:8 *57:8 8.41115e-05
11 *56:8 *96:10 0.000116314
12 *678:A *578:B 0
13 *7:17 *56:8 0
14 *36:8 *578:B 0
*RES
1 *574:Y *56:8 40.2579 
2 *56:8 *576:A 38 
3 *56:8 *578:B 44.1729 
*END

*D_NET *57 0.000299366
*CONN
*I *576:B I *D sky130_fd_sc_hd__and2_1
*I *575:X O *D sky130_fd_sc_hd__or3_1
*CAP
1 *576:B 0
2 *575:X 7.70365e-05
3 *57:8 7.70365e-05
4 *57:8 *151:20 5.51058e-05
5 *578:B *57:8 6.07611e-06
6 *56:8 *57:8 8.41115e-05
*RES
1 *575:X *57:8 40.2579 
2 *57:8 *576:B 38 
*END

*D_NET *58 0.00179083
*CONN
*I *580:B I *D sky130_fd_sc_hd__xor2_1
*I *579:A I *D sky130_fd_sc_hd__nor2_1
*I *577:X O *D sky130_fd_sc_hd__o211a_1
*CAP
1 *580:B 5.36643e-05
2 *579:A 0.000234877
3 *577:X 0.000325014
4 *58:12 0.000288542
5 *58:10 0.000325014
6 *579:A *578:A_N 6.17437e-06
7 *579:A *579:B 7.44316e-05
8 *580:B *578:A_N 5.12254e-05
9 *58:10 *577:A2 5.3304e-05
10 *58:10 *151:20 8.72173e-05
11 *58:10 *152:18 8.82915e-05
12 *58:10 *154:38 2.96154e-05
13 *578:B *579:A 1.76557e-05
14 *578:B *58:10 0
15 *36:8 *58:10 5.56203e-05
16 *37:10 *579:A 0.00010018
*RES
1 *577:X *58:10 44.7529 
2 *58:10 *58:12 15 
3 *58:12 *579:A 28.4479 
4 *58:12 *580:B 24.0979 
*END

*D_NET *59 0.000163035
*CONN
*I *579:B I *D sky130_fd_sc_hd__nor2_1
*I *578:X O *D sky130_fd_sc_hd__and2b_1
*CAP
1 *579:B 2.96097e-05
2 *578:X 2.96097e-05
3 *578:B *579:B 2.93845e-05
4 *579:A *579:B 7.44316e-05
*RES
1 *578:X *579:B 47.1186 
*END

*D_NET *60 0.00252589
*CONN
*I *539:A2 I *D sky130_fd_sc_hd__o221a_1
*I *538:A2 I *D sky130_fd_sc_hd__a221oi_1
*I *503:Y O *D sky130_fd_sc_hd__inv_2
*CAP
1 *539:A2 0
2 *538:A2 0.000166185
3 *503:Y 9.81512e-05
4 *60:12 0.000439086
5 *60:8 0.000371051
6 *538:A2 *140:14 0.00030279
7 *538:A2 *147:40 1.61361e-05
8 *60:8 *82:16 0.000166522
9 *60:8 *148:91 0
10 *60:12 *539:A1 5.50106e-05
11 *60:12 *91:29 0.00024441
12 *60:12 *140:14 1.03836e-05
13 *46:8 *538:A2 3.71514e-05
14 *47:6 *60:12 0.000619016
*RES
1 *503:Y *60:8 40.2579 
2 *60:8 *60:12 23.7207 
3 *60:12 *538:A2 27.35 
4 *60:12 *539:A2 23 
*END

*D_NET *61 0.00149607
*CONN
*I *539:B2 I *D sky130_fd_sc_hd__o221a_1
*I *538:B2 I *D sky130_fd_sc_hd__a221oi_1
*I *504:Y O *D sky130_fd_sc_hd__inv_2
*CAP
1 *539:B2 0
2 *538:B2 0
3 *504:Y 0
4 *61:23 9.22495e-05
5 *61:12 0.000460114
6 *61:4 0.000552363
7 *61:12 *97:30 3.3577e-05
8 *61:12 *140:22 9.67904e-05
9 *61:23 *97:30 3.3746e-05
10 *61:23 *100:59 0
11 *61:23 *147:40 6.48049e-05
12 *45:10 *61:12 0.000162422
*RES
1 *504:Y *61:4 23 
2 *61:4 *61:12 36.6907 
3 *61:12 *538:B2 23 
4 *61:4 *61:23 31.9057 
5 *61:23 *539:B2 23 
*END

*D_NET *62 0.00088902
*CONN
*I *545:A1 I *D sky130_fd_sc_hd__o311a_1
*I *505:X O *D sky130_fd_sc_hd__xor2_1
*CAP
1 *545:A1 0
2 *505:X 0.000234786
3 *62:8 0.000234786
4 *62:8 *99:98 3.53115e-05
5 *62:8 *150:43 0.000133698
6 *62:8 *182:18 2.50451e-05
7 *547:B *62:8 0.000225393
*RES
1 *505:X *62:8 28.8829 
2 *62:8 *545:A1 23 
*END

*D_NET *63 0.00215141
*CONN
*I *545:A2 I *D sky130_fd_sc_hd__o311a_1
*I *506:X O *D sky130_fd_sc_hd__xor2_1
*CAP
1 *545:A2 0.000363329
2 *506:X 0.000111071
3 *63:8 0.0004744
4 *545:A2 *545:B1 0.000183332
5 *545:A2 *583:S 0.00025393
6 *545:A2 *74:10 0.000222791
7 *545:A2 *99:98 2.47702e-05
8 *545:A2 *149:20 9.5877e-05
9 *545:A2 *171:16 6.33627e-05
10 *545:A2 *171:29 0.00018282
11 *63:8 *506:A 0
12 *63:8 *98:92 9.21347e-06
13 *63:8 *171:29 0.000166513
*RES
1 *506:X *63:8 40.61 
2 *63:8 *545:A2 47.6943 
*END

*D_NET *64 0.00118594
*CONN
*I *545:A3 I *D sky130_fd_sc_hd__o311a_1
*I *507:X O *D sky130_fd_sc_hd__xor2_1
*CAP
1 *545:A3 0
2 *507:X 0.000400459
3 *64:10 0.000400459
4 *64:10 *582:A1 0
5 *64:10 *67:12 3.884e-05
6 *64:10 *74:10 0
7 *64:10 *98:88 0.000182826
8 *64:10 *150:24 0
9 *52:20 *64:10 0.000163352
*RES
1 *507:X *64:10 44.7736 
2 *64:10 *545:A3 38 
*END

*D_NET *65 0.000640114
*CONN
*I *513:A1 I *D sky130_fd_sc_hd__a22o_1
*I *508:X O *D sky130_fd_sc_hd__or2_1
*CAP
1 *513:A1 0
2 *508:X 0.000241754
3 *65:10 0.000241754
4 *65:10 *66:12 0.000107011
5 *65:10 *98:120 1.39317e-05
6 *65:10 *149:147 3.5664e-05
*RES
1 *508:X *65:10 42.9921 
2 *65:10 *513:A1 38 
*END

*D_NET *66 0.0013602
*CONN
*I *513:A2 I *D sky130_fd_sc_hd__a22o_1
*I *509:Y O *D sky130_fd_sc_hd__nand2_1
*CAP
1 *513:A2 3.90173e-05
2 *509:Y 0.000299466
3 *66:12 0.000338483
4 *513:A2 *513:B1 5.67058e-05
5 *513:A2 *150:118 0.000143655
6 *66:12 *506:A 1.14452e-05
7 *66:12 *509:A 1.59094e-05
8 *66:12 *509:B 1.14876e-05
9 *66:12 *98:120 0
10 *66:12 *157:44 0.00033702
11 *65:10 *66:12 0.000107011
*RES
1 *509:Y *66:12 44.4421 
2 *66:12 *513:A2 39.5743 
*END

*D_NET *67 0.00236666
*CONN
*I *546:A1 I *D sky130_fd_sc_hd__o2111a_1
*I *510:X O *D sky130_fd_sc_hd__xor2_1
*CAP
1 *546:A1 0
2 *510:X 0.000234289
3 *67:12 0.000575028
4 *67:8 0.000809317
5 *67:8 *157:38 4.27467e-05
6 *67:12 *150:12 0
7 *67:12 *150:24 1.14452e-05
8 *40:10 *67:12 0.000140958
9 *55:12 *67:8 3.3577e-05
10 *55:12 *67:12 0.000480462
11 *64:10 *67:12 3.884e-05
*RES
1 *510:X *67:8 41.0036 
2 *67:8 *67:12 28.1743 
3 *67:12 *546:A1 23 
*END

*D_NET *68 0.000334141
*CONN
*I *513:B1 I *D sky130_fd_sc_hd__a22o_1
*I *511:Y O *D sky130_fd_sc_hd__nand2_1
*CAP
1 *513:B1 0.000106284
2 *511:Y 0.000106284
3 *513:B1 *513:B2 5.25848e-05
4 *513:B1 *150:118 1.22822e-05
5 *513:A2 *513:B1 5.67058e-05
*RES
1 *511:Y *513:B1 48.0507 
*END

*D_NET *69 0.00166537
*CONN
*I *513:B2 I *D sky130_fd_sc_hd__a22o_1
*I *512:X O *D sky130_fd_sc_hd__or2_1
*CAP
1 *513:B2 0.000100751
2 *512:X 0.000445056
3 *69:8 0.000545807
4 *513:B2 *511:B 0.000106051
5 *513:B2 *150:118 0.000326366
6 *69:8 *506:A 0
7 *69:8 *512:B 0
8 *69:8 *673:A 0
9 *69:8 *103:10 0
10 *69:8 *111:8 1.83667e-05
11 *69:8 *112:8 7.03869e-05
12 *69:8 *157:44 0
13 *513:B1 *513:B2 5.25848e-05
14 *17:10 *69:8 0
*RES
1 *512:X *69:8 46.2443 
2 *69:8 *513:B2 41.9771 
*END

*D_NET *70 0.00232592
*CONN
*I *546:A2 I *D sky130_fd_sc_hd__o2111a_1
*I *513:X O *D sky130_fd_sc_hd__a22o_1
*CAP
1 *546:A2 0.000728146
2 *513:X 6.55146e-05
3 *70:8 0.00079366
4 *546:A2 *518:B1 1.7316e-05
5 *546:A2 *98:100 6.343e-05
6 *546:A2 *150:24 0.000354122
7 *546:A2 *150:97 0.000262864
8 *70:8 *506:A 0
9 *70:8 *98:92 4.08641e-05
*RES
1 *513:X *70:8 39.2014 
2 *70:8 *546:A2 48.15 
*END

*D_NET *71 0.0021805
*CONN
*I *518:B1 I *D sky130_fd_sc_hd__a211o_1
*I *514:X O *D sky130_fd_sc_hd__xor2_1
*CAP
1 *518:B1 0.000135476
2 *514:X 0.000493623
3 *71:10 0.000629099
4 *518:B1 *635:A 4.00259e-06
5 *518:B1 *73:8 0.000374373
6 *518:B1 *98:100 0.000182826
7 *518:B1 *150:97 5.47927e-05
8 *71:10 *617:RESET_B 0
9 *71:10 *76:8 0
10 *71:10 *81:8 0
11 *71:10 *97:119 9.84851e-05
12 *71:10 *98:100 0
13 *71:10 *126:10 0
14 *71:10 *135:10 2.93845e-05
15 *71:10 *149:20 0
16 *71:10 *171:29 0.000161121
17 *546:A2 *518:B1 1.7316e-05
*RES
1 *514:X *71:10 47.3421 
2 *71:10 *518:B1 42.93 
*END

*D_NET *72 0.00074422
*CONN
*I *518:C1 I *D sky130_fd_sc_hd__a211o_1
*I *515:X O *D sky130_fd_sc_hd__xor2_1
*CAP
1 *518:C1 0
2 *515:X 0.000192718
3 *72:10 0.000192718
4 *72:10 *98:88 0.000139357
5 *72:10 *98:100 4.21594e-06
6 *72:10 *99:98 0.000165583
7 *72:10 *149:10 0
8 *72:10 *150:118 4.96264e-05
*RES
1 *515:X *72:10 41.8321 
2 *72:10 *518:C1 38 
*END

*D_NET *73 0.0011175
*CONN
*I *518:A1 I *D sky130_fd_sc_hd__a211o_1
*I *516:Y O *D sky130_fd_sc_hd__nand2_1
*CAP
1 *518:A1 0
2 *516:Y 0.000360879
3 *73:8 0.000360879
4 *73:8 *150:97 2.13733e-05
5 *518:B1 *73:8 0.000374373
*RES
1 *516:Y *73:8 28.7586 
2 *73:8 *518:A1 23 
*END

*D_NET *74 0.000889037
*CONN
*I *518:A2 I *D sky130_fd_sc_hd__a211o_1
*I *517:X O *D sky130_fd_sc_hd__or2_1
*CAP
1 *518:A2 0
2 *517:X 0.000246123
3 *74:10 0.000246123
4 *74:10 *582:A1 0.000141879
5 *545:A2 *74:10 0.000222791
6 *52:20 *74:10 3.21223e-05
7 *64:10 *74:10 0
*RES
1 *517:X *74:10 42.4329 
2 *74:10 *518:A2 38 
*END

*D_NET *75 0.000878466
*CONN
*I *546:B1 I *D sky130_fd_sc_hd__o2111a_1
*I *518:X O *D sky130_fd_sc_hd__a211o_1
*CAP
1 *546:B1 0.000280323
2 *518:X 0.000280323
3 *546:B1 *150:24 1.14876e-05
4 *52:20 *546:B1 0.000306332
*RES
1 *518:X *546:B1 49.9564 
*END

*D_NET *76 0.00134876
*CONN
*I *524:A1 I *D sky130_fd_sc_hd__a221o_1
*I *519:X O *D sky130_fd_sc_hd__or2_1
*CAP
1 *524:A1 0.000170517
2 *519:X 0.000241139
3 *76:8 0.000411656
4 *524:A1 *524:A2 2.30357e-05
5 *524:A1 *524:B1 3.7122e-06
6 *524:A1 *97:119 0.000140259
7 *76:8 *617:RESET_B 0
8 *76:8 *97:119 7.75329e-06
9 *76:8 *135:10 0
10 *76:8 *149:20 0
11 *19:8 *76:8 0.000350687
12 *71:10 *76:8 0
*RES
1 *519:X *76:8 43.4271 
2 *76:8 *524:A1 41.0036 
*END

*D_NET *77 0.00149068
*CONN
*I *524:A2 I *D sky130_fd_sc_hd__a221o_1
*I *520:Y O *D sky130_fd_sc_hd__nand2_1
*CAP
1 *524:A2 0.00031574
2 *520:Y 0.000205512
3 *77:8 0.000521252
4 *524:A2 *524:B1 8.79007e-05
5 *524:A2 *524:B2 3.84478e-06
6 *524:A2 *524:C1 1.59094e-05
7 *77:8 *93:34 0
8 *77:8 *93:68 0
9 *524:A1 *524:A2 2.30357e-05
10 *52:12 *77:8 0.00031749
*RES
1 *520:Y *77:8 42.3707 
2 *77:8 *524:A2 42.3759 
*END

*D_NET *78 0.00030722
*CONN
*I *524:C1 I *D sky130_fd_sc_hd__a221o_1
*I *521:X O *D sky130_fd_sc_hd__xor2_1
*CAP
1 *524:C1 0.000145655
2 *521:X 0.000145655
3 *524:C1 *521:B 0
4 *524:C1 *524:B1 0
5 *524:C1 *99:85 0
6 *524:A2 *524:C1 1.59094e-05
*RES
1 *521:X *524:C1 48.5479 
*END

*D_NET *79 0.00162939
*CONN
*I *524:B1 I *D sky130_fd_sc_hd__a221o_1
*I *522:X O *D sky130_fd_sc_hd__or2_1
*CAP
1 *524:B1 6.28237e-05
2 *522:X 0.000356527
3 *79:10 0.000419351
4 *79:10 *557:S 0.000137788
5 *79:10 *592:CLK 5.67058e-05
6 *79:10 *80:10 4.73585e-05
7 *79:10 *93:46 0.000161121
8 *79:10 *134:10 8.62876e-05
9 *79:10 *149:20 0.000135208
10 *79:10 *149:24 7.461e-05
11 *524:A1 *524:B1 3.7122e-06
12 *524:A2 *524:B1 8.79007e-05
13 *524:C1 *524:B1 0
14 *52:12 *79:10 0
*RES
1 *522:X *79:10 45.8093 
2 *79:10 *524:B1 39.4707 
*END

*D_NET *80 0.00146795
*CONN
*I *524:B2 I *D sky130_fd_sc_hd__a221o_1
*I *523:Y O *D sky130_fd_sc_hd__nand2_1
*CAP
1 *524:B2 1.08265e-05
2 *523:Y 0.000338914
3 *80:10 0.00034974
4 *80:10 *520:A 0.00010018
5 *80:10 *520:B 5.50106e-05
6 *80:10 *523:B 2.07242e-05
7 *80:10 *93:46 2.60152e-05
8 *80:10 *171:10 0.000164282
9 *524:A2 *524:B2 3.84478e-06
10 *52:12 *80:10 0.000331397
11 *52:20 *80:10 1.96584e-05
12 *79:10 *80:10 4.73585e-05
*RES
1 *523:Y *80:10 45.6021 
2 *80:10 *524:B2 38.1502 
*END

*D_NET *81 0.00155221
*CONN
*I *545:B1 I *D sky130_fd_sc_hd__o311a_1
*I *524:X O *D sky130_fd_sc_hd__a221o_1
*CAP
1 *545:B1 0.000169931
2 *524:X 0.000195033
3 *81:8 0.000364964
4 *545:B1 *99:98 6.53382e-05
5 *545:B1 *171:16 0.000221992
6 *81:8 *149:20 0.000351617
7 *545:A2 *545:B1 0.000183332
8 *71:10 *81:8 0
*RES
1 *524:X *81:8 42.7229 
2 *81:8 *545:B1 42.4536 
*END

*D_NET *82 0.00250086
*CONN
*I *530:C1 I *D sky130_fd_sc_hd__a221o_1
*I *525:X O *D sky130_fd_sc_hd__xor2_1
*CAP
1 *530:C1 0
2 *525:X 1.90128e-05
3 *82:16 0.000828386
4 *82:8 0.000847398
5 *82:8 *525:B 2.91016e-05
6 *82:8 *98:42 5.56279e-05
7 *82:16 *530:B2 1.43044e-05
8 *82:16 *565:A1 0
9 *82:16 *597:CLK 0
10 *82:16 *85:10 0.000502594
11 *82:16 *92:8 0
12 *82:16 *100:75 2.04934e-05
13 *82:16 *120:10 0
14 *82:16 *140:55 0
15 *82:16 *148:35 0
16 *82:16 *148:91 0
17 *82:16 *158:12 1.74201e-05
18 *82:16 *160:32 0
19 *60:8 *82:16 0.000166522
*RES
1 *525:X *82:8 38.6214 
2 *82:8 *82:16 30.4736 
3 *82:16 *530:C1 23 
*END

*D_NET *83 0.00108448
*CONN
*I *530:A1 I *D sky130_fd_sc_hd__a221o_1
*I *526:X O *D sky130_fd_sc_hd__or2_1
*CAP
1 *530:A1 0
2 *526:X 0.000419897
3 *83:10 0.000419897
4 *83:10 *526:B 5.98263e-05
5 *83:10 *530:A2 0.000126682
6 *83:10 *530:B2 1.24376e-05
7 *83:10 *87:14 1.76047e-05
8 *83:10 *158:12 2.81363e-05
*RES
1 *526:X *83:10 29.5043 
2 *83:10 *530:A1 23 
*END

*D_NET *84 0.000397924
*CONN
*I *530:A2 I *D sky130_fd_sc_hd__a221o_1
*I *527:Y O *D sky130_fd_sc_hd__nand2_1
*CAP
1 *530:A2 5.77524e-05
2 *527:Y 5.77524e-05
3 *530:A2 *530:B2 1.11037e-05
4 *530:A2 *158:12 0.000144634
5 *83:10 *530:A2 0.000126682
*RES
1 *527:Y *530:A2 48.4546 
*END

*D_NET *85 0.00150805
*CONN
*I *530:B1 I *D sky130_fd_sc_hd__a221o_1
*I *528:X O *D sky130_fd_sc_hd__or2_1
*CAP
1 *530:B1 0
2 *528:X 0.000258139
3 *85:10 0.000258139
4 *85:10 *597:CLK 0
5 *85:10 *86:10 0.000431843
6 *85:10 *92:12 5.73309e-05
7 *85:10 *157:29 0
8 *82:16 *85:10 0.000502594
*RES
1 *528:X *85:10 45.8093 
2 *85:10 *530:B1 38 
*END

*D_NET *86 0.00210702
*CONN
*I *530:B2 I *D sky130_fd_sc_hd__a221o_1
*I *529:Y O *D sky130_fd_sc_hd__nand2_1
*CAP
1 *530:B2 7.95325e-05
2 *529:Y 0.000590678
3 *86:10 0.000670211
4 *530:B2 *158:12 6.38125e-05
5 *86:10 *565:A0 0.000137361
6 *86:10 *565:A1 8.56309e-05
7 *86:10 *150:66 1.01035e-05
8 *530:A2 *530:B2 1.11037e-05
9 *82:16 *530:B2 1.43044e-05
10 *83:10 *530:B2 1.24376e-05
11 *85:10 *86:10 0.000431843
*RES
1 *529:Y *86:10 48.9164 
2 *86:10 *530:B2 39.7814 
*END

*D_NET *87 0.00419976
*CONN
*I *545:C1 I *D sky130_fd_sc_hd__o311a_1
*I *530:X O *D sky130_fd_sc_hd__a221o_1
*CAP
1 *545:C1 0
2 *530:X 0.00145395
3 *87:20 9.6443e-05
4 *87:14 0.0015504
5 *87:14 *526:B 3.17516e-05
6 *87:14 *559:A0 0.000102173
7 *87:14 *559:S 2.93747e-05
8 *87:14 *634:A 5.50106e-05
9 *87:14 *148:6 0.000374655
10 *87:14 *158:12 0.000139067
11 *87:20 *582:A1 3.26062e-05
12 *87:20 *171:10 0.000194318
13 *52:20 *87:20 0.000122407
14 *83:10 *87:14 1.76047e-05
*RES
1 *530:X *87:14 46.925 
2 *87:14 *87:20 33.3143 
3 *87:20 *545:C1 23 
*END

*D_NET *88 0.000472516
*CONN
*I *536:A1 I *D sky130_fd_sc_hd__a221o_1
*I *531:X O *D sky130_fd_sc_hd__or2_1
*CAP
1 *536:A1 0
2 *531:X 0.000144559
3 *88:10 0.000144559
4 *88:10 *531:B 5.67058e-05
5 *88:10 *89:8 0.000110922
6 *88:10 *97:68 0
7 *88:10 *97:72 1.5769e-05
*RES
1 *531:X *88:10 40.6514 
2 *88:10 *536:A1 38 
*END

*D_NET *89 0.000426137
*CONN
*I *536:A2 I *D sky130_fd_sc_hd__a221o_1
*I *532:Y O *D sky130_fd_sc_hd__nand2_1
*CAP
1 *536:A2 7.6235e-06
2 *532:Y 6.96574e-05
3 *89:8 7.72809e-05
4 *536:A2 *91:29 7.27694e-06
5 *536:A2 *156:24 1.46586e-05
6 *89:8 *621:A 8.62783e-05
7 *89:8 *91:10 5.24393e-05
8 *88:10 *89:8 0.000110922
*RES
1 *532:Y *89:8 39.9057 
2 *89:8 *536:A2 38.1709 
*END

*D_NET *90 0.000929713
*CONN
*I *536:C1 I *D sky130_fd_sc_hd__a221o_1
*I *533:X O *D sky130_fd_sc_hd__xor2_1
*CAP
1 *536:C1 3.3586e-05
2 *533:X 0.000253865
3 *90:10 0.000287451
4 *536:C1 *91:29 0.000140259
5 *90:10 *97:68 6.28488e-05
6 *90:10 *99:46 1.14452e-05
7 *90:10 *101:66 0
8 *90:10 *163:25 0
9 *42:8 *536:C1 0.000140259
*RES
1 *533:X *90:10 43.0129 
2 *90:10 *536:C1 39.5743 
*END

*D_NET *91 0.0108504
*CONN
*I *622:A I *D sky130_fd_sc_hd__clkbuf_16
*I *623:A I *D sky130_fd_sc_hd__clkbuf_16
*I *620:A I *D sky130_fd_sc_hd__clkbuf_16
*I *621:A I *D sky130_fd_sc_hd__clkbuf_16
*I *619:X O *D sky130_fd_sc_hd__clkbuf_16
*CAP
1 *622:A 0
2 *623:A 7.03398e-05
3 *620:A 0
4 *621:A 0.000164089
5 *619:X 6.27375e-05
6 *91:51 0.000374632
7 *91:36 0.000787114
8 *91:29 0.00101872
9 *91:10 0.00194746
10 *91:8 0.00116954
11 *621:A *541:B 9.84851e-05
12 *621:A *542:B 5.31444e-05
13 *621:A *97:68 0
14 *621:A *97:85 4.79544e-05
15 *623:A *103:32 0.000141954
16 *91:10 *542:B 1.83667e-05
17 *91:10 *543:B 0
18 *91:10 *99:63 0.000136486
19 *91:10 *128:23 0
20 *91:10 *156:16 0.000464797
21 *91:10 *156:24 0.000119921
22 *91:10 *164:14 0.000107641
23 *91:29 *534:B 0.000184527
24 *91:29 *156:24 2.37316e-05
25 *91:36 *99:63 0.000880045
26 *91:36 *114:10 0.000194309
27 *91:36 *156:16 0.000246263
28 *91:36 *176:29 0
29 *91:51 *98:69 0.000405894
30 *91:51 *99:63 0.000269151
31 *91:51 *157:38 0.000828043
32 *91:51 *176:29 0.000183733
33 *91:51 *181:10 0
34 *536:A2 *91:29 7.27694e-06
35 *536:B2 *91:29 1.35004e-05
36 *536:C1 *91:29 0.000140259
37 *42:8 *91:29 9.87502e-05
38 *47:6 *91:29 0.000208386
39 *47:12 *91:10 0
40 *60:12 *91:29 0.00024441
41 *89:8 *621:A 8.62783e-05
42 *89:8 *91:10 5.24393e-05
*RES
1 *619:X *91:8 38.6214 
2 *91:8 *91:10 17.0479 
3 *91:10 *621:A 41.6043 
4 *91:10 *91:29 33.8914 
5 *91:29 *620:A 23 
6 *91:8 *91:36 11.7657 
7 *91:36 *623:A 39.5743 
8 *91:36 *91:51 28.8164 
9 *91:51 *622:A 23 
*END

*D_NET *92 0.0119875
*CONN
*I *597:CLK I *D sky130_fd_sc_hd__dfrtp_1
*I *600:CLK I *D sky130_fd_sc_hd__dfrtp_1
*I *604:CLK I *D sky130_fd_sc_hd__dfrtp_1
*I *607:CLK I *D sky130_fd_sc_hd__dfrtp_1
*I *608:CLK I *D sky130_fd_sc_hd__dfrtp_1
*I *605:CLK I *D sky130_fd_sc_hd__dfrtp_1
*I *602:CLK I *D sky130_fd_sc_hd__dfrtp_1
*I *601:CLK I *D sky130_fd_sc_hd__dfrtp_1
*I *606:CLK I *D sky130_fd_sc_hd__dfrtp_1
*I *609:CLK I *D sky130_fd_sc_hd__dfrtp_1
*I *624:A I *D sky130_fd_sc_hd__clkbuf_4
*I *620:X O *D sky130_fd_sc_hd__clkbuf_16
*CAP
1 *597:CLK 0.000164492
2 *600:CLK 0.000114584
3 *604:CLK 0.0002815
4 *607:CLK 0
5 *608:CLK 0
6 *605:CLK 0.00023777
7 *602:CLK 8.54873e-05
8 *601:CLK 0
9 *606:CLK 0
10 *609:CLK 0.000262419
11 *624:A 2.86067e-05
12 *620:X 0.000146147
13 *92:97 0.000434197
14 *92:65 0.000141748
15 *92:59 0.000917267
16 *92:52 0.000822975
17 *92:46 0.000531904
18 *92:33 0.000706198
19 *92:31 0.000712762
20 *92:29 0.00134652
21 *92:23 0.000940275
22 *92:12 0.000484667
23 *92:8 0.000704661
24 *597:CLK *565:A0 4.344e-05
25 *597:CLK *157:29 2.86209e-05
26 *600:CLK *529:B 3.70187e-05
27 *600:CLK *565:A1 8.18743e-05
28 *600:CLK *100:59 7.34962e-05
29 *600:CLK *120:10 1.16773e-05
30 *602:CLK *602:D 2.64616e-05
31 *604:CLK *679:A 5.3304e-05
32 *605:CLK *573:A0 0.000229578
33 *605:CLK *97:30 0.000181218
34 *624:A *97:16 5.67058e-05
35 *92:8 *97:55 2.04934e-05
36 *92:8 *148:91 6.06831e-05
37 *92:8 *157:29 9.5876e-06
38 *92:12 *528:B 0.000157946
39 *92:12 *97:16 0.000169595
40 *92:12 *120:10 5.50049e-05
41 *92:12 *148:35 1.34914e-05
42 *92:23 *529:B 0.000139657
43 *92:23 *100:59 4.58924e-05
44 *92:52 *573:S 0
45 *92:59 *606:RESET_B 2.56078e-05
46 *92:59 *160:8 5.47808e-05
47 *92:65 *160:14 0
48 *92:65 *160:32 0
49 *92:97 *537:A 0
50 num_to_send_o[2] *92:31 2.26497e-05
51 *606:D *92:59 7.88828e-05
52 *643:A *92:12 0.000227473
53 *665:A *602:CLK 4.3198e-05
54 *665:A *92:59 0.000188927
55 *4:8 *604:CLK 0.00014411
56 *4:8 *92:97 0.000210966
57 *28:10 *92:65 5.44889e-06
58 *29:12 *92:65 9.1906e-05
59 *33:8 *604:CLK 2.82307e-05
60 *34:8 *92:33 0
61 *35:10 *605:CLK 1.14876e-05
62 *35:10 *609:CLK 0.000113017
63 *35:10 *92:46 2.38288e-05
64 *35:10 *92:52 7.03663e-05
65 *45:10 *92:29 2.93845e-05
66 *45:10 *92:31 0
67 *45:10 *92:97 0
68 *82:16 *597:CLK 0
69 *82:16 *92:8 0
70 *85:10 *597:CLK 0
71 *85:10 *92:12 5.73309e-05
*RES
1 *620:X *92:8 40.61 
2 *92:8 *92:12 23.2443 
3 *92:12 *624:A 23.6214 
4 *92:12 *92:23 16.9057 
5 *92:23 *92:29 42.0557 
6 *92:29 *92:31 7.89214 
7 *92:31 *92:33 5.42714 
8 *92:33 *609:CLK 44.1314 
9 *92:33 *92:46 17.5271 
10 *92:46 *92:52 33.3143 
11 *92:52 *606:CLK 23 
12 *92:52 *92:59 13.485 
13 *92:59 *92:65 32.9621 
14 *92:65 *601:CLK 23 
15 *92:59 *602:CLK 24.5743 
16 *92:46 *605:CLK 29.0279 
17 *92:31 *608:CLK 38 
18 *92:29 *92:97 3.66643 
19 *92:97 *607:CLK 38 
20 *92:97 *604:CLK 43.4893 
21 *92:23 *600:CLK 41.3143 
22 *92:8 *597:CLK 41.1693 
*END

*D_NET *93 0.0123297
*CONN
*I *596:CLK I *D sky130_fd_sc_hd__dfrtp_1
*I *595:CLK I *D sky130_fd_sc_hd__dfrtp_1
*I *599:CLK I *D sky130_fd_sc_hd__dfrtp_1
*I *598:CLK I *D sky130_fd_sc_hd__dfrtp_1
*I *594:CLK I *D sky130_fd_sc_hd__dfrtp_1
*I *591:CLK I *D sky130_fd_sc_hd__dfrtp_1
*I *617:CLK I *D sky130_fd_sc_hd__dfrtp_1
*I *625:A I *D sky130_fd_sc_hd__clkinv_2
*I *592:CLK I *D sky130_fd_sc_hd__dfrtp_1
*I *621:X O *D sky130_fd_sc_hd__clkbuf_16
*CAP
1 *596:CLK 3.98857e-05
2 *595:CLK 0
3 *599:CLK 0
4 *598:CLK 0
5 *594:CLK 0
6 *591:CLK 0.000243254
7 *617:CLK 0
8 *625:A 0
9 *592:CLK 0.000575559
10 *621:X 0
11 *93:93 0.000260969
12 *93:85 0.000612978
13 *93:81 0.000487861
14 *93:77 0.000472105
15 *93:68 0.000762523
16 *93:46 0.000580304
17 *93:38 0.00100772
18 *93:34 0.00108102
19 *93:25 0.000248243
20 *93:10 0.00115322
21 *93:4 0.000760115
22 *591:CLK *657:A 0.000324415
23 *591:CLK *134:10 0.000191872
24 *592:CLK *101:118 3.7122e-06
25 *592:CLK *156:28 2.13733e-05
26 *592:CLK *156:47 7.179e-05
27 *596:CLK *560:A0 3.71369e-05
28 *93:10 *541:B 8.65442e-05
29 *93:10 *543:B 0
30 *93:10 *97:85 0
31 *93:10 *97:98 0
32 *93:38 *591:RESET_B 0.000388372
33 *93:38 *657:A 2.18409e-05
34 *93:38 *171:6 9.31593e-05
35 *93:46 *149:20 8.1606e-05
36 *93:46 *171:10 0.000354769
37 *93:68 *521:B 0.000109895
38 *93:68 *594:RESET_B 6.84254e-05
39 *93:68 *99:85 2.32101e-05
40 *93:68 *100:85 2.25809e-05
41 *93:77 *543:B 0
42 *93:77 *595:RESET_B 0
43 *93:77 *101:10 0
44 *93:77 *149:39 0
45 *93:77 *149:47 0
46 *93:81 *595:RESET_B 0
47 *93:81 *166:10 0
48 *93:85 *599:RESET_B 2.8521e-05
49 *93:85 *101:23 0.000255667
50 *93:85 *101:31 0.000126967
51 *93:85 *166:10 0.000205566
52 *93:93 *601:RESET_B 0
53 *93:93 *664:A 0
54 *93:93 *101:31 9.5877e-05
55 *93:93 *162:8 7.28526e-05
56 *93:93 *163:8 9.30054e-05
57 *544:B1 *592:CLK 0.000269781
58 *594:D *93:68 7.88926e-05
59 *22:10 *596:CLK 3.22879e-05
60 *22:10 *93:81 4.59027e-05
61 *23:10 *93:77 0
62 *25:10 *93:93 5.61311e-05
63 *44:18 *93:10 4.6318e-06
64 *44:18 *93:25 7.34858e-05
65 *44:18 *93:34 0.000104051
66 *44:18 *93:68 7.55491e-05
67 *48:10 *93:10 4.334e-05
68 *48:10 *93:25 4.08537e-05
69 *49:10 *93:10 0
70 *50:8 *592:CLK 1.22822e-05
71 *52:12 *592:CLK 0.000183733
72 *52:12 *93:25 0
73 *52:12 *93:34 0
74 *52:12 *93:68 0
75 *77:8 *93:34 0
76 *77:8 *93:68 0
77 *79:10 *592:CLK 5.67058e-05
78 *79:10 *93:46 0.000161121
79 *80:10 *93:46 2.60152e-05
*RES
1 *621:X *93:4 23 
2 *93:4 *93:10 22.25 
3 *93:10 *592:CLK 49.1443 
4 *93:10 *93:25 2.25786 
5 *93:25 *625:A 38 
6 *93:25 *93:34 2.96214 
7 *93:34 *93:38 19.9093 
8 *93:38 *93:46 41.7657 
9 *93:46 *617:CLK 23 
10 *93:38 *591:CLK 29.815 
11 *93:34 *93:68 29.0029 
12 *93:68 *594:CLK 23 
13 *93:4 *93:77 20.075 
14 *93:77 *93:81 17.61 
15 *93:81 *93:85 10.6471 
16 *93:85 *93:93 36.09 
17 *93:93 *598:CLK 23 
18 *93:85 *599:CLK 23 
19 *93:81 *595:CLK 23 
20 *93:77 *596:CLK 39.0979 
*END

*D_NET *94 0.0107065
*CONN
*I *593:CLK I *D sky130_fd_sc_hd__dfrtp_1
*I *603:CLK I *D sky130_fd_sc_hd__dfrtp_1
*I *613:CLK I *D sky130_fd_sc_hd__dfrtp_1
*I *612:CLK I *D sky130_fd_sc_hd__dfrtp_1
*I *586:CLK I *D sky130_fd_sc_hd__dfrtp_2
*I *585:CLK I *D sky130_fd_sc_hd__dfrtp_1
*I *590:CLK I *D sky130_fd_sc_hd__dfrtp_1
*I *615:CLK I *D sky130_fd_sc_hd__dfrtp_1
*I *584:CLK I *D sky130_fd_sc_hd__dfrtp_1
*I *614:CLK I *D sky130_fd_sc_hd__dfrtp_1
*I *611:CLK I *D sky130_fd_sc_hd__dfrtp_1
*I *622:X O *D sky130_fd_sc_hd__clkbuf_16
*CAP
1 *593:CLK 0
2 *603:CLK 0.000385178
3 *613:CLK 0
4 *612:CLK 0.000300352
5 *586:CLK 0
6 *585:CLK 4.24211e-05
7 *590:CLK 0.000112703
8 *615:CLK 0.00024595
9 *584:CLK 0
10 *614:CLK 0.000389641
11 *611:CLK 0.000228914
12 *622:X 0.000184758
13 *94:120 0.000191182
14 *94:105 0.000798916
15 *94:103 0.000881805
16 *94:92 0.000361146
17 *94:51 0.000615414
18 *94:40 0.000491603
19 *94:31 0.000735585
20 *94:27 0.000545904
21 *94:16 0.00085917
22 *94:14 0.000507996
23 *94:10 0.000282977
24 *603:CLK *659:A 0.000100061
25 *611:CLK *118:8 0.000265088
26 *612:CLK *152:10 1.94812e-05
27 *94:10 *98:69 1.23353e-05
28 *94:10 *118:24 0.000107232
29 *94:14 *118:18 7.1349e-05
30 *94:14 *151:51 1.21972e-05
31 *94:16 *611:RESET_B 0.00013273
32 *94:16 *118:8 0.000103647
33 *94:16 *118:18 0.000122226
34 *94:27 *98:10 9.03784e-05
35 *94:27 *98:16 0.000158229
36 *94:27 *98:69 0.000136486
37 *94:27 *103:42 0
38 *94:27 *115:10 0
39 *94:27 *118:18 0
40 *94:27 *152:18 0.000222113
41 *94:27 *154:8 0
42 *94:27 *154:38 1.27508e-05
43 *94:31 *98:16 0.000225275
44 *94:31 *154:8 0
45 *94:40 *614:RESET_B 0.000251307
46 *94:51 *614:RESET_B 7.95148e-05
47 *94:92 *103:56 0
48 *94:103 *103:56 0
49 *94:103 *153:10 0
50 *94:105 *612:RESET_B 0.000177514
51 *94:105 *106:10 8.65442e-05
52 *94:105 *152:10 6.52069e-05
53 *611:D *611:CLK 2.93747e-05
54 *12:10 *94:51 6.38342e-05
55 *13:10 *94:27 0
56 *38:8 *94:120 0
*RES
1 *622:X *94:10 40.8793 
2 *94:10 *94:14 17.0507 
3 *94:14 *94:16 5.86214 
4 *94:16 *611:CLK 28.3857 
5 *94:16 *94:27 23.5964 
6 *94:27 *94:31 17.9621 
7 *94:31 *614:CLK 29.815 
8 *94:31 *94:40 5.86214 
9 *94:40 *584:CLK 23 
10 *94:40 *94:51 20.0129 
11 *94:51 *615:CLK 43.1164 
12 *94:51 *590:CLK 39.5743 
13 *94:27 *585:CLK 38.6214 
14 *94:14 *94:92 17.9621 
15 *94:92 *586:CLK 38 
16 *94:92 *94:103 17.9621 
17 *94:103 *94:105 6.815 
18 *94:105 *612:CLK 28.3857 
19 *94:105 *94:120 33.2314 
20 *94:120 *613:CLK 23 
21 *94:103 *603:CLK 29.815 
22 *94:14 *593:CLK 23 
*END

*D_NET *95 0.00852922
*CONN
*I *588:CLK I *D sky130_fd_sc_hd__dfrtp_1
*I *616:CLK I *D sky130_fd_sc_hd__dfrtp_1
*I *589:CLK I *D sky130_fd_sc_hd__dfrtp_1
*I *626:A I *D sky130_fd_sc_hd__clkinvlp_4
*I *587:CLK I *D sky130_fd_sc_hd__dfrtp_1
*I *618:CLK I *D sky130_fd_sc_hd__dfrtp_1
*I *610:CLK I *D sky130_fd_sc_hd__dfrtp_1
*I *623:X O *D sky130_fd_sc_hd__clkbuf_16
*CAP
1 *588:CLK 0.000193881
2 *616:CLK 0.000682487
3 *589:CLK 0.000277237
4 *626:A 0
5 *587:CLK 0.000266854
6 *618:CLK 0.000389188
7 *610:CLK 0
8 *623:X 0
9 *95:51 0.000439829
10 *95:40 0.00057528
11 *95:36 0.000921843
12 *95:30 0.000327519
13 *95:10 0.000920655
14 *95:4 0.000571582
15 *587:CLK *170:18 5.3304e-05
16 *588:CLK *103:30 0.000212328
17 *589:CLK *582:A0 0.000188865
18 *589:CLK *588:RESET_B 0.000193749
19 *589:CLK *149:117 0.000253392
20 *589:CLK *149:129 0.000356724
21 *589:CLK *149:147 0.00021126
22 *616:CLK *616:RESET_B 4.70852e-05
23 *616:CLK *149:129 9.29579e-06
24 *616:CLK *174:19 6.75862e-05
25 *618:CLK *610:D 0
26 *618:CLK *618:RESET_B 0
27 *95:10 *618:RESET_B 0
28 *95:10 *98:77 3.31683e-05
29 *95:10 *99:63 4.90891e-05
30 *95:10 *103:30 5.61255e-06
31 *95:10 *103:32 8.46456e-05
32 *95:10 *108:10 0
33 *95:36 *616:RESET_B 0.000127272
34 *95:36 *618:RESET_B 3.70187e-05
35 *95:36 *103:30 2.64616e-05
36 *95:36 *182:18 0.000164291
37 *95:40 *616:RESET_B 3.70187e-05
38 *95:40 *98:77 3.32282e-05
39 *95:40 *174:12 0.000164282
40 *95:40 *182:18 0.000293785
41 *95:51 *149:129 0.000181925
42 *618:D *618:CLK 7.73389e-05
43 *40:10 *589:CLK 4.79641e-05
44 *40:10 *95:51 6.17437e-06
*RES
1 *623:X *95:4 23 
2 *95:4 *95:10 23.555 
3 *95:10 *610:CLK 38 
4 *95:10 *618:CLK 45.0429 
5 *95:4 *95:30 0.849286 
6 *95:30 *95:36 17.8793 
7 *95:36 *95:40 19.0186 
8 *95:40 *587:CLK 27.4536 
9 *95:40 *95:51 3.00357 
10 *95:51 *626:A 23 
11 *95:51 *589:CLK 33.3157 
12 *95:36 *616:CLK 47.0936 
13 *95:30 *588:CLK 27.4329 
*END

*D_NET *96 0.00183599
*CONN
*I *577:A2 I *D sky130_fd_sc_hd__o211a_1
*I *574:A2 I *D sky130_fd_sc_hd__o21ai_1
*I *575:C I *D sky130_fd_sc_hd__or3_1
*I *676:X O *D sky130_fd_sc_hd__buf_1
*CAP
1 *577:A2 0.000326962
2 *574:A2 0
3 *575:C 0.000195574
4 *676:X 0
5 *96:10 0.00028005
6 *96:4 0.000411438
7 *575:C *574:A1 0.000119829
8 *575:C *574:B1 0.000185428
9 *575:C *575:B 1.32314e-05
10 *577:A2 *639:A 3.91386e-05
11 *577:A2 *151:20 9.47227e-05
12 *56:8 *96:10 0.000116314
13 *58:10 *577:A2 5.3304e-05
*RES
1 *676:X *96:4 23 
2 *96:4 *96:10 31.5536 
3 *96:10 *575:C 27.8264 
4 *96:10 *574:A2 23 
5 *96:4 *577:A2 28.9036 
*END

*D_NET *97 0.0146267
*CONN
*I *531:A I *D sky130_fd_sc_hd__or2_1
*I *523:A I *D sky130_fd_sc_hd__nand2_1
*I *514:A I *D sky130_fd_sc_hd__xor2_1
*I *522:A I *D sky130_fd_sc_hd__or2_1
*I *543:A I *D sky130_fd_sc_hd__xor2_1
*I *532:A I *D sky130_fd_sc_hd__nand2_1
*I *528:A I *D sky130_fd_sc_hd__or2_1
*I *529:A I *D sky130_fd_sc_hd__nand2_1
*I *504:A I *D sky130_fd_sc_hd__inv_2
*I *573:A1 I *D sky130_fd_sc_hd__mux2_1
*I *627:X O *D sky130_fd_sc_hd__buf_2
*CAP
1 *531:A 0
2 *523:A 2.89203e-05
3 *514:A 0
4 *522:A 7.69148e-05
5 *543:A 0
6 *532:A 1.31028e-05
7 *528:A 0
8 *529:A 8.99731e-05
9 *504:A 0
10 *573:A1 0
11 *627:X 0
12 *97:119 0.000548095
13 *97:104 0.00100501
14 *97:98 0.000638752
15 *97:85 0.000571954
16 *97:72 0.000493771
17 *97:68 0.000863446
18 *97:55 7.97521e-05
19 *97:30 0.000560717
20 *97:16 0.000792317
21 *97:12 0.000712147
22 *97:6 0.000597318
23 *97:4 0.000851889
24 *522:A *523:B 7.55491e-05
25 *522:A *149:24 0.00012482
26 *522:A *149:39 1.2562e-05
27 *522:A *169:18 6.07611e-06
28 *523:A *520:A 5.67058e-05
29 *523:A *523:B 6.68617e-05
30 *529:A *529:B 1.17152e-05
31 *529:A *120:10 0.000138727
32 *529:A *148:35 2.39018e-05
33 *532:A *531:B 5.90675e-06
34 *97:6 *148:35 0.000184746
35 *97:12 *528:B 4.57691e-05
36 *97:12 *529:B 9.48381e-06
37 *97:12 *148:35 0.000383509
38 *97:12 *160:32 2.22079e-05
39 *97:16 *528:B 0.000140259
40 *97:30 *572:A1 0.000244517
41 *97:30 *573:S 5.75622e-05
42 *97:30 *98:16 0.000453316
43 *97:30 *100:59 0
44 *97:30 *147:14 2.36844e-05
45 *97:30 *147:25 0.000561356
46 *97:30 *147:40 8.11552e-05
47 *97:68 *542:B 0
48 *97:68 *99:46 0
49 *97:68 *148:21 0.000180031
50 *97:68 *148:35 5.50049e-05
51 *97:68 *163:25 4.21594e-06
52 *97:72 *531:B 8.28854e-05
53 *97:85 *541:B 0.000311549
54 *97:85 *543:B 0.000215791
55 *97:98 *520:A 9.14931e-05
56 *97:98 *543:B 2.77955e-05
57 *97:104 *520:A 9.24795e-06
58 *97:104 *523:B 0.00044727
59 *97:119 *514:B 5.50049e-05
60 *97:119 *523:B 1.58805e-05
61 *97:119 *149:20 0.000431852
62 *97:119 *149:24 7.39034e-05
63 *524:A1 *97:119 0.000140259
64 *605:CLK *97:30 0.000181218
65 *621:A *97:68 0
66 *621:A *97:85 4.79544e-05
67 *624:A *97:16 5.67058e-05
68 *19:8 *97:119 0.000173385
69 *27:8 *529:A 0.000133658
70 *27:8 *97:12 1.00084e-05
71 *43:12 *97:68 0.000430896
72 *44:18 *97:98 4.96264e-05
73 *47:12 *97:98 3.88504e-05
74 *48:10 *97:98 0.000265477
75 *61:12 *97:30 3.3577e-05
76 *61:23 *97:30 3.3746e-05
77 *71:10 *97:119 9.84851e-05
78 *76:8 *97:119 7.75329e-06
79 *88:10 *97:68 0
80 *88:10 *97:72 1.5769e-05
81 *90:10 *97:68 6.28488e-05
82 *92:8 *97:55 2.04934e-05
83 *92:12 *97:16 0.000169595
84 *93:10 *97:85 0
85 *93:10 *97:98 0
*RES
1 *627:X *97:4 23 
2 *97:4 *97:6 2.05071 
3 *97:6 *97:12 21.1107 
4 *97:12 *97:16 20.3857 
5 *97:16 *97:30 46.0329 
6 *97:30 *573:A1 23 
7 *97:16 *504:A 23 
8 *97:12 *529:A 40.61 
9 *97:6 *97:55 31.2014 
10 *97:55 *528:A 23 
11 *97:4 *97:68 42.0143 
12 *97:68 *97:72 3.02429 
13 *97:72 *532:A 23.4971 
14 *97:72 *97:85 22.8714 
15 *97:85 *543:A 38 
16 *97:85 *97:98 21.09 
17 *97:98 *97:104 20.8829 
18 *97:104 *522:A 40.2579 
19 *97:104 *97:119 28.1743 
20 *97:119 *514:A 23 
21 *97:98 *523:A 24.4707 
22 *97:68 *531:A 23 
*END

*D_NET *98 0.0196984
*CONN
*I *508:A I *D sky130_fd_sc_hd__or2_1
*I *509:A I *D sky130_fd_sc_hd__nand2_1
*I *516:A I *D sky130_fd_sc_hd__nand2_1
*I *517:A I *D sky130_fd_sc_hd__or2_1
*I *507:A I *D sky130_fd_sc_hd__xor2_1
*I *551:A0 I *D sky130_fd_sc_hd__mux2_1
*I *533:A I *D sky130_fd_sc_hd__xor2_1
*I *503:A I *D sky130_fd_sc_hd__inv_2
*I *525:A I *D sky130_fd_sc_hd__xor2_1
*I *572:A1 I *D sky130_fd_sc_hd__mux2_1
*I *628:X O *D sky130_fd_sc_hd__clkbuf_4
*CAP
1 *508:A 0
2 *509:A 9.01319e-05
3 *516:A 0
4 *517:A 0
5 *507:A 3.80527e-05
6 *551:A0 0.000149379
7 *533:A 0.00027363
8 *503:A 0
9 *525:A 0
10 *572:A1 0.000119979
11 *628:X 2.36945e-05
12 *98:120 0.0005299
13 *98:100 0.000196357
14 *98:92 0.000310054
15 *98:88 0.00108464
16 *98:77 0.00112275
17 *98:69 0.00211023
18 *98:42 0.00044781
19 *98:35 0.000570383
20 *98:16 0.00182347
21 *98:10 0.00151193
22 *98:8 0.00163567
23 *507:A *515:B 5.90675e-06
24 *507:A *556:S 0
25 *509:A *509:B 5.50049e-05
26 *509:A *554:A0 2.4754e-05
27 *551:A0 *154:12 5.61255e-06
28 *551:A0 *156:78 0.000269781
29 *572:A1 *572:A0 5.3304e-05
30 *572:A1 *573:S 5.94125e-05
31 *572:A1 *148:37 0.000197479
32 *98:8 *154:12 5.50049e-05
33 *98:16 *548:A 0.000141969
34 *98:16 *668:A 0
35 *98:16 *100:59 0
36 *98:16 *129:36 0
37 *98:16 *148:37 0.000668251
38 *98:16 *148:65 0.000356473
39 *98:35 *608:RESET_B 0.000142697
40 *98:35 *140:47 0.000317816
41 *98:42 *525:B 4.42181e-05
42 *98:69 *639:A 0.000139352
43 *98:69 *99:63 2.32101e-05
44 *98:69 *115:10 9.5877e-05
45 *98:69 *151:12 0.000102375
46 *98:69 *151:20 0
47 *98:69 *154:38 5.56203e-05
48 *98:69 *157:38 3.17516e-05
49 *98:69 *176:29 0.000352421
50 *98:77 *515:B 3.53115e-05
51 *98:77 *616:RESET_B 8.51329e-05
52 *98:77 *618:RESET_B 8.92841e-05
53 *98:77 *99:63 0
54 *98:77 *128:23 1.19796e-05
55 *98:77 *133:8 0
56 *98:77 *170:10 2.93845e-05
57 *98:77 *170:18 0.000197479
58 *98:77 *174:12 9.176e-05
59 *98:77 *182:18 0
60 *98:88 *515:B 0.000225309
61 *98:88 *150:118 0.000224605
62 *98:92 *506:A 0
63 *98:92 *149:10 2.22183e-05
64 *98:92 *149:113 4.23714e-05
65 *98:92 *171:29 4.6318e-06
66 *98:100 *99:98 0
67 *98:100 *149:10 0.000133316
68 *98:100 *149:20 5.28654e-05
69 *98:120 *506:A 0
70 *98:120 *554:A0 0.000228909
71 *98:120 *588:RESET_B 0
72 *98:120 *149:113 5.49737e-05
73 *98:120 *149:147 0.000169683
74 *98:120 *157:44 0
75 *98:120 *174:36 0.000163352
76 *518:B1 *98:100 0.000182826
77 *546:A2 *98:100 6.343e-05
78 *13:10 *551:A0 9.84794e-05
79 *63:8 *98:92 9.21347e-06
80 *64:10 *98:88 0.000182826
81 *65:10 *98:120 1.39317e-05
82 *66:12 *509:A 1.59094e-05
83 *66:12 *98:120 0
84 *70:8 *98:92 4.08641e-05
85 *71:10 *98:100 0
86 *72:10 *98:88 0.000139357
87 *72:10 *98:100 4.21594e-06
88 *82:8 *98:42 5.56279e-05
89 *91:51 *98:69 0.000405894
90 *94:10 *98:69 1.23353e-05
91 *94:27 *98:10 9.03784e-05
92 *94:27 *98:16 0.000158229
93 *94:27 *98:69 0.000136486
94 *94:31 *98:16 0.000225275
95 *95:10 *98:77 3.31683e-05
96 *95:40 *98:77 3.32282e-05
97 *97:30 *572:A1 0.000244517
98 *97:30 *98:16 0.000453316
*RES
1 *628:X *98:8 38.6214 
2 *98:8 *98:10 1.20143 
3 *98:10 *98:16 31.5479 
4 *98:16 *572:A1 41.9357 
5 *98:16 *98:35 23.41 
6 *98:35 *525:A 23 
7 *98:35 *98:42 3.48 
8 *98:42 *503:A 23 
9 *98:42 *533:A 27.9093 
10 *98:10 *551:A0 41.48 
11 *98:8 *98:69 44.6836 
12 *98:69 *98:77 42.9879 
13 *98:77 *507:A 23.8493 
14 *98:77 *98:88 26.1029 
15 *98:88 *98:92 17.61 
16 *98:92 *98:100 34.6607 
17 *98:100 *517:A 23 
18 *98:92 *516:A 23 
19 *98:88 *98:120 25.1293 
20 *98:120 *509:A 25.0714 
21 *98:120 *508:A 23 
*END

*D_NET *99 0.0186144
*CONN
*I *550:A0 I *D sky130_fd_sc_hd__mux2_1
*I *571:A1 I *D sky130_fd_sc_hd__mux2_1
*I *537:B I *D sky130_fd_sc_hd__xor2_1
*I *515:A I *D sky130_fd_sc_hd__xor2_1
*I *521:A I *D sky130_fd_sc_hd__xor2_1
*I *505:A I *D sky130_fd_sc_hd__xor2_1
*I *510:A I *D sky130_fd_sc_hd__xor2_1
*I *534:A I *D sky130_fd_sc_hd__nand2_1
*I *526:A I *D sky130_fd_sc_hd__or2_1
*I *527:A I *D sky130_fd_sc_hd__nand2_1
*I *629:X O *D sky130_fd_sc_hd__clkbuf_4
*CAP
1 *550:A0 0.000358091
2 *571:A1 0
3 *537:B 0
4 *515:A 0
5 *521:A 0
6 *505:A 0
7 *510:A 0
8 *534:A 0
9 *526:A 0
10 *527:A 0
11 *629:X 0
12 *99:125 0.000426616
13 *99:117 0.000930243
14 *99:98 0.000784976
15 *99:85 0.000238151
16 *99:75 0.00133287
17 *99:63 0.000663989
18 *99:55 0.000701929
19 *99:53 0.000709244
20 *99:46 0.000733205
21 *99:40 0.00132253
22 *99:33 7.45518e-05
23 *99:27 0.000544626
24 *99:20 0.000128165
25 *99:14 0.000593852
26 *99:8 0.00134857
27 *99:6 0.000979652
28 *550:A0 *550:A1 0.000187067
29 *550:A0 *103:42 7.12856e-05
30 *550:A0 *156:14 2.99116e-05
31 *550:A0 *156:78 2.04854e-05
32 *99:8 *156:14 8.7808e-06
33 *99:14 *571:S 4.05709e-05
34 *99:14 *654:A 0
35 *99:20 *150:66 0.000157955
36 *99:27 *571:S 1.05235e-05
37 *99:27 *150:45 5.08033e-05
38 *99:33 *155:14 0.000166504
39 *99:40 *150:45 9.02985e-05
40 *99:46 *559:A1 0
41 *99:46 *562:A0 0
42 *99:46 *562:A1 6.03634e-05
43 *99:46 *101:66 0
44 *99:46 *119:10 3.98859e-05
45 *99:46 *148:19 0
46 *99:46 *155:14 0
47 *99:46 *156:16 0
48 *99:53 *505:B 4.39607e-05
49 *99:53 *150:43 1.14876e-05
50 *99:53 *150:45 4.97789e-05
51 *99:53 *173:14 5.83407e-05
52 *99:55 *505:B 3.91386e-05
53 *99:55 *150:43 2.34437e-05
54 *99:63 *128:23 0.000134216
55 *99:63 *133:8 4.334e-05
56 *99:63 *157:38 0.000182832
57 *99:63 *176:29 0.000140259
58 *99:75 *150:43 0.000349618
59 *99:85 *521:B 4.70343e-05
60 *99:85 *167:19 6.93553e-05
61 *99:98 *582:A1 0.000228405
62 *99:98 *149:20 0.000109611
63 *99:98 *149:113 0
64 *99:98 *150:43 9.41704e-05
65 *99:98 *150:118 1.69668e-05
66 *99:98 *171:10 9.48381e-06
67 *99:98 *171:16 0.000140259
68 *99:117 *568:A0 0.00017184
69 *99:117 *568:S 7.59794e-05
70 *99:117 *571:S 0.000736331
71 *99:125 *537:A 0.000280856
72 *99:125 *679:A 0.000139647
73 *99:125 *148:37 0
74 *99:125 *148:65 0
75 *524:C1 *99:85 0
76 *545:A2 *99:98 2.47702e-05
77 *545:B1 *99:98 6.53382e-05
78 *547:B *99:98 2.32101e-05
79 *21:8 *99:46 0.000110922
80 *30:8 *99:117 0.00041545
81 *33:8 *99:125 7.70038e-05
82 *44:18 *99:85 0.000296017
83 *45:10 *99:125 6.07611e-06
84 *47:12 *99:85 0
85 *62:8 *99:98 3.53115e-05
86 *72:10 *99:98 0.000165583
87 *90:10 *99:46 1.14452e-05
88 *91:10 *99:63 0.000136486
89 *91:36 *99:63 0.000880045
90 *91:51 *99:63 0.000269151
91 *93:68 *99:85 2.32101e-05
92 *95:10 *99:63 4.90891e-05
93 *97:68 *99:46 0
94 *98:69 *99:63 2.32101e-05
95 *98:77 *99:63 0
96 *98:100 *99:98 0
*RES
1 *629:X *99:6 38 
2 *99:6 *99:8 10.7093 
3 *99:8 *99:14 18.2521 
4 *99:14 *99:20 32.2579 
5 *99:20 *527:A 23 
6 *99:14 *99:27 3.00357 
7 *99:27 *99:33 32.2579 
8 *99:33 *526:A 23 
9 *99:27 *99:40 3.48 
10 *99:40 *99:46 43.5264 
11 *99:46 *534:A 23 
12 *99:40 *99:53 5.38571 
13 *99:53 *99:55 1.20143 
14 *99:55 *99:63 49.0986 
15 *99:63 *510:A 23 
16 *99:55 *505:A 23 
17 *99:53 *99:75 4.90929 
18 *99:75 *99:85 35.4893 
19 *99:85 *521:A 23 
20 *99:75 *99:98 43.6507 
21 *99:98 *515:A 23 
22 *99:8 *99:117 30.7429 
23 *99:117 *99:125 39.8186 
24 *99:125 *537:B 23 
25 *99:117 *571:A1 23 
26 *99:6 *550:A0 44.09 
*END

*D_NET *100 0.0113111
*CONN
*I *602:RESET_B I *D sky130_fd_sc_hd__dfrtp_1
*I *601:RESET_B I *D sky130_fd_sc_hd__dfrtp_1
*I *597:RESET_B I *D sky130_fd_sc_hd__dfrtp_1
*I *594:RESET_B I *D sky130_fd_sc_hd__dfrtp_1
*I *600:RESET_B I *D sky130_fd_sc_hd__dfrtp_1
*I *604:RESET_B I *D sky130_fd_sc_hd__dfrtp_1
*I *608:RESET_B I *D sky130_fd_sc_hd__dfrtp_1
*I *606:RESET_B I *D sky130_fd_sc_hd__dfrtp_1
*I *609:RESET_B I *D sky130_fd_sc_hd__dfrtp_1
*I *605:RESET_B I *D sky130_fd_sc_hd__dfrtp_1
*I *630:X O *D sky130_fd_sc_hd__clkbuf_4
*CAP
1 *602:RESET_B 0
2 *601:RESET_B 0.000112878
3 *597:RESET_B 0.000212384
4 *594:RESET_B 0.000112937
5 *600:RESET_B 3.98892e-05
6 *604:RESET_B 3.27288e-05
7 *608:RESET_B 0.000155066
8 *606:RESET_B 3.27288e-05
9 *609:RESET_B 0.000217394
10 *605:RESET_B 0.000724196
11 *630:X 0.000113246
12 *100:109 0.000229327
13 *100:85 0.000928165
14 *100:75 0.00137886
15 *100:59 0.00143172
16 *100:47 0.00109302
17 *100:27 0.000444058
18 *100:25 0.000539808
19 *100:6 0.000883108
20 *597:RESET_B *559:A1 0.000272321
21 *597:RESET_B *562:A0 6.25829e-05
22 *597:RESET_B *591:RESET_B 9.45324e-06
23 *597:RESET_B *124:8 2.64616e-05
24 *597:RESET_B *148:19 0.0003216
25 *600:RESET_B *607:RESET_B 1.06815e-05
26 *601:RESET_B *567:S 2.50669e-06
27 *601:RESET_B *148:97 9.21194e-05
28 *601:RESET_B *162:8 0
29 *604:RESET_B *604:D 2.56078e-05
30 *605:RESET_B *566:A0 6.41046e-05
31 *605:RESET_B *160:32 1.97329e-05
32 *609:RESET_B *570:A1 8.1796e-05
33 *609:RESET_B *147:14 2.93845e-05
34 *609:RESET_B *160:14 0
35 *609:RESET_B *160:32 0
36 *100:6 *566:A0 6.70749e-05
37 *100:6 *630:A 3.22879e-05
38 *100:27 *147:14 0
39 *100:27 *160:32 0
40 *100:47 *140:8 2.64506e-05
41 *100:47 *146:8 8.51432e-05
42 *100:47 *147:25 0
43 *100:47 *160:32 0
44 *100:59 *529:B 0
45 *100:59 *539:A1 1.97329e-05
46 *100:59 *565:A1 0
47 *100:59 *129:36 3.56537e-05
48 *100:59 *140:8 3.04021e-05
49 *100:59 *147:40 0
50 *100:59 *160:32 0
51 *100:75 *565:A1 0
52 *100:75 *604:D 0.00017341
53 *100:75 *607:RESET_B 3.20206e-05
54 *100:75 *158:12 4.53056e-05
55 *100:85 *607:RESET_B 7.96152e-06
56 *100:85 *642:A 5.47927e-05
57 *100:85 *161:6 6.15314e-05
58 *100:109 *148:97 0.000108569
59 *100:109 *162:8 0
60 *594:D *100:85 0.000182826
61 *600:CLK *100:59 7.34962e-05
62 *28:10 *605:RESET_B 3.53516e-05
63 *31:10 *100:27 4.21594e-06
64 *31:10 *100:47 3.14274e-05
65 *32:10 *609:RESET_B 0.000177911
66 *61:23 *100:59 0
67 *82:16 *100:75 2.04934e-05
68 *92:23 *100:59 4.58924e-05
69 *92:59 *606:RESET_B 2.56078e-05
70 *93:68 *594:RESET_B 6.84254e-05
71 *93:68 *100:85 2.25809e-05
72 *93:93 *601:RESET_B 0
73 *97:30 *100:59 0
74 *98:16 *100:59 0
75 *98:35 *608:RESET_B 0.000142697
*RES
1 *630:X *100:6 25.5271 
2 *100:6 *605:RESET_B 41.6414 
3 *605:RESET_B *100:25 16.0254 
4 *100:25 *100:27 4.01857 
5 *100:27 *609:RESET_B 19.8368 
6 *100:27 *606:RESET_B 15.5489 
7 *100:25 *100:47 5.77929 
8 *100:47 *608:RESET_B 17.9311 
9 *100:47 *100:59 28.1743 
10 *100:59 *604:RESET_B 0.548929 
11 *100:59 *100:75 41.3721 
12 *100:75 *600:RESET_B 1.04607 
13 *100:75 *100:85 8.24429 
14 *100:85 *594:RESET_B 1.99893 
15 *100:85 *597:RESET_B 35.3961 
16 *100:6 *100:109 17.9621 
17 *100:109 *601:RESET_B 18.0243 
18 *100:109 *602:RESET_B 15 
*END

*D_NET *101 0.0178914
*CONN
*I *592:RESET_B I *D sky130_fd_sc_hd__dfrtp_1
*I *617:RESET_B I *D sky130_fd_sc_hd__dfrtp_1
*I *596:RESET_B I *D sky130_fd_sc_hd__dfrtp_1
*I *599:RESET_B I *D sky130_fd_sc_hd__dfrtp_1
*I *607:RESET_B I *D sky130_fd_sc_hd__dfrtp_1
*I *591:RESET_B I *D sky130_fd_sc_hd__dfrtp_1
*I *630:A I *D sky130_fd_sc_hd__clkbuf_4
*I *598:RESET_B I *D sky130_fd_sc_hd__dfrtp_1
*I *595:RESET_B I *D sky130_fd_sc_hd__dfrtp_1
*I *631:X O *D sky130_fd_sc_hd__clkbuf_4
*CAP
1 *592:RESET_B 5.94539e-05
2 *617:RESET_B 0.000756952
3 *596:RESET_B 3.91738e-05
4 *599:RESET_B 1.61633e-05
5 *607:RESET_B 0.00134698
6 *591:RESET_B 0.00129834
7 *630:A 5.97684e-05
8 *598:RESET_B 0.000205177
9 *595:RESET_B 0.000842565
10 *631:X 0
11 *101:118 0.0011548
12 *101:66 0.00324227
13 *101:53 0.00111448
14 *101:31 0.000935182
15 *101:23 0.000912023
16 *101:10 0.000808723
17 *101:4 0.00088899
18 *591:RESET_B *565:A0 5.12254e-05
19 *591:RESET_B *647:A 1.94812e-05
20 *591:RESET_B *124:8 6.99589e-05
21 *591:RESET_B *164:8 7.38255e-05
22 *596:RESET_B *560:A0 9.18694e-05
23 *598:RESET_B *664:A 8.4047e-05
24 *598:RESET_B *163:21 2.46345e-05
25 *607:RESET_B *642:A 4.08664e-05
26 *607:RESET_B *119:10 0.000216895
27 *607:RESET_B *129:8 2.21565e-05
28 *607:RESET_B *161:6 0.000180218
29 *607:RESET_B *161:10 9.94675e-05
30 *617:RESET_B *125:8 0
31 *617:RESET_B *135:10 0
32 *617:RESET_B *136:8 0
33 *617:RESET_B *168:25 6.86023e-06
34 *630:A *566:A0 5.50049e-05
35 *630:A *148:93 0
36 *630:A *162:8 1.62015e-05
37 *101:10 *139:8 0
38 *101:10 *149:39 7.03869e-05
39 *101:10 *169:18 4.3407e-05
40 *101:31 *163:8 5.3304e-05
41 *101:53 *563:A1 0.000227208
42 *101:53 *566:A0 0.000224605
43 *101:53 *138:10 1.01436e-05
44 *101:53 *162:8 0
45 *101:53 *163:21 0.000290951
46 *101:53 *163:25 1.22412e-05
47 *101:66 *534:B 0.00026824
48 *101:66 *562:A1 9.63815e-05
49 *101:66 *119:10 2.60152e-05
50 *101:66 *148:91 0
51 *101:66 *148:93 0
52 *101:66 *161:10 0.000248979
53 *101:66 *162:8 4.3407e-05
54 *101:66 *162:18 0.000225275
55 *101:118 *156:47 1.83667e-05
56 *101:118 *168:25 8.43721e-05
57 *101:118 *169:18 0
58 *592:CLK *101:118 3.7122e-06
59 *597:RESET_B *591:RESET_B 9.45324e-06
60 *600:RESET_B *607:RESET_B 1.06815e-05
61 *20:10 *617:RESET_B 4.5882e-05
62 *22:10 *595:RESET_B 0
63 *23:10 *595:RESET_B 4.21594e-06
64 *23:10 *101:10 2.79064e-05
65 *25:10 *598:RESET_B 5.45887e-05
66 *25:10 *101:53 9.03054e-05
67 *71:10 *617:RESET_B 0
68 *76:8 *617:RESET_B 0
69 *90:10 *101:66 0
70 *93:38 *591:RESET_B 0.000388372
71 *93:77 *595:RESET_B 0
72 *93:77 *101:10 0
73 *93:81 *595:RESET_B 0
74 *93:85 *599:RESET_B 2.8521e-05
75 *93:85 *101:23 0.000255667
76 *93:85 *101:31 0.000126967
77 *93:93 *101:31 9.5877e-05
78 *99:46 *101:66 0
79 *100:6 *630:A 3.22879e-05
80 *100:75 *607:RESET_B 3.20206e-05
81 *100:85 *607:RESET_B 7.96152e-06
*RES
1 *631:X *101:4 23 
2 *101:4 *101:10 23.3271 
3 *101:10 *595:RESET_B 19.0186 
4 *595:RESET_B *101:23 11.1961 
5 *101:23 *101:31 20.075 
6 *101:31 *598:RESET_B 18.6975 
7 *101:31 *101:53 39.28 
8 *101:53 *630:A 39.4707 
9 *101:53 *101:66 14.2307 
10 *101:66 *591:RESET_B 34.0468 
11 *101:66 *607:RESET_B 34.6682 
12 *101:23 *599:RESET_B 1.04607 
13 *101:10 *596:RESET_B 16.0254 
14 *101:4 *101:118 36.3179 
15 *101:118 *617:RESET_B 43.3918 
16 *101:118 *592:RESET_B 1.02536 
*END

*D_NET *102 0.00859032
*CONN
*I *603:RESET_B I *D sky130_fd_sc_hd__dfrtp_1
*I *586:RESET_B I *D sky130_fd_sc_hd__dfrtp_2
*I *610:RESET_B I *D sky130_fd_sc_hd__dfrtp_1
*I *593:RESET_B I *D sky130_fd_sc_hd__dfrtp_1
*I *585:RESET_B I *D sky130_fd_sc_hd__dfrtp_1
*I *587:RESET_B I *D sky130_fd_sc_hd__dfrtp_1
*I *614:RESET_B I *D sky130_fd_sc_hd__dfrtp_1
*I *584:RESET_B I *D sky130_fd_sc_hd__dfrtp_1
*I *590:RESET_B I *D sky130_fd_sc_hd__dfrtp_1
*I *615:RESET_B I *D sky130_fd_sc_hd__dfrtp_1
*I *632:X O *D sky130_fd_sc_hd__clkbuf_4
*CAP
1 *603:RESET_B 8.23253e-05
2 *586:RESET_B 0.000197702
3 *610:RESET_B 8.00115e-05
4 *593:RESET_B 0.000200618
5 *585:RESET_B 0.000578251
6 *587:RESET_B 3.39303e-05
7 *614:RESET_B 0.000859104
8 *584:RESET_B 1.38581e-05
9 *590:RESET_B 0
10 *615:RESET_B 0.000148422
11 *632:X 0
12 *102:87 0.000434757
13 *102:73 0.00028063
14 *102:71 0.00038786
15 *102:33 0.00106106
16 *102:31 0.000222029
17 *102:14 0.000263461
18 *102:10 0.000254994
19 *102:8 0.000841575
20 *102:6 0.000356499
21 *585:RESET_B *629:A 0.00017712
22 *585:RESET_B *156:14 5.65733e-05
23 *585:RESET_B *176:29 0.000141954
24 *586:RESET_B *552:A0 3.72694e-05
25 *593:RESET_B *179:10 6.88885e-05
26 *593:RESET_B *181:10 6.17437e-06
27 *603:RESET_B *179:10 0.000140415
28 *610:RESET_B *179:10 1.94812e-05
29 *610:RESET_B *181:10 8.92482e-05
30 *615:RESET_B *137:8 0
31 *615:RESET_B *155:14 0.000139639
32 *102:8 *157:29 0
33 *102:10 *629:A 3.57136e-05
34 *102:10 *157:29 0
35 *102:10 *176:8 8.16253e-05
36 *102:14 *629:A 9.48381e-06
37 *102:14 *155:14 4.16661e-05
38 *102:33 *155:8 5.3304e-05
39 *102:71 *157:17 0
40 *102:71 *157:29 0
41 *102:87 *157:17 0
42 *102:87 *179:10 0.000191495
43 *615:D *615:RESET_B 2.56078e-05
44 *3:15 *615:RESET_B 7.80954e-05
45 *3:15 *102:8 0.000111148
46 *3:15 *102:10 0.00016419
47 *3:15 *102:14 8.51329e-05
48 *3:15 *102:71 0.000167412
49 *3:15 *102:87 4.07715e-05
50 *94:40 *614:RESET_B 0.000251307
51 *94:51 *614:RESET_B 7.95148e-05
*RES
1 *632:X *102:6 38 
2 *102:6 *102:8 2.96214 
3 *102:8 *102:10 4.37071 
4 *102:10 *102:14 2.87929 
5 *102:14 *615:RESET_B 19.2154 
6 *102:14 *590:RESET_B 15 
7 *102:10 *102:31 15 
8 *102:31 *102:33 3.00357 
9 *102:33 *584:RESET_B 0.548929 
10 *102:33 *614:RESET_B 14.0754 
11 *102:31 *587:RESET_B 0.548929 
12 *102:8 *585:RESET_B 24.2904 
13 *102:6 *102:71 4.72286 
14 *102:71 *102:73 15 
15 *102:73 *593:RESET_B 3.88393 
16 *102:73 *610:RESET_B 1.97821 
17 *102:71 *102:87 3.66643 
18 *102:87 *586:RESET_B 18.4075 
19 *102:87 *603:RESET_B 16.9057 
*END

*D_NET *103 0.0128468
*CONN
*I *618:RESET_B I *D sky130_fd_sc_hd__dfrtp_1
*I *616:RESET_B I *D sky130_fd_sc_hd__dfrtp_1
*I *632:A I *D sky130_fd_sc_hd__clkbuf_4
*I *613:RESET_B I *D sky130_fd_sc_hd__dfrtp_1
*I *612:RESET_B I *D sky130_fd_sc_hd__dfrtp_1
*I *611:RESET_B I *D sky130_fd_sc_hd__dfrtp_1
*I *588:RESET_B I *D sky130_fd_sc_hd__dfrtp_1
*I *589:RESET_B I *D sky130_fd_sc_hd__dfrtp_1
*I *633:X O *D sky130_fd_sc_hd__buf_2
*CAP
1 *618:RESET_B 0.000394728
2 *616:RESET_B 0.000154799
3 *632:A 0
4 *613:RESET_B 0.000230766
5 *612:RESET_B 4.37273e-05
6 *611:RESET_B 5.52895e-05
7 *588:RESET_B 0.0012949
8 *589:RESET_B 0.000738853
9 *633:X 0.000476535
10 *103:82 0.000549528
11 *103:56 0.000664395
12 *103:42 0.00123148
13 *103:32 0.00144617
14 *103:30 0.00121592
15 *103:10 0.000476535
16 *588:RESET_B *589:D 0.00011638
17 *588:RESET_B *117:10 0
18 *588:RESET_B *149:113 4.18957e-05
19 *588:RESET_B *150:12 0
20 *588:RESET_B *174:36 0
21 *611:RESET_B *118:18 5.3304e-05
22 *612:RESET_B *152:10 9.76463e-05
23 *616:RESET_B *149:129 2.98104e-05
24 *618:RESET_B *610:D 0
25 *618:RESET_B *182:12 3.50939e-05
26 *618:RESET_B *182:18 0.00024863
27 *103:10 *509:B 3.7122e-06
28 *103:10 *112:8 7.03869e-05
29 *103:10 *157:44 0.000107651
30 *103:42 *550:A1 0.000187067
31 *103:42 *550:S 0.000133299
32 *103:42 *551:S 0.000274703
33 *103:42 *115:10 0.000138718
34 *103:42 *118:18 3.47781e-05
35 *103:42 *118:24 0
36 *103:42 *151:12 0.000114092
37 *103:42 *151:51 0.000235062
38 *103:42 *154:8 7.76364e-06
39 *103:42 *156:78 6.83602e-05
40 *103:56 *552:S 6.97103e-05
41 *103:56 *106:10 8.4047e-05
42 *103:56 *118:18 6.12843e-05
43 *550:A0 *103:42 7.12856e-05
44 *588:CLK *103:30 0.000212328
45 *589:CLK *588:RESET_B 0.000193749
46 *616:CLK *616:RESET_B 4.70852e-05
47 *618:CLK *618:RESET_B 0
48 *623:A *103:32 0.000141954
49 *12:10 *103:42 7.88828e-05
50 *16:10 *588:RESET_B 0.000111852
51 *38:8 *613:RESET_B 0
52 *38:8 *103:56 0
53 *69:8 *103:10 0
54 *94:16 *611:RESET_B 0.00013273
55 *94:27 *103:42 0
56 *94:92 *103:56 0
57 *94:103 *103:56 0
58 *94:105 *612:RESET_B 0.000177514
59 *95:10 *618:RESET_B 0
60 *95:10 *103:30 5.61255e-06
61 *95:10 *103:32 8.46456e-05
62 *95:36 *616:RESET_B 0.000127272
63 *95:36 *618:RESET_B 3.70187e-05
64 *95:36 *103:30 2.64616e-05
65 *95:40 *616:RESET_B 3.70187e-05
66 *98:77 *616:RESET_B 8.51329e-05
67 *98:77 *618:RESET_B 8.92841e-05
68 *98:120 *588:RESET_B 0
*RES
1 *633:X *103:10 46.3479 
2 *103:10 *589:RESET_B 15 
3 *589:RESET_B *588:RESET_B 43.4746 
4 *588:RESET_B *103:30 9.62179 
5 *103:30 *103:32 12.0557 
6 *103:32 *103:42 34.0779 
7 *103:42 *611:RESET_B 16.5018 
8 *103:42 *103:56 6.54571 
9 *103:56 *612:RESET_B 16.9782 
10 *103:56 *613:RESET_B 19.4329 
11 *103:32 *632:A 23 
12 *103:30 *103:82 15 
13 *103:82 *616:RESET_B 18.2832 
14 *103:82 *618:RESET_B 24.715 
*END

*D_NET *104 0.000337859
*CONN
*I *603:D I *D sky130_fd_sc_hd__dfrtp_1
*I *637:X O *D sky130_fd_sc_hd__dlygate4sd3_1
*CAP
1 *603:D 0
2 *637:X 0.000168929
3 *104:10 0.000168929
4 *104:10 *153:10 0
5 *104:10 *179:10 0
*RES
1 *637:X *104:10 40.5271 
2 *104:10 *603:D 38 
*END

*D_NET *105 0.00163121
*CONN
*I *549:B I *D sky130_fd_sc_hd__and2b_1
*I *610:D I *D sky130_fd_sc_hd__dfrtp_1
*I *648:X O *D sky130_fd_sc_hd__dlygate4sd3_1
*CAP
1 *549:B 6.81446e-05
2 *610:D 0.000333957
3 *648:X 0.000244941
4 *105:8 0.000647043
5 *549:B *108:10 0
6 *610:D *108:10 0
7 *618:CLK *610:D 0
8 *618:RESET_B *610:D 0
9 *11:8 *549:B 8.62876e-05
10 *11:8 *610:D 0.000250839
*RES
1 *648:X *105:8 41.0036 
2 *105:8 *610:D 45.105 
3 *105:8 *549:B 39.5536 
*END

*D_NET *106 0.00131303
*CONN
*I *552:A1 I *D sky130_fd_sc_hd__mux2_1
*I *580:A I *D sky130_fd_sc_hd__xor2_1
*I *659:X O *D sky130_fd_sc_hd__dlygate4sd3_1
*CAP
1 *552:A1 0
2 *580:A 0.000272344
3 *659:X 0.000239309
4 *106:14 0.000325634
5 *106:10 0.000292599
6 *580:A *552:A0 1.09903e-05
7 *106:14 *552:A0 1.56662e-06
8 *94:105 *106:10 8.65442e-05
9 *103:56 *106:10 8.4047e-05
*RES
1 *659:X *106:10 41.7286 
2 *106:10 *106:14 15.6214 
3 *106:14 *580:A 27.8057 
4 *106:14 *552:A1 23 
*END

*D_NET *107 0.00583577
*CONN
*I *633:A I *D sky130_fd_sc_hd__buf_2
*I *631:A I *D sky130_fd_sc_hd__clkbuf_4
*I *677:X O *D sky130_fd_sc_hd__buf_1
*CAP
1 *633:A 0
2 *631:A 0.000529292
3 *677:X 0.000453091
4 *107:27 0.00117676
5 *107:12 0.00215914
6 *107:12 *130:25 0
7 *107:27 *512:B 0.000307731
8 *107:27 *583:A1 7.76364e-06
9 *107:27 *649:A 0.000141888
10 *107:27 *673:A 0.000250839
11 *107:27 *130:25 0
12 *107:27 *172:8 0.00012077
13 *107:27 *172:19 7.41334e-05
14 *107:27 *175:23 0.000500268
15 *107:27 *178:8 0.000114092
*RES
1 *677:X *107:12 46.6586 
2 *107:12 *631:A 47.1971 
3 *107:12 *107:27 43.9379 
4 *107:27 *633:A 23 
*END

*D_NET *108 0.00135845
*CONN
*I *549:A_N I *D sky130_fd_sc_hd__and2b_1
*I *670:X O *D sky130_fd_sc_hd__dlygate4sd3_1
*CAP
1 *549:A_N 0
2 *670:X 0.000629134
3 *108:10 0.000629134
4 *108:10 *157:38 0.00010018
5 *108:10 *179:10 0
6 *108:10 *181:10 0
7 *549:B *108:10 0
8 *610:D *108:10 0
9 *3:15 *108:10 0
10 *95:10 *108:10 0
*RES
1 *670:X *108:10 49.455 
2 *108:10 *549:A_N 38 
*END

*D_NET *109 0.000974185
*CONN
*I *554:A0 I *D sky130_fd_sc_hd__mux2_1
*I *671:X O *D sky130_fd_sc_hd__dlygate4sd3_1
*CAP
1 *554:A0 0.000246139
2 *671:X 5.94633e-05
3 *109:8 0.000305603
4 *554:A0 *554:A1 2.30292e-05
5 *109:8 *177:12 8.62876e-05
6 *509:A *554:A0 2.4754e-05
7 *98:120 *554:A0 0.000228909
*RES
1 *671:X *109:8 39.2014 
2 *109:8 *554:A0 41.9564 
*END

*D_NET *110 0.000576311
*CONN
*I *588:D I *D sky130_fd_sc_hd__dfrtp_1
*I *672:X O *D sky130_fd_sc_hd__dlygate4sd3_1
*CAP
1 *588:D 0
2 *672:X 0.000162319
3 *110:10 0.000162319
4 *110:10 *150:8 5.50106e-05
5 *110:10 *150:12 0.000141869
6 *110:10 *157:38 5.47927e-05
7 *16:10 *110:10 0
8 *55:12 *110:10 0
*RES
1 *672:X *110:10 41.8321 
2 *110:10 *588:D 38 
*END

*D_NET *111 0.00027405
*CONN
*I *555:A0 I *D sky130_fd_sc_hd__mux2_1
*I *673:X O *D sky130_fd_sc_hd__dlygate4sd3_1
*CAP
1 *555:A0 0
2 *673:X 0.000127842
3 *111:8 0.000127842
4 *111:8 *506:A 0
5 *111:8 *555:A1 0
6 *69:8 *111:8 1.83667e-05
*RES
1 *673:X *111:8 40.2579 
2 *111:8 *555:A0 38 
*END

*D_NET *112 0.000761488
*CONN
*I *589:D I *D sky130_fd_sc_hd__dfrtp_1
*I *674:X O *D sky130_fd_sc_hd__dlygate4sd3_1
*CAP
1 *589:D 0.000190342
2 *674:X 6.18252e-05
3 *112:8 0.000252167
4 *588:RESET_B *589:D 0.00011638
5 *69:8 *112:8 7.03869e-05
6 *103:10 *112:8 7.03869e-05
*RES
1 *674:X *112:8 39.9057 
2 *112:8 *589:D 41.48 
*END

*D_NET *113 0.000578055
*CONN
*I *553:A0 I *D sky130_fd_sc_hd__mux2_1
*I *675:X O *D sky130_fd_sc_hd__dlygate4sd3_1
*CAP
1 *553:A0 5.98193e-05
2 *675:X 5.98193e-05
3 *553:A0 *149:129 5.25848e-05
4 *553:A0 *156:14 8.82787e-05
5 *553:A0 *176:29 0.000317553
*RES
1 *675:X *553:A0 49.48 
*END

*D_NET *114 0.000643698
*CONN
*I *587:D I *D sky130_fd_sc_hd__dfrtp_1
*I *638:X O *D sky130_fd_sc_hd__dlygate4sd3_1
*CAP
1 *587:D 0
2 *638:X 0.000100456
3 *114:10 0.000100456
4 *114:10 *553:A1 0
5 *114:10 *149:129 5.3304e-05
6 *114:10 *156:16 0.000141869
7 *15:8 *114:10 5.3304e-05
8 *91:36 *114:10 0.000194309
*RES
1 *638:X *114:10 41.2314 
2 *114:10 *587:D 38 
*END

*D_NET *115 0.000612337
*CONN
*I *551:A1 I *D sky130_fd_sc_hd__mux2_1
*I *639:X O *D sky130_fd_sc_hd__dlygate4sd3_1
*CAP
1 *551:A1 0
2 *639:X 0.000172315
3 *115:10 0.000172315
4 *115:10 *154:8 3.31127e-05
5 *94:27 *115:10 0
6 *98:69 *115:10 9.5877e-05
7 *103:42 *115:10 0.000138718
*RES
1 *639:X *115:10 41.0036 
2 *115:10 *551:A1 38 
*END

*D_NET *116 0.000447391
*CONN
*I *582:A0 I *D sky130_fd_sc_hd__mux2_1
*I *640:X O *D sky130_fd_sc_hd__dlygate4sd3_1
*CAP
1 *582:A0 0.000129263
2 *640:X 0.000129263
3 *589:CLK *582:A0 0.000188865
*RES
1 *640:X *582:A0 48.5271 
*END

*D_NET *117 0.00100862
*CONN
*I *616:D I *D sky130_fd_sc_hd__dfrtp_1
*I *641:X O *D sky130_fd_sc_hd__dlygate4sd3_1
*CAP
1 *616:D 0
2 *641:X 0.000349958
3 *117:10 0.000349958
4 *117:10 *515:B 9.5877e-05
5 *117:10 *582:A1 8.62876e-05
6 *117:10 *149:113 0
7 *117:10 *150:12 0.000126538
8 *588:RESET_B *117:10 0
*RES
1 *641:X *117:10 43.8207 
2 *117:10 *616:D 38 
*END

*D_NET *118 0.00449118
*CONN
*I *552:S I *D sky130_fd_sc_hd__mux2_1
*I *593:D I *D sky130_fd_sc_hd__dfrtp_1
*I *550:S I *D sky130_fd_sc_hd__mux2_1
*I *551:S I *D sky130_fd_sc_hd__mux2_1
*I *678:X O *D sky130_fd_sc_hd__buf_1
*CAP
1 *552:S 8.06509e-05
2 *593:D 0
3 *550:S 2.30073e-05
4 *551:S 3.70341e-05
5 *678:X 0.000522233
6 *118:24 0.000353773
7 *118:18 0.000565797
8 *118:8 0.000874949
9 *550:S *156:78 0.000144501
10 *551:S *156:78 0.000272377
11 *552:S *152:18 0
12 *118:18 *151:51 0.000314157
13 *118:18 *152:18 0
14 *118:24 *151:12 0
15 *611:CLK *118:8 0.000265088
16 *611:RESET_B *118:18 5.3304e-05
17 *38:8 *552:S 6.07611e-06
18 *94:10 *118:24 0.000107232
19 *94:14 *118:18 7.1349e-05
20 *94:16 *118:8 0.000103647
21 *94:16 *118:18 0.000122226
22 *94:27 *118:18 0
23 *103:42 *550:S 0.000133299
24 *103:42 *551:S 0.000274703
25 *103:42 *118:18 3.47781e-05
26 *103:42 *118:24 0
27 *103:56 *552:S 6.97103e-05
28 *103:56 *118:18 6.12843e-05
*RES
1 *678:X *118:8 45.7679 
2 *118:8 *118:18 22.2293 
3 *118:18 *118:24 35.075 
4 *118:24 *551:S 26.0036 
5 *118:24 *550:S 24.5743 
6 *118:18 *593:D 23 
7 *118:8 *552:S 39.9057 
*END

*D_NET *119 0.00345009
*CONN
*I *565:A0 I *D sky130_fd_sc_hd__mux2_1
*I *562:A1 I *D sky130_fd_sc_hd__mux2_1
*I *642:X O *D sky130_fd_sc_hd__dlygate4sd3_1
*CAP
1 *565:A0 0.000483609
2 *562:A1 0.000223227
3 *642:X 0.00031088
4 *119:10 0.00101772
5 *562:A1 *540:A 0.000358425
6 *565:A0 *565:A1 2.93335e-05
7 *565:A0 *150:66 0.000100069
8 *119:10 *642:A 4.5051e-05
9 *591:RESET_B *565:A0 5.12254e-05
10 *597:CLK *565:A0 4.344e-05
11 *597:D *565:A0 6.99492e-05
12 *607:RESET_B *119:10 0.000216895
13 *24:10 *562:A1 0.000140259
14 *86:10 *565:A0 0.000137361
15 *99:46 *562:A1 6.03634e-05
16 *99:46 *119:10 3.98859e-05
17 *101:66 *562:A1 9.63815e-05
18 *101:66 *119:10 2.60152e-05
*RES
1 *642:X *119:10 42.9093 
2 *119:10 *562:A1 44.5664 
3 *119:10 *565:A0 46.8864 
*END

*D_NET *120 0.00091158
*CONN
*I *600:D I *D sky130_fd_sc_hd__dfrtp_1
*I *643:X O *D sky130_fd_sc_hd__dlygate4sd3_1
*CAP
1 *600:D 0
2 *643:X 0.000230091
3 *120:10 0.000230091
4 *120:10 *529:B 7.03766e-05
5 *120:10 *565:A1 0.000165049
6 *120:10 *148:35 1.05624e-05
7 *529:A *120:10 0.000138727
8 *600:CLK *120:10 1.16773e-05
9 *82:16 *120:10 0
10 *92:12 *120:10 5.50049e-05
*RES
1 *643:X *120:10 43.3443 
2 *120:10 *600:D 38 
*END

*D_NET *121 0.00120963
*CONN
*I *566:A1 I *D sky130_fd_sc_hd__mux2_1
*I *569:A0 I *D sky130_fd_sc_hd__mux2_1
*I *644:X O *D sky130_fd_sc_hd__dlygate4sd3_1
*CAP
1 *566:A1 0
2 *569:A0 0.000280562
3 *644:X 0
4 *121:17 7.9275e-05
5 *121:4 0.000359837
6 *569:A0 *569:S 0.00040657
7 *569:A0 *140:55 3.22051e-05
8 *121:17 *148:93 5.11807e-05
9 *121:17 *159:8 0
*RES
1 *644:X *121:4 23 
2 *121:4 *569:A0 28.8621 
3 *121:4 *121:17 31.5536 
4 *121:17 *566:A1 23 
*END

*D_NET *122 0.00179599
*CONN
*I *561:A1 I *D sky130_fd_sc_hd__mux2_1
*I *564:A0 I *D sky130_fd_sc_hd__mux2_1
*I *645:X O *D sky130_fd_sc_hd__dlygate4sd3_1
*CAP
1 *561:A1 0.000197895
2 *564:A0 0
3 *645:X 0
4 *122:12 0.00038445
5 *122:4 0.000582346
6 *561:A1 *561:A0 5.50049e-05
7 *561:A1 *561:S 1.72202e-05
8 *561:A1 *149:47 0.000201109
9 *122:12 *645:A 5.50106e-05
10 *122:12 *149:47 7.88926e-05
11 *122:12 *165:10 0
12 *122:12 *166:10 1.37246e-05
13 *23:10 *561:A1 9.84794e-05
14 *26:10 *122:12 0.000111852
*RES
1 *645:X *122:4 23 
2 *122:4 *122:12 36.815 
3 *122:12 *564:A0 23 
4 *122:4 *561:A1 27.9093 
*END

*D_NET *123 0.000919867
*CONN
*I *599:D I *D sky130_fd_sc_hd__dfrtp_1
*I *646:X O *D sky130_fd_sc_hd__dlygate4sd3_1
*CAP
1 *599:D 0
2 *646:X 0.000331632
3 *123:10 0.000331632
4 *123:10 *564:A1 1.09886e-05
5 *123:10 *662:A 1.94812e-05
6 *123:10 *163:21 0
7 *123:10 *163:25 3.27254e-05
8 *123:10 *165:10 0.000193407
*RES
1 *646:X *123:10 44.0486 
2 *123:10 *599:D 38 
*END

*D_NET *124 0.00132792
*CONN
*I *559:A1 I *D sky130_fd_sc_hd__mux2_1
*I *562:A0 I *D sky130_fd_sc_hd__mux2_1
*I *647:X O *D sky130_fd_sc_hd__dlygate4sd3_1
*CAP
1 *559:A1 0.000208401
2 *562:A0 9.91145e-05
3 *647:X 6.96651e-05
4 *124:8 0.00037718
5 *559:A1 *148:19 3.62323e-05
6 *562:A0 *148:19 5.09885e-05
7 *124:8 *164:8 5.50106e-05
8 *591:RESET_B *124:8 6.99589e-05
9 *597:RESET_B *559:A1 0.000272321
10 *597:RESET_B *562:A0 6.25829e-05
11 *597:RESET_B *124:8 2.64616e-05
12 *99:46 *559:A1 0
13 *99:46 *562:A0 0
*RES
1 *647:X *124:8 39.5743 
2 *124:8 *562:A0 40.2579 
3 *124:8 *559:A1 42.7229 
*END

*D_NET *125 0.000569489
*CONN
*I *583:A0 I *D sky130_fd_sc_hd__mux2_1
*I *649:X O *D sky130_fd_sc_hd__dlygate4sd3_1
*CAP
1 *583:A0 0
2 *649:X 0.000219753
3 *125:8 0.000219753
4 *125:8 *583:A1 0.000129984
5 *617:RESET_B *125:8 0
*RES
1 *649:X *125:8 43.075 
2 *125:8 *583:A0 38 
*END

*D_NET *126 0.000395666
*CONN
*I *617:D I *D sky130_fd_sc_hd__dfrtp_1
*I *650:X O *D sky130_fd_sc_hd__dlygate4sd3_1
*CAP
1 *617:D 0
2 *650:X 0.000192626
3 *126:10 0.000192626
4 *126:10 *583:S 1.04148e-05
5 *71:10 *126:10 0
*RES
1 *650:X *126:10 41.0036 
2 *126:10 *617:D 38 
*END

*D_NET *127 0.00186882
*CONN
*I *563:A1 I *D sky130_fd_sc_hd__mux2_1
*I *566:A0 I *D sky130_fd_sc_hd__mux2_1
*I *651:X O *D sky130_fd_sc_hd__dlygate4sd3_1
*CAP
1 *563:A1 0.000176456
2 *566:A0 0.000290598
3 *651:X 8.70232e-05
4 *127:10 0.000467054
5 *127:8 8.70232e-05
6 *563:A1 *560:A1 5.3304e-05
7 *563:A1 *564:A1 3.32167e-06
8 *127:8 *138:10 0
9 *127:8 *162:8 5.21127e-05
10 *605:RESET_B *566:A0 6.41046e-05
11 *630:A *566:A0 5.50049e-05
12 *25:10 *563:A1 1.39317e-05
13 *100:6 *566:A0 6.70749e-05
14 *101:53 *563:A1 0.000227208
15 *101:53 *566:A0 0.000224605
*RES
1 *651:X *127:8 39.5536 
2 *127:8 *127:10 15 
3 *127:10 *566:A0 29.3386 
4 *127:10 *563:A1 26.9771 
*END

*D_NET *128 0.00219383
*CONN
*I *556:A1 I *D sky130_fd_sc_hd__mux2_1
*I *559:A0 I *D sky130_fd_sc_hd__mux2_1
*I *652:X O *D sky130_fd_sc_hd__dlygate4sd3_1
*CAP
1 *556:A1 0
2 *559:A0 0.000258258
3 *652:X 0
4 *128:23 0.000496948
5 *128:4 0.000755206
6 *559:A0 *559:S 5.50049e-05
7 *559:A0 *148:6 0.000267178
8 *128:23 *148:6 4.95081e-05
9 *128:23 *182:18 0
10 *44:18 *128:23 0
11 *47:12 *128:23 6.33614e-05
12 *54:10 *128:23 0
13 *87:14 *559:A0 0.000102173
14 *91:10 *128:23 0
15 *98:77 *128:23 1.19796e-05
16 *99:63 *128:23 0.000134216
*RES
1 *652:X *128:4 23 
2 *128:4 *559:A0 28.7793 
3 *128:4 *128:23 38.6379 
4 *128:23 *556:A1 23 
*END

*D_NET *129 0.00382996
*CONN
*I *668:A I *D sky130_fd_sc_hd__dlygate4sd3_1
*I *568:A1 I *D sky130_fd_sc_hd__mux2_1
*I *679:A I *D sky130_fd_sc_hd__buf_2
*I *537:A I *D sky130_fd_sc_hd__xor2_1
*I *607:Q O *D sky130_fd_sc_hd__dfrtp_1
*CAP
1 *668:A 0.000109115
2 *568:A1 0.000150146
3 *679:A 8.72194e-05
4 *537:A 9.87509e-05
5 *607:Q 0
6 *129:36 0.000637648
7 *129:8 0.00076925
8 *129:4 0.000961666
9 *568:A1 *571:S 0.000228903
10 *129:36 *565:A1 0
11 *129:36 *654:A 0
12 *604:CLK *679:A 5.3304e-05
13 *607:RESET_B *129:8 2.21565e-05
14 *4:8 *537:A 7.57361e-05
15 *33:8 *537:A 3.92407e-05
16 *33:8 *679:A 0.000130433
17 *45:10 *537:A 1.02387e-05
18 *92:97 *537:A 0
19 *98:16 *668:A 0
20 *98:16 *129:36 0
21 *99:125 *537:A 0.000280856
22 *99:125 *679:A 0.000139647
23 *100:59 *129:36 3.56537e-05
*RES
1 *607:Q *129:4 23 
2 *129:4 *129:8 22.2914 
3 *129:8 *537:A 42.0186 
4 *129:8 *679:A 40.5271 
5 *129:4 *129:36 21.5457 
6 *129:36 *568:A1 40.5271 
7 *129:36 *668:A 39.9057 
*END

*D_NET *130 0.00297871
*CONN
*I *558:A1 I *D sky130_fd_sc_hd__mux2_1
*I *561:A0 I *D sky130_fd_sc_hd__mux2_1
*I *653:X O *D sky130_fd_sc_hd__dlygate4sd3_1
*CAP
1 *558:A1 0
2 *561:A0 0.000532683
3 *653:X 0
4 *130:25 0.000618097
5 *130:4 0.00115078
6 *561:A0 *561:S 9.75779e-05
7 *561:A0 *169:12 5.50049e-05
8 *561:A0 *169:18 0.000400204
9 *130:25 *172:8 6.93553e-05
10 *561:A1 *561:A0 5.50049e-05
11 *107:12 *130:25 0
12 *107:27 *130:25 0
*RES
1 *653:X *130:4 23 
2 *130:4 *561:A0 34.165 
3 *130:4 *130:25 40.5436 
4 *130:25 *558:A1 23 
*END

*D_NET *131 0.000487503
*CONN
*I *568:A0 I *D sky130_fd_sc_hd__mux2_1
*I *654:X O *D sky130_fd_sc_hd__dlygate4sd3_1
*CAP
1 *568:A0 4.38305e-05
2 *654:X 4.38305e-05
3 *568:A0 *571:S 0.000228001
4 *99:117 *568:A0 0.00017184
*RES
1 *654:X *568:A0 48.5271 
*END

*D_NET *132 0.00164883
*CONN
*I *604:D I *D sky130_fd_sc_hd__dfrtp_1
*I *655:X O *D sky130_fd_sc_hd__dlygate4sd3_1
*CAP
1 *604:D 0.000498321
2 *655:X 0.00010784
3 *132:8 0.000606161
4 *604:D *158:6 7.27085e-05
5 *604:D *158:12 9.67842e-05
6 *132:8 *565:A1 2.71291e-05
7 *132:8 *654:A 4.08641e-05
8 *604:RESET_B *604:D 2.56078e-05
9 *100:75 *604:D 0.00017341
*RES
1 *655:X *132:8 39.9057 
2 *132:8 *604:D 48.15 
*END

*D_NET *133 0.000964552
*CONN
*I *556:A0 I *D sky130_fd_sc_hd__mux2_1
*I *581:A1 I *D sky130_fd_sc_hd__mux2_1
*I *656:X O *D sky130_fd_sc_hd__dlygate4sd3_1
*CAP
1 *556:A0 0
2 *581:A1 0.000217346
3 *656:X 6.66531e-05
4 *133:10 0.000217346
5 *133:8 6.66531e-05
6 *581:A1 *515:B 0
7 *581:A1 *170:10 0.000353214
8 *98:77 *133:8 0
9 *99:63 *133:8 4.334e-05
*RES
1 *656:X *133:8 39.2014 
2 *133:8 *133:10 15 
3 *133:10 *581:A1 27.4536 
4 *133:10 *556:A0 23 
*END

*D_NET *134 0.00136419
*CONN
*I *557:A0 I *D sky130_fd_sc_hd__mux2_1
*I *657:X O *D sky130_fd_sc_hd__dlygate4sd3_1
*CAP
1 *557:A0 0
2 *657:X 0.000495398
3 *134:10 0.000495398
4 *134:10 *657:A 8.95433e-06
5 *134:10 *149:20 8.62783e-05
6 *591:CLK *134:10 0.000191872
7 *79:10 *134:10 8.62876e-05
*RES
1 *657:X *134:10 45.54 
2 *134:10 *557:A0 38 
*END

*D_NET *135 0.000437013
*CONN
*I *591:D I *D sky130_fd_sc_hd__dfrtp_1
*I *658:X O *D sky130_fd_sc_hd__dlygate4sd3_1
*CAP
1 *591:D 0
2 *658:X 0.000203814
3 *135:10 0.000203814
4 *617:RESET_B *135:10 0
5 *71:10 *135:10 2.93845e-05
6 *76:8 *135:10 0
*RES
1 *658:X *135:10 41.2314 
2 *135:10 *591:D 38 
*END

*D_NET *136 0.000149118
*CONN
*I *558:A0 I *D sky130_fd_sc_hd__mux2_1
*I *660:X O *D sky130_fd_sc_hd__dlygate4sd3_1
*CAP
1 *558:A0 0
2 *660:X 6.0609e-05
3 *136:8 6.0609e-05
4 *136:8 *172:8 2.79004e-05
5 *617:RESET_B *136:8 0
*RES
1 *660:X *136:8 39.2014 
2 *136:8 *558:A0 38 
*END

*D_NET *137 0.00097017
*CONN
*I *581:A0 I *D sky130_fd_sc_hd__mux2_1
*I *661:X O *D sky130_fd_sc_hd__dlygate4sd3_1
*CAP
1 *581:A0 7.02555e-05
2 *661:X 0.000215114
3 *137:8 0.000285369
4 *581:A0 *170:10 0.000140259
5 *137:8 *553:A1 4.38375e-05
6 *137:8 *155:14 0
7 *137:8 *173:14 7.66085e-05
8 *615:RESET_B *137:8 0
9 *3:15 *137:8 0
10 *39:8 *137:8 0.000138727
*RES
1 *661:X *137:8 43.075 
2 *137:8 *581:A0 39.5743 
*END

*D_NET *138 0.00209005
*CONN
*I *560:A1 I *D sky130_fd_sc_hd__mux2_1
*I *563:A0 I *D sky130_fd_sc_hd__mux2_1
*I *662:X O *D sky130_fd_sc_hd__dlygate4sd3_1
*CAP
1 *560:A1 0.000443767
2 *563:A0 0
3 *662:X 0.000186092
4 *138:12 0.000443767
5 *138:10 0.000186092
6 *560:A1 *563:S 2.44913e-05
7 *560:A1 *564:A1 0.000344512
8 *560:A1 *149:49 0.000185428
9 *138:10 *163:25 8.4047e-05
10 *563:A1 *560:A1 5.3304e-05
11 *26:10 *560:A1 0.000128401
12 *101:53 *138:10 1.01436e-05
13 *127:8 *138:10 0
*RES
1 *662:X *138:10 40.7757 
2 *138:10 *138:12 15 
3 *138:12 *563:A0 23 
4 *138:12 *560:A1 32.715 
*END

*D_NET *139 0.00139324
*CONN
*I *560:A0 I *D sky130_fd_sc_hd__mux2_1
*I *663:X O *D sky130_fd_sc_hd__dlygate4sd3_1
*CAP
1 *560:A0 0.000550311
2 *663:X 7.99533e-05
3 *139:8 0.000630264
4 *139:8 *168:8 0
5 *596:CLK *560:A0 3.71369e-05
6 *596:RESET_B *560:A0 9.18694e-05
7 *22:10 *560:A0 3.70071e-06
8 *101:10 *139:8 0
*RES
1 *663:X *139:8 39.2014 
2 *139:8 *560:A0 45.2914 
*END

*D_NET *140 0.00398937
*CONN
*I *669:A I *D sky130_fd_sc_hd__dlygate4sd3_1
*I *569:A1 I *D sky130_fd_sc_hd__mux2_1
*I *539:A1 I *D sky130_fd_sc_hd__o221a_1
*I *538:A1 I *D sky130_fd_sc_hd__a221oi_1
*I *680:A I *D sky130_fd_sc_hd__buf_2
*I *608:Q O *D sky130_fd_sc_hd__dfrtp_1
*CAP
1 *669:A 0
2 *569:A1 0
3 *539:A1 6.76157e-05
4 *538:A1 0
5 *680:A 0
6 *608:Q 0
7 *140:55 0.000239978
8 *140:47 0.000467347
9 *140:22 0.000379684
10 *140:14 0.00068967
11 *140:8 0.000492051
12 *140:4 0.000341818
13 *539:A1 *147:25 1.59312e-05
14 *539:A1 *147:40 4.21594e-06
15 *140:8 *147:25 5.93381e-05
16 *140:14 *538:B1 1.14154e-05
17 *140:22 *148:37 0.000118879
18 *140:47 *525:B 0
19 *140:55 *525:B 0
20 *140:55 *160:32 0.000196549
21 *538:A2 *140:14 0.00030279
22 *569:A0 *140:55 3.22051e-05
23 *45:10 *140:22 0
24 *46:8 *140:14 1.32939e-05
25 *60:12 *539:A1 5.50106e-05
26 *60:12 *140:14 1.03836e-05
27 *61:12 *140:22 9.67904e-05
28 *82:16 *140:55 0
29 *98:35 *140:47 0.000317816
30 *100:47 *140:8 2.64506e-05
31 *100:59 *539:A1 1.97329e-05
32 *100:59 *140:8 3.04021e-05
*RES
1 *608:Q *140:4 23 
2 *140:4 *140:8 17.61 
3 *140:8 *140:14 19.8057 
4 *140:14 *140:22 37.2707 
5 *140:22 *680:A 23 
6 *140:14 *538:A1 23 
7 *140:8 *539:A1 39.4707 
8 *140:4 *140:47 4.45357 
9 *140:47 *140:55 34.6607 
10 *140:55 *569:A1 23 
11 *140:47 *669:A 23 
*END

*D_NET *141 0.000642514
*CONN
*I *567:A0 I *D sky130_fd_sc_hd__mux2_1
*I *664:X O *D sky130_fd_sc_hd__dlygate4sd3_1
*CAP
1 *567:A0 0
2 *664:X 0.000296285
3 *141:6 0.000296285
4 *141:6 *567:A1 3.22879e-05
5 *141:6 *567:S 1.76557e-05
*RES
1 *664:X *141:6 28.3857 
2 *141:6 *567:A0 23 
*END

*D_NET *142 0.000296822
*CONN
*I *602:D I *D sky130_fd_sc_hd__dfrtp_1
*I *665:X O *D sky130_fd_sc_hd__dlygate4sd3_1
*CAP
1 *602:D 0.00013518
2 *665:X 0.00013518
3 *602:CLK *602:D 2.64616e-05
*RES
1 *665:X *602:D 48.0507 
*END

*D_NET *143 0.00044879
*CONN
*I *550:A1 I *D sky130_fd_sc_hd__mux2_1
*I *666:X O *D sky130_fd_sc_hd__dlygate4sd3_1
*CAP
1 *550:A1 3.73286e-05
2 *666:X 3.73286e-05
3 *550:A0 *550:A1 0.000187067
4 *103:42 *550:A1 0.000187067
*RES
1 *666:X *550:A1 48.0507 
*END

*D_NET *144 0.000449692
*CONN
*I *570:A0 I *D sky130_fd_sc_hd__mux2_1
*I *667:X O *D sky130_fd_sc_hd__dlygate4sd3_1
*CAP
1 *570:A0 0
2 *667:X 0.000198536
3 *144:10 0.000198536
4 *144:10 *147:14 0
5 *144:10 *160:14 5.26204e-05
*RES
1 *667:X *144:10 41.3557 
2 *144:10 *570:A0 38 
*END

*D_NET *145 0.00073728
*CONN
*I *571:A0 I *D sky130_fd_sc_hd__mux2_1
*I *668:X O *D sky130_fd_sc_hd__dlygate4sd3_1
*CAP
1 *571:A0 0
2 *668:X 0.00036864
3 *145:10 0.00036864
4 *145:10 *548:A 0
*RES
1 *668:X *145:10 42.6814 
2 *145:10 *571:A0 38 
*END

*D_NET *146 0.000893513
*CONN
*I *572:A0 I *D sky130_fd_sc_hd__mux2_1
*I *669:X O *D sky130_fd_sc_hd__dlygate4sd3_1
*CAP
1 *572:A0 0.00023948
2 *669:X 9.67085e-05
3 *146:8 0.000336189
4 *572:A0 *572:S 5.3304e-05
5 *146:8 *147:25 0
6 *572:A1 *572:A0 5.3304e-05
7 *31:10 *572:A0 2.93845e-05
8 *100:47 *146:8 8.51432e-05
*RES
1 *669:X *146:8 40.2579 
2 *146:8 *572:A0 41.9564 
*END

*D_NET *147 0.0051264
*CONN
*I *570:A1 I *D sky130_fd_sc_hd__mux2_1
*I *538:B1 I *D sky130_fd_sc_hd__a221oi_1
*I *681:A I *D sky130_fd_sc_hd__buf_2
*I *539:B1 I *D sky130_fd_sc_hd__o221a_1
*I *573:A0 I *D sky130_fd_sc_hd__mux2_1
*I *609:Q O *D sky130_fd_sc_hd__dfrtp_1
*CAP
1 *570:A1 0.000144041
2 *538:B1 8.12853e-05
3 *681:A 0.000105333
4 *539:B1 0
5 *573:A0 0.000200276
6 *609:Q 0
7 *147:40 0.000614297
8 *147:25 0.00069769
9 *147:14 0.000962793
10 *147:4 0.000636546
11 *147:14 *160:14 0
12 *538:A2 *147:40 1.61361e-05
13 *539:A1 *147:25 1.59312e-05
14 *539:A1 *147:40 4.21594e-06
15 *605:CLK *573:A0 0.000229578
16 *609:RESET_B *570:A1 8.1796e-05
17 *609:RESET_B *147:14 2.93845e-05
18 *31:10 *147:14 3.70094e-05
19 *31:10 *147:25 2.26489e-05
20 *32:10 *147:14 0
21 *46:8 *538:B1 0.000139352
22 *46:8 *147:40 0.000306338
23 *61:23 *147:40 6.48049e-05
24 *97:30 *147:14 2.36844e-05
25 *97:30 *147:25 0.000561356
26 *97:30 *147:40 8.11552e-05
27 *100:27 *147:14 0
28 *100:47 *147:25 0
29 *100:59 *147:40 0
30 *140:8 *147:25 5.93381e-05
31 *140:14 *538:B1 1.14154e-05
32 *144:10 *147:14 0
33 *146:8 *147:25 0
*RES
1 *609:Q *147:4 23 
2 *147:4 *147:14 38.555 
3 *147:14 *573:A0 26.0036 
4 *147:14 *147:25 22.54 
5 *147:25 *539:B1 38 
6 *147:25 *147:40 21.96 
7 *147:40 *681:A 25.0714 
8 *147:40 *538:B1 25.5479 
9 *147:4 *570:A1 26.0036 
*END

*D_NET *148 0.0172198
*CONN
*I *562:S I *D sky130_fd_sc_hd__mux2_1
*I *569:S I *D sky130_fd_sc_hd__mux2_1
*I *566:S I *D sky130_fd_sc_hd__mux2_1
*I *570:S I *D sky130_fd_sc_hd__mux2_1
*I *567:S I *D sky130_fd_sc_hd__mux2_1
*I *548:A I *D sky130_fd_sc_hd__inv_2
*I *568:S I *D sky130_fd_sc_hd__mux2_1
*I *572:S I *D sky130_fd_sc_hd__mux2_1
*I *573:S I *D sky130_fd_sc_hd__mux2_1
*I *559:S I *D sky130_fd_sc_hd__mux2_1
*I *634:X O *D sky130_fd_sc_hd__clkbuf_4
*CAP
1 *562:S 0
2 *569:S 0.000241605
3 *566:S 0
4 *570:S 0.000477106
5 *567:S 0.00024531
6 *548:A 0.000346888
7 *568:S 6.40198e-05
8 *572:S 3.80122e-05
9 *573:S 0.000235017
10 *559:S 1.80505e-05
11 *634:X 0.000243508
12 *148:97 0.00100686
13 *148:93 0.000437378
14 *148:91 0.00091004
15 *148:65 0.000853679
16 *148:37 0.000729906
17 *148:35 0.00194295
18 *148:21 0.00173959
19 *148:19 0.000556061
20 *148:6 0.000636832
21 *567:S *567:A1 1.32314e-05
22 *568:S *571:S 0.000140259
23 *148:19 *156:16 0.000294899
24 *148:19 *156:24 2.96154e-05
25 *148:21 *540:A 0.000430442
26 *148:21 *155:14 0.000181919
27 *148:35 *528:B 0.000450686
28 *148:91 *525:B 0
29 *148:91 *534:B 0
30 *148:91 *159:8 0
31 *148:91 *162:18 0
32 *148:93 *162:8 0
33 *148:97 *162:8 0
34 *529:A *148:35 2.39018e-05
35 *559:A0 *559:S 5.50049e-05
36 *559:A0 *148:6 0.000267178
37 *559:A1 *148:19 3.62323e-05
38 *562:A0 *148:19 5.09885e-05
39 *569:A0 *569:S 0.00040657
40 *572:A0 *572:S 5.3304e-05
41 *572:A1 *573:S 5.94125e-05
42 *572:A1 *148:37 0.000197479
43 *597:RESET_B *148:19 0.0003216
44 *601:RESET_B *567:S 2.50669e-06
45 *601:RESET_B *148:97 9.21194e-05
46 *630:A *148:93 0
47 *27:8 *148:35 0.000136609
48 *28:10 *148:97 0
49 *29:12 *567:S 0
50 *29:12 *148:97 0
51 *34:8 *148:37 0
52 *43:12 *148:21 0.00031495
53 *45:10 *148:37 0
54 *60:8 *148:91 0
55 *82:16 *148:35 0
56 *82:16 *148:91 0
57 *87:14 *559:S 2.93747e-05
58 *87:14 *148:6 0.000374655
59 *92:8 *148:91 6.06831e-05
60 *92:12 *148:35 1.34914e-05
61 *92:52 *573:S 0
62 *97:6 *148:35 0.000184746
63 *97:12 *148:35 0.000383509
64 *97:30 *573:S 5.75622e-05
65 *97:68 *148:21 0.000180031
66 *97:68 *148:35 5.50049e-05
67 *98:16 *548:A 0.000141969
68 *98:16 *148:37 0.000668251
69 *98:16 *148:65 0.000356473
70 *99:46 *148:19 0
71 *99:117 *568:S 7.59794e-05
72 *99:125 *148:37 0
73 *99:125 *148:65 0
74 *100:109 *148:97 0.000108569
75 *101:66 *148:91 0
76 *101:66 *148:93 0
77 *120:10 *148:35 1.05624e-05
78 *121:17 *148:93 5.11807e-05
79 *128:23 *148:6 4.95081e-05
80 *140:22 *148:37 0.000118879
81 *141:6 *567:S 1.76557e-05
82 *145:10 *548:A 0
*RES
1 *634:X *148:6 30.2914 
2 *148:6 *559:S 23.6214 
3 *148:6 *148:19 38.9486 
4 *148:19 *148:21 7.76786 
5 *148:21 *148:35 43.2798 
6 *148:35 *148:37 11.5896 
7 *148:37 *573:S 42.0807 
8 *148:37 *572:S 38.6214 
9 *148:35 *148:65 9.66321 
10 *148:65 *568:S 40.0714 
11 *148:65 *548:A 44.8771 
12 *148:21 *148:91 23.5964 
13 *148:91 *148:93 2.96214 
14 *148:93 *148:97 6.40071 
15 *148:97 *567:S 42.2879 
16 *148:97 *570:S 45.7679 
17 *148:93 *566:S 38 
18 *148:91 *569:S 43.8829 
19 *148:19 *562:S 23 
*END

*D_NET *149 0.0170806
*CONN
*I *554:S I *D sky130_fd_sc_hd__mux2_1
*I *582:S I *D sky130_fd_sc_hd__mux2_1
*I *553:S I *D sky130_fd_sc_hd__mux2_1
*I *583:S I *D sky130_fd_sc_hd__mux2_1
*I *558:S I *D sky130_fd_sc_hd__mux2_1
*I *561:S I *D sky130_fd_sc_hd__mux2_1
*I *560:S I *D sky130_fd_sc_hd__mux2_1
*I *564:S I *D sky130_fd_sc_hd__mux2_1
*I *563:S I *D sky130_fd_sc_hd__mux2_1
*I *557:S I *D sky130_fd_sc_hd__mux2_1
*I *635:X O *D sky130_fd_sc_hd__clkbuf_4
*CAP
1 *554:S 0
2 *582:S 0
3 *553:S 0
4 *583:S 0.000744074
5 *558:S 0.000506564
6 *561:S 7.07181e-05
7 *560:S 0
8 *564:S 0
9 *563:S 0.000443707
10 *557:S 0.000136848
11 *635:X 0
12 *149:147 0.000207141
13 *149:129 0.000760462
14 *149:117 0.000929217
15 *149:113 0.000649388
16 *149:89 0.000667413
17 *149:49 0.000513168
18 *149:47 0.000499512
19 *149:39 0.000784527
20 *149:24 0.00061092
21 *149:20 0.000930453
22 *149:10 0.00145334
23 *149:6 0.000403468
24 *558:S *168:25 4.6595e-05
25 *558:S *168:29 0.000139352
26 *563:S *564:A1 0.000246448
27 *583:S *583:A1 5.67058e-05
28 *149:10 *150:118 4.6318e-06
29 *149:20 *171:10 0
30 *149:39 *156:34 6.4393e-05
31 *149:39 *169:18 0
32 *149:47 *543:B 0
33 *149:47 *166:10 0
34 *149:89 *523:B 4.6318e-06
35 *149:89 *156:47 5.94125e-05
36 *149:89 *168:29 0.0002246
37 *149:113 *582:A1 0
38 *149:113 *150:118 6.74919e-05
39 *149:113 *174:36 1.86869e-05
40 *149:129 *156:14 0.0002263
41 *149:129 *174:6 5.50049e-05
42 *149:129 *174:19 0.000135037
43 *149:129 *176:29 1.76557e-05
44 *149:129 *182:18 0.000166504
45 *149:147 *157:44 0
46 *522:A *149:24 0.00012482
47 *522:A *149:39 1.2562e-05
48 *545:A2 *583:S 0.00025393
49 *545:A2 *149:20 9.5877e-05
50 *553:A0 *149:129 5.25848e-05
51 *560:A1 *563:S 2.44913e-05
52 *560:A1 *149:49 0.000185428
53 *561:A0 *561:S 9.75779e-05
54 *561:A1 *561:S 1.72202e-05
55 *561:A1 *149:47 0.000201109
56 *588:RESET_B *149:113 4.18957e-05
57 *589:CLK *149:117 0.000253392
58 *589:CLK *149:129 0.000356724
59 *589:CLK *149:147 0.00021126
60 *616:CLK *149:129 9.29579e-06
61 *616:RESET_B *149:129 2.98104e-05
62 *650:A *583:S 8.14152e-05
63 *15:8 *149:129 0.000142513
64 *20:10 *558:S 0.000400204
65 *49:10 *149:39 3.88504e-05
66 *52:12 *557:S 5.24583e-05
67 *55:12 *149:129 0.000164282
68 *65:10 *149:147 3.5664e-05
69 *71:10 *149:20 0
70 *72:10 *149:10 0
71 *76:8 *149:20 0
72 *79:10 *557:S 0.000137788
73 *79:10 *149:20 0.000135208
74 *79:10 *149:24 7.461e-05
75 *81:8 *149:20 0.000351617
76 *93:46 *149:20 8.1606e-05
77 *93:77 *149:39 0
78 *93:77 *149:47 0
79 *95:51 *149:129 0.000181925
80 *97:119 *149:20 0.000431852
81 *97:119 *149:24 7.39034e-05
82 *98:92 *149:10 2.22183e-05
83 *98:92 *149:113 4.23714e-05
84 *98:100 *149:10 0.000133316
85 *98:100 *149:20 5.28654e-05
86 *98:120 *149:113 5.49737e-05
87 *98:120 *149:147 0.000169683
88 *99:98 *149:20 0.000109611
89 *99:98 *149:113 0
90 *101:10 *149:39 7.03869e-05
91 *114:10 *149:129 5.3304e-05
92 *117:10 *149:113 0
93 *122:12 *149:47 7.88926e-05
94 *126:10 *583:S 1.04148e-05
95 *134:10 *149:20 8.62783e-05
*RES
1 *635:X *149:6 38 
2 *149:6 *149:10 17.61 
3 *149:10 *149:20 29.4586 
4 *149:20 *149:24 3.88393 
5 *149:24 *557:S 41.0554 
6 *149:24 *149:39 20.9554 
7 *149:39 *149:47 38.7 
8 *149:47 *149:49 2.05071 
9 *149:49 *563:S 30.7057 
10 *149:49 *564:S 23 
11 *149:47 *560:S 23 
12 *149:39 *561:S 24.5743 
13 *149:20 *149:89 48.3764 
14 *149:89 *558:S 33.6471 
15 *149:10 *583:S 34.9729 
16 *149:6 *149:113 20.7793 
17 *149:113 *149:117 3.50071 
18 *149:117 *149:129 47.8143 
19 *149:129 *553:S 23 
20 *149:117 *582:S 23 
21 *149:113 *149:147 34.785 
22 *149:147 *554:S 23 
*END

*D_NET *150 0.0161857
*CONN
*I *555:S I *D sky130_fd_sc_hd__mux2_1
*I *635:A I *D sky130_fd_sc_hd__clkbuf_4
*I *556:S I *D sky130_fd_sc_hd__mux2_1
*I *581:S I *D sky130_fd_sc_hd__mux2_1
*I *565:S I *D sky130_fd_sc_hd__mux2_1
*I *571:S I *D sky130_fd_sc_hd__mux2_1
*I *634:A I *D sky130_fd_sc_hd__clkbuf_4
*I *636:X O *D sky130_fd_sc_hd__buf_2
*CAP
1 *555:S 0
2 *635:A 3.83602e-05
3 *556:S 0.000213074
4 *581:S 0
5 *565:S 0
6 *571:S 0.000684947
7 *634:A 0.000159486
8 *636:X 8.67036e-05
9 *150:118 0.000689283
10 *150:97 0.000826633
11 *150:77 0.000377843
12 *150:66 0.00070755
13 *150:45 0.00186335
14 *150:43 0.000999539
15 *150:24 0.000884323
16 *150:12 0.00109082
17 *150:8 0.000717607
18 *556:S *170:10 0.000353096
19 *150:8 *157:38 5.61255e-06
20 *150:12 *582:A1 0.0003175
21 *150:43 *505:B 0.000139352
22 *150:43 *173:14 4.34745e-05
23 *150:45 *173:14 9.84851e-05
24 *150:66 *157:29 0.000162728
25 *150:77 *553:A1 6.4393e-05
26 *150:77 *156:16 0.000190205
27 *150:77 *173:14 0.000126936
28 *150:118 *511:B 4.21471e-05
29 *150:118 *555:A1 3.22879e-05
30 *507:A *556:S 0
31 *513:A2 *150:118 0.000143655
32 *513:B1 *150:118 1.22822e-05
33 *513:B2 *150:118 0.000326366
34 *518:B1 *635:A 4.00259e-06
35 *518:B1 *150:97 5.47927e-05
36 *546:A2 *150:24 0.000354122
37 *546:A2 *150:97 0.000262864
38 *546:B1 *150:24 1.14876e-05
39 *547:B *150:43 0.00018282
40 *565:A0 *150:66 0.000100069
41 *568:A0 *571:S 0.000228001
42 *568:A1 *571:S 0.000228903
43 *568:S *571:S 0.000140259
44 *588:RESET_B *150:12 0
45 *16:10 *150:12 0
46 *18:10 *556:S 0.000139357
47 *40:10 *150:12 0
48 *44:18 *634:A 0.000218943
49 *44:18 *150:24 7.83045e-05
50 *52:20 *634:A 0
51 *52:20 *150:24 8.10857e-05
52 *55:12 *150:8 3.7122e-06
53 *55:12 *150:24 0.000165583
54 *62:8 *150:43 0.000133698
55 *64:10 *150:24 0
56 *67:12 *150:12 0
57 *67:12 *150:24 1.14452e-05
58 *72:10 *150:118 4.96264e-05
59 *73:8 *150:97 2.13733e-05
60 *86:10 *150:66 1.01035e-05
61 *87:14 *634:A 5.50106e-05
62 *98:88 *150:118 0.000224605
63 *99:14 *571:S 4.05709e-05
64 *99:20 *150:66 0.000157955
65 *99:27 *571:S 1.05235e-05
66 *99:27 *150:45 5.08033e-05
67 *99:40 *150:45 9.02985e-05
68 *99:53 *150:43 1.14876e-05
69 *99:53 *150:45 4.97789e-05
70 *99:55 *150:43 2.34437e-05
71 *99:75 *150:43 0.000349618
72 *99:98 *150:43 9.41704e-05
73 *99:98 *150:118 1.69668e-05
74 *99:117 *571:S 0.000736331
75 *110:10 *150:8 5.50106e-05
76 *110:10 *150:12 0.000141869
77 *117:10 *150:12 0.000126538
78 *149:10 *150:118 4.6318e-06
79 *149:113 *150:118 6.74919e-05
*RES
1 *636:X *150:8 39.0979 
2 *150:8 *150:12 27.8221 
3 *150:12 *150:24 23.8864 
4 *150:24 *634:A 41.5836 
5 *150:24 *150:43 24.5907 
6 *150:43 *150:45 8.72071 
7 *150:45 *571:S 39.24 
8 *150:45 *150:66 41.7657 
9 *150:66 *565:S 23 
10 *150:43 *150:77 35.075 
11 *150:77 *581:S 23 
12 *150:77 *556:S 28.5721 
13 *150:12 *150:97 3.00357 
14 *150:97 *635:A 23.8493 
15 *150:97 *150:118 44.9764 
16 *150:118 *555:S 23 
*END

*D_NET *151 0.00448399
*CONN
*I *666:A I *D sky130_fd_sc_hd__dlygate4sd3_1
*I *577:C1 I *D sky130_fd_sc_hd__o211a_1
*I *575:A I *D sky130_fd_sc_hd__or3_1
*I *574:B1 I *D sky130_fd_sc_hd__o21ai_1
*I *611:Q O *D sky130_fd_sc_hd__dfrtp_1
*CAP
1 *666:A 0
2 *577:C1 2.3668e-05
3 *575:A 0
4 *574:B1 3.17821e-05
5 *611:Q 0
6 *151:51 0.000850364
7 *151:20 0.000404706
8 *151:12 0.000635817
9 *151:4 0.00108959
10 *574:B1 *574:A1 0.00010655
11 *577:C1 *639:A 2.48087e-05
12 *151:12 *639:A 2.15253e-05
13 *151:20 *639:A 4.5051e-05
14 *151:20 *154:38 3.28876e-05
15 *151:51 *156:78 1.68817e-05
16 *151:51 *157:17 0
17 *151:51 *157:29 0
18 *575:C *574:B1 0.000185428
19 *577:A2 *151:20 9.47227e-05
20 *578:B *151:20 0
21 *57:8 *151:20 5.51058e-05
22 *58:10 *151:20 8.72173e-05
23 *94:14 *151:51 1.21972e-05
24 *98:69 *151:12 0.000102375
25 *98:69 *151:20 0
26 *103:42 *151:12 0.000114092
27 *103:42 *151:51 0.000235062
28 *118:18 *151:51 0.000314157
29 *118:24 *151:12 0
*RES
1 *611:Q *151:4 23 
2 *151:4 *151:12 35.0336 
3 *151:12 *151:20 36.7943 
4 *151:20 *574:B1 25.0507 
5 *151:20 *575:A 23 
6 *151:12 *577:C1 23.7043 
7 *151:4 *151:51 44.065 
8 *151:51 *666:A 23 
*END

*D_NET *152 0.002628
*CONN
*I *578:A_N I *D sky130_fd_sc_hd__and2b_1
*I *577:B1 I *D sky130_fd_sc_hd__o211a_1
*I *639:A I *D sky130_fd_sc_hd__dlygate4sd3_1
*I *612:Q O *D sky130_fd_sc_hd__dfrtp_1
*CAP
1 *578:A_N 6.5109e-05
2 *577:B1 0
3 *639:A 5.25026e-05
4 *612:Q 0.000413445
5 *152:18 0.000422402
6 *152:10 0.000848453
7 *152:18 *154:38 6.07611e-06
8 *552:S *152:18 0
9 *577:A2 *639:A 3.91386e-05
10 *577:C1 *639:A 2.48087e-05
11 *579:A *578:A_N 6.17437e-06
12 *580:B *578:A_N 5.12254e-05
13 *612:CLK *152:10 1.94812e-05
14 *612:RESET_B *152:10 9.76463e-05
15 *37:10 *152:10 0
16 *38:8 *152:10 0
17 *38:8 *152:18 0
18 *58:10 *152:18 8.82915e-05
19 *94:27 *152:18 0.000222113
20 *94:105 *152:10 6.52069e-05
21 *98:69 *639:A 0.000139352
22 *118:18 *152:18 0
23 *151:12 *639:A 2.15253e-05
24 *151:20 *639:A 4.5051e-05
*RES
1 *612:Q *152:10 43.9864 
2 *152:10 *152:18 22.3743 
3 *152:18 *639:A 25.0714 
4 *152:18 *577:B1 23 
5 *152:10 *578:A_N 39.0979 
*END

*D_NET *153 0.000745892
*CONN
*I *659:A I *D sky130_fd_sc_hd__dlygate4sd3_1
*I *613:Q O *D sky130_fd_sc_hd__dfrtp_1
*CAP
1 *659:A 4.21149e-05
2 *613:Q 0.000280801
3 *153:10 0.000322916
4 *603:CLK *659:A 0.000100061
5 *94:103 *153:10 0
6 *104:10 *153:10 0
*RES
1 *613:Q *153:10 41.8321 
2 *153:10 *659:A 39.0979 
*END

*D_NET *154 0.00278175
*CONN
*I *577:A1 I *D sky130_fd_sc_hd__o211a_1
*I *574:A1 I *D sky130_fd_sc_hd__o21ai_1
*I *575:B I *D sky130_fd_sc_hd__or3_1
*I *614:Q O *D sky130_fd_sc_hd__dfrtp_1
*CAP
1 *577:A1 0
2 *574:A1 0.000280777
3 *575:B 3.25128e-05
4 *614:Q 0.000306362
5 *154:38 0.000103855
6 *154:14 0.000359548
7 *154:12 0.000431888
8 *154:8 0.000588137
9 *154:12 *156:78 8.65442e-05
10 *551:A0 *154:12 5.61255e-06
11 *574:B1 *574:A1 0.00010655
12 *575:C *574:A1 0.000119829
13 *575:C *575:B 1.32314e-05
14 *12:10 *154:8 0
15 *13:10 *154:8 0.000114074
16 *58:10 *154:38 2.96154e-05
17 *94:27 *154:8 0
18 *94:27 *154:38 1.27508e-05
19 *94:31 *154:8 0
20 *98:8 *154:12 5.50049e-05
21 *98:69 *154:38 5.56203e-05
22 *103:42 *154:8 7.76364e-06
23 *115:10 *154:8 3.31127e-05
24 *151:20 *154:38 3.28876e-05
25 *152:18 *154:38 6.07611e-06
*RES
1 *614:Q *154:8 43.7793 
2 *154:8 *154:12 18.9564 
3 *154:12 *154:14 0.621429 
4 *154:14 *575:B 23.6214 
5 *154:14 *574:A1 29.4836 
6 *154:12 *154:38 32.2579 
7 *154:38 *577:A1 23 
*END

*D_NET *155 0.00634226
*CONN
*I *629:A I *D sky130_fd_sc_hd__clkbuf_4
*I *540:A I *D sky130_fd_sc_hd__xor2_1
*I *535:A I *D sky130_fd_sc_hd__or2_1
*I *584:Q O *D sky130_fd_sc_hd__dfrtp_1
*CAP
1 *629:A 0.000219087
2 *540:A 0.000207135
3 *535:A 0
4 *584:Q 4.99221e-05
5 *155:14 0.000884044
6 *155:8 0.000945918
7 *540:A *520:A 0.000139357
8 *629:A *156:14 0.000101366
9 *629:A *157:29 0.00028703
10 *629:A *176:8 0.000166513
11 *155:14 *534:B 1.83667e-05
12 *155:14 *157:29 0.00139714
13 *155:14 *161:10 0.000120462
14 *562:A1 *540:A 0.000358425
15 *585:RESET_B *629:A 0.00017712
16 *615:RESET_B *155:14 0.000139639
17 *21:8 *155:14 0
18 *24:10 *540:A 2.4754e-05
19 *24:10 *155:14 0.000186955
20 *99:33 *155:14 0.000166504
21 *99:46 *155:14 0
22 *102:10 *629:A 3.57136e-05
23 *102:14 *629:A 9.48381e-06
24 *102:14 *155:14 4.16661e-05
25 *102:33 *155:8 5.3304e-05
26 *137:8 *155:14 0
27 *148:21 *540:A 0.000430442
28 *148:21 *155:14 0.000181919
*RES
1 *584:Q *155:8 38.6214 
2 *155:8 *155:14 35.8593 
3 *155:14 *535:A 23 
4 *155:14 *540:A 30.2914 
5 *155:8 *629:A 45.6436 
*END

*D_NET *156 0.0137212
*CONN
*I *628:A I *D sky130_fd_sc_hd__clkbuf_4
*I *520:A I *D sky130_fd_sc_hd__nand2_1
*I *542:A I *D sky130_fd_sc_hd__or2_1
*I *519:A I *D sky130_fd_sc_hd__or2_1
*I *541:A I *D sky130_fd_sc_hd__nand2_1
*I *585:Q O *D sky130_fd_sc_hd__dfrtp_1
*CAP
1 *628:A 0
2 *520:A 0.00050988
3 *542:A 0
4 *519:A 0
5 *541:A 0
6 *585:Q 0
7 *156:78 0.000611396
8 *156:47 0.000392925
9 *156:34 7.66226e-05
10 *156:28 0.00119489
11 *156:24 0.000999319
12 *156:16 0.00157624
13 *156:14 0.00181623
14 *156:6 0.00163524
15 *520:A *520:B 2.02517e-05
16 *520:A *523:B 3.44446e-05
17 *156:14 *176:12 1.59094e-05
18 *156:14 *176:29 5.01883e-05
19 *156:16 *553:A1 0
20 *156:34 *169:18 4.5882e-05
21 *156:47 *523:B 6.0093e-05
22 *156:47 *168:25 0
23 *156:47 *169:18 2.22183e-05
24 *523:A *520:A 5.67058e-05
25 *536:A2 *156:24 1.46586e-05
26 *540:A *520:A 0.000139357
27 *550:A0 *156:14 2.99116e-05
28 *550:A0 *156:78 2.04854e-05
29 *550:S *156:78 0.000144501
30 *551:A0 *156:78 0.000269781
31 *551:S *156:78 0.000272377
32 *553:A0 *156:14 8.82787e-05
33 *585:RESET_B *156:14 5.65733e-05
34 *592:CLK *156:28 2.13733e-05
35 *592:CLK *156:47 7.179e-05
36 *629:A *156:14 0.000101366
37 *42:8 *156:24 0
38 *42:8 *156:28 0
39 *43:12 *156:24 4.23817e-05
40 *47:6 *156:24 0.000269781
41 *47:6 *156:28 2.25419e-05
42 *48:10 *520:A 4.61435e-05
43 *50:8 *156:28 0.000698408
44 *52:12 *156:28 3.17516e-05
45 *80:10 *520:A 0.00010018
46 *91:10 *156:16 0.000464797
47 *91:10 *156:24 0.000119921
48 *91:29 *156:24 2.37316e-05
49 *91:36 *156:16 0.000246263
50 *97:98 *520:A 9.14931e-05
51 *97:104 *520:A 9.24795e-06
52 *99:8 *156:14 8.7808e-06
53 *99:46 *156:16 0
54 *101:118 *156:47 1.83667e-05
55 *103:42 *156:78 6.83602e-05
56 *114:10 *156:16 0.000141869
57 *148:19 *156:16 0.000294899
58 *148:19 *156:24 2.96154e-05
59 *149:39 *156:34 6.4393e-05
60 *149:89 *156:47 5.94125e-05
61 *149:129 *156:14 0.0002263
62 *150:77 *156:16 0.000190205
63 *151:51 *156:78 1.68817e-05
64 *154:12 *156:78 8.65442e-05
*RES
1 *585:Q *156:6 38 
2 *156:6 *156:14 45.3907 
3 *156:14 *156:16 21.2736 
4 *156:16 *156:24 21.815 
5 *156:24 *156:28 11.4757 
6 *156:28 *156:34 31.9057 
7 *156:34 *541:A 23 
8 *156:28 *156:47 37.0221 
9 *156:47 *519:A 23 
10 *156:24 *542:A 23 
11 *156:16 *520:A 48.1707 
12 *156:6 *156:78 28.2779 
13 *156:78 *628:A 23 
*END

*D_NET *157 0.0144585
*CONN
*I *512:A I *D sky130_fd_sc_hd__or2_1
*I *511:A I *D sky130_fd_sc_hd__nand2_1
*I *506:A I *D sky130_fd_sc_hd__xor2_1
*I *627:A I *D sky130_fd_sc_hd__buf_2
*I *552:A0 I *D sky130_fd_sc_hd__mux2_1
*I *586:Q O *D sky130_fd_sc_hd__dfrtp_2
*CAP
1 *512:A 0.000187153
2 *511:A 0
3 *506:A 0.000263678
4 *627:A 0
5 *552:A0 0.000926789
6 *586:Q 0
7 *157:44 0.00059321
8 *157:42 0.000709104
9 *157:38 0.00162107
10 *157:29 0.00130258
11 *157:17 0.00299438
12 *157:4 0.00118994
13 *506:A *506:B 5.50049e-05
14 *512:A *671:A 0.000185434
15 *157:38 *176:29 1.41129e-05
16 *157:42 *177:12 2.55642e-05
17 *157:44 *177:12 0.000169683
18 *580:A *552:A0 1.09903e-05
19 *586:D *552:A0 0.000102052
20 *586:RESET_B *552:A0 3.72694e-05
21 *597:CLK *157:29 2.86209e-05
22 *629:A *157:29 0.00028703
23 *672:A *157:38 7.88926e-05
24 *55:12 *157:38 0.000402806
25 *63:8 *506:A 0
26 *66:12 *506:A 1.14452e-05
27 *66:12 *157:44 0.00033702
28 *67:8 *157:38 4.27467e-05
29 *69:8 *506:A 0
30 *69:8 *157:44 0
31 *70:8 *506:A 0
32 *85:10 *157:29 0
33 *91:51 *157:38 0.000828043
34 *92:8 *157:29 9.5876e-06
35 *98:69 *157:38 3.17516e-05
36 *98:92 *506:A 0
37 *98:120 *506:A 0
38 *98:120 *157:44 0
39 *99:63 *157:38 0.000182832
40 *102:8 *157:29 0
41 *102:10 *157:29 0
42 *102:71 *157:17 0
43 *102:71 *157:29 0
44 *102:87 *157:17 0
45 *103:10 *157:44 0.000107651
46 *106:14 *552:A0 1.56662e-06
47 *108:10 *157:38 0.00010018
48 *110:10 *157:38 5.47927e-05
49 *111:8 *506:A 0
50 *149:147 *157:44 0
51 *150:8 *157:38 5.61255e-06
52 *150:66 *157:29 0.000162728
53 *151:51 *157:17 0
54 *151:51 *157:29 0
55 *155:14 *157:29 0.00139714
*RES
1 *586:Q *157:4 23 
2 *157:4 *552:A0 35.7807 
3 *157:4 *157:17 19.3707 
4 *157:17 *157:29 45.2014 
5 *157:29 *627:A 23 
6 *157:17 *157:38 44.2071 
7 *157:38 *157:42 18.6664 
8 *157:42 *157:44 8.24429 
9 *157:44 *506:A 42.4121 
10 *157:44 *511:A 38 
11 *157:42 *512:A 41.9564 
*END

*D_NET *158 0.00356
*CONN
*I *654:A I *D sky130_fd_sc_hd__dlygate4sd3_1
*I *565:A1 I *D sky130_fd_sc_hd__mux2_1
*I *526:B I *D sky130_fd_sc_hd__or2_1
*I *527:B I *D sky130_fd_sc_hd__nand2_1
*I *604:Q O *D sky130_fd_sc_hd__dfrtp_1
*CAP
1 *654:A 0.000103284
2 *565:A1 0.000563614
3 *526:B 3.07473e-05
4 *527:B 0
5 *604:Q 9.94792e-05
6 *158:26 0.000666899
7 *158:12 0.000445191
8 *158:6 0.000513923
9 *565:A1 *529:B 7.53384e-06
10 *530:A2 *158:12 0.000144634
11 *530:B2 *158:12 6.38125e-05
12 *565:A0 *565:A1 2.93335e-05
13 *600:CLK *565:A1 8.18743e-05
14 *604:D *158:6 7.27085e-05
15 *604:D *158:12 9.67842e-05
16 *82:16 *565:A1 0
17 *82:16 *158:12 1.74201e-05
18 *83:10 *526:B 5.98263e-05
19 *83:10 *158:12 2.81363e-05
20 *86:10 *565:A1 8.56309e-05
21 *87:14 *526:B 3.17516e-05
22 *87:14 *158:12 0.000139067
23 *99:14 *654:A 0
24 *100:59 *565:A1 0
25 *100:75 *565:A1 0
26 *100:75 *158:12 4.53056e-05
27 *120:10 *565:A1 0.000165049
28 *129:36 *565:A1 0
29 *129:36 *654:A 0
30 *132:8 *565:A1 2.71291e-05
31 *132:8 *654:A 4.08641e-05
*RES
1 *604:Q *158:6 24.5743 
2 *158:6 *158:12 9.11429 
3 *158:12 *527:B 23 
4 *158:12 *526:B 24.0979 
5 *158:6 *158:26 15 
6 *158:26 *565:A1 48.585 
7 *158:26 *654:A 39.9057 
*END

*D_NET *159 0.000944854
*CONN
*I *525:B I *D sky130_fd_sc_hd__xor2_1
*I *644:A I *D sky130_fd_sc_hd__dlygate4sd3_1
*I *605:Q O *D sky130_fd_sc_hd__dfrtp_1
*CAP
1 *525:B 0.000304498
2 *644:A 0
3 *605:Q 0.000131269
4 *159:8 0.000435767
5 *159:8 *160:32 0
6 *82:8 *525:B 2.91016e-05
7 *98:42 *525:B 4.42181e-05
8 *121:17 *159:8 0
9 *140:47 *525:B 0
10 *140:55 *525:B 0
11 *148:91 *525:B 0
12 *148:91 *159:8 0
*RES
1 *605:Q *159:8 40.2579 
2 *159:8 *644:A 38 
3 *159:8 *525:B 42.8057 
*END

*D_NET *160 0.00578832
*CONN
*I *529:B I *D sky130_fd_sc_hd__nand2_1
*I *528:B I *D sky130_fd_sc_hd__or2_1
*I *567:A1 I *D sky130_fd_sc_hd__mux2_1
*I *667:A I *D sky130_fd_sc_hd__dlygate4sd3_1
*I *606:Q O *D sky130_fd_sc_hd__dfrtp_1
*CAP
1 *529:B 0.000148316
2 *528:B 0.000213382
3 *567:A1 0.000293012
4 *667:A 0
5 *606:Q 0.000105388
6 *160:32 0.00120326
7 *160:14 0.000686501
8 *160:8 0.00134043
9 *529:A *529:B 1.17152e-05
10 *565:A1 *529:B 7.53384e-06
11 *567:S *567:A1 1.32314e-05
12 *600:CLK *529:B 3.70187e-05
13 *605:RESET_B *160:32 1.97329e-05
14 *609:RESET_B *160:14 0
15 *609:RESET_B *160:32 0
16 *643:A *528:B 0.000229797
17 *28:10 *160:32 0
18 *29:12 *567:A1 0.000106382
19 *29:12 *160:14 0
20 *82:16 *160:32 0
21 *92:12 *528:B 0.000157946
22 *92:23 *529:B 0.000139657
23 *92:59 *160:8 5.47808e-05
24 *92:65 *160:14 0
25 *92:65 *160:32 0
26 *97:12 *528:B 4.57691e-05
27 *97:12 *529:B 9.48381e-06
28 *97:12 *160:32 2.22079e-05
29 *97:16 *528:B 0.000140259
30 *100:27 *160:32 0
31 *100:47 *160:32 0
32 *100:59 *529:B 0
33 *100:59 *160:32 0
34 *120:10 *529:B 7.03766e-05
35 *140:55 *160:32 0.000196549
36 *141:6 *567:A1 3.22879e-05
37 *144:10 *160:14 5.26204e-05
38 *147:14 *160:14 0
39 *148:35 *528:B 0.000450686
40 *159:8 *160:32 0
*RES
1 *606:Q *160:8 39.5743 
2 *160:8 *160:14 22.25 
3 *160:14 *667:A 23 
4 *160:14 *567:A1 28.8621 
5 *160:8 *160:32 15.7014 
6 *160:32 *528:B 45.7886 
7 *160:32 *529:B 41.5836 
*END

*D_NET *161 0.00251048
*CONN
*I *642:A I *D sky130_fd_sc_hd__dlygate4sd3_1
*I *535:B I *D sky130_fd_sc_hd__or2_1
*I *534:B I *D sky130_fd_sc_hd__nand2_1
*I *600:Q O *D sky130_fd_sc_hd__dfrtp_1
*CAP
1 *642:A 4.67875e-05
2 *535:B 0
3 *534:B 0.000206335
4 *600:Q 7.31565e-05
5 *161:10 0.000368528
6 *161:6 0.000282137
7 *607:RESET_B *642:A 4.08664e-05
8 *607:RESET_B *161:6 0.000180218
9 *607:RESET_B *161:10 9.94675e-05
10 *24:10 *161:10 0.000111852
11 *47:6 *534:B 9.91798e-05
12 *91:29 *534:B 0.000184527
13 *100:85 *642:A 5.47927e-05
14 *100:85 *161:6 6.15314e-05
15 *101:66 *534:B 0.00026824
16 *101:66 *161:10 0.000248979
17 *119:10 *642:A 4.5051e-05
18 *148:91 *534:B 0
19 *155:14 *534:B 1.83667e-05
20 *155:14 *161:10 0.000120462
*RES
1 *600:Q *161:6 25.0507 
2 *161:6 *161:10 20.075 
3 *161:10 *534:B 43.7171 
4 *161:10 *535:B 38 
5 *161:6 *642:A 24.5743 
*END

*D_NET *162 0.00164189
*CONN
*I *651:A I *D sky130_fd_sc_hd__dlygate4sd3_1
*I *533:B I *D sky130_fd_sc_hd__xor2_1
*I *601:Q O *D sky130_fd_sc_hd__dfrtp_1
*CAP
1 *651:A 0
2 *533:B 0
3 *601:Q 0.000365423
4 *162:18 0.000112792
5 *162:12 0.000250599
6 *162:8 0.00050323
7 *162:8 *163:25 0
8 *601:RESET_B *162:8 0
9 *630:A *162:8 1.62015e-05
10 *25:10 *162:8 0
11 *93:93 *162:8 7.28526e-05
12 *100:109 *162:8 0
13 *101:53 *162:8 0
14 *101:66 *162:8 4.3407e-05
15 *101:66 *162:18 0.000225275
16 *127:8 *162:8 5.21127e-05
17 *148:91 *162:18 0
18 *148:93 *162:8 0
19 *148:97 *162:8 0
*RES
1 *601:Q *162:8 45.54 
2 *162:8 *162:12 17.0507 
3 *162:12 *162:18 32.9621 
4 *162:18 *533:B 23 
5 *162:12 *651:A 23 
*END

*D_NET *163 0.00393166
*CONN
*I *564:A1 I *D sky130_fd_sc_hd__mux2_1
*I *531:B I *D sky130_fd_sc_hd__or2_1
*I *532:B I *D sky130_fd_sc_hd__nand2_1
*I *664:A I *D sky130_fd_sc_hd__dlygate4sd3_1
*I *602:Q O *D sky130_fd_sc_hd__dfrtp_1
*CAP
1 *564:A1 0.000171588
2 *531:B 0.000135314
3 *532:B 0
4 *664:A 0.000255912
5 *602:Q 0.000180767
6 *163:25 0.000427254
7 *163:21 0.000673749
8 *163:8 0.0006469
9 *163:25 *165:10 0
10 *163:25 *165:21 0
11 *532:A *531:B 5.90675e-06
12 *560:A1 *564:A1 0.000344512
13 *563:A1 *564:A1 3.32167e-06
14 *563:S *564:A1 0.000246448
15 *598:RESET_B *664:A 8.4047e-05
16 *598:RESET_B *163:21 2.46345e-05
17 *25:10 *664:A 1.02387e-05
18 *88:10 *531:B 5.67058e-05
19 *90:10 *163:25 0
20 *93:93 *664:A 0
21 *93:93 *163:8 9.30054e-05
22 *97:68 *163:25 4.21594e-06
23 *97:72 *531:B 8.28854e-05
24 *101:31 *163:8 5.3304e-05
25 *101:53 *163:21 0.000290951
26 *101:53 *163:25 1.22412e-05
27 *123:10 *564:A1 1.09886e-05
28 *123:10 *163:21 0
29 *123:10 *163:25 3.27254e-05
30 *138:10 *163:25 8.4047e-05
31 *162:8 *163:25 0
*RES
1 *602:Q *163:8 40.5271 
2 *163:8 *664:A 42.7229 
3 *163:8 *163:21 4.81607 
4 *163:21 *163:25 20.6032 
5 *163:25 *532:B 23 
6 *163:25 *531:B 26.0243 
7 *163:21 *564:A1 44.0175 
*END

*D_NET *164 0.00098863
*CONN
*I *647:A I *D sky130_fd_sc_hd__dlygate4sd3_1
*I *540:B I *D sky130_fd_sc_hd__xor2_1
*I *597:Q O *D sky130_fd_sc_hd__dfrtp_1
*CAP
1 *647:A 2.81266e-05
2 *540:B 0
3 *597:Q 0.000203538
4 *164:14 0.000134671
5 *164:8 0.000366336
6 *591:RESET_B *647:A 1.94812e-05
7 *591:RESET_B *164:8 7.38255e-05
8 *47:12 *164:14 0
9 *91:10 *164:14 0.000107641
10 *124:8 *164:8 5.50106e-05
*RES
1 *597:Q *164:8 26.8529 
2 *164:8 *164:14 32.9621 
3 *164:14 *540:B 23 
4 *164:8 *647:A 23.6214 
*END

*D_NET *165 0.0039317
*CONN
*I *542:B I *D sky130_fd_sc_hd__or2_1
*I *541:B I *D sky130_fd_sc_hd__nand2_1
*I *662:A I *D sky130_fd_sc_hd__dlygate4sd3_1
*I *598:Q O *D sky130_fd_sc_hd__dfrtp_1
*CAP
1 *542:B 0.000123617
2 *541:B 0.00046967
3 *662:A 6.45898e-05
4 *598:Q 0.00071406
5 *165:21 0.00075727
6 *165:10 0.000942634
7 *542:B *543:B 0
8 *165:10 *543:B 0
9 *165:10 *166:10 0
10 *165:21 *543:B 0
11 *621:A *541:B 9.84851e-05
12 *621:A *542:B 5.31444e-05
13 *26:10 *165:10 0
14 *49:10 *541:B 7.88828e-05
15 *91:10 *542:B 1.83667e-05
16 *93:10 *541:B 8.65442e-05
17 *97:68 *542:B 0
18 *97:85 *541:B 0.000311549
19 *122:12 *165:10 0
20 *123:10 *662:A 1.94812e-05
21 *123:10 *165:10 0.000193407
22 *163:25 *165:10 0
23 *163:25 *165:21 0
*RES
1 *598:Q *165:10 49.3721 
2 *165:10 *662:A 39.0979 
3 *165:10 *165:21 2.96214 
4 *165:21 *541:B 48.6264 
5 *165:21 *542:B 40.2579 
*END

*D_NET *166 0.00237894
*CONN
*I *543:B I *D sky130_fd_sc_hd__xor2_1
*I *645:A I *D sky130_fd_sc_hd__dlygate4sd3_1
*I *599:Q O *D sky130_fd_sc_hd__dfrtp_1
*CAP
1 *543:B 0.000307735
2 *645:A 2.79004e-05
3 *599:Q 0.000525529
4 *166:10 0.000861164
5 *542:B *543:B 0
6 *26:10 *166:10 0.000138727
7 *91:10 *543:B 0
8 *93:10 *543:B 0
9 *93:77 *543:B 0
10 *93:81 *166:10 0
11 *93:85 *166:10 0.000205566
12 *97:85 *543:B 0.000215791
13 *97:98 *543:B 2.77955e-05
14 *122:12 *645:A 5.50106e-05
15 *122:12 *166:10 1.37246e-05
16 *149:47 *543:B 0
17 *149:47 *166:10 0
18 *165:10 *543:B 0
19 *165:10 *166:10 0
20 *165:21 *543:B 0
*RES
1 *599:Q *166:10 46.6793 
2 *166:10 *645:A 38.6214 
3 *166:10 *543:B 44.1314 
*END

*D_NET *167 0.000592305
*CONN
*I *652:A I *D sky130_fd_sc_hd__dlygate4sd3_1
*I *521:B I *D sky130_fd_sc_hd__xor2_1
*I *594:Q O *D sky130_fd_sc_hd__dfrtp_1
*CAP
1 *652:A 0
2 *521:B 8.1656e-05
3 *594:Q 0
4 *167:19 7.89208e-05
5 *167:4 0.000160577
6 *524:C1 *521:B 0
7 *47:12 *167:19 4.48671e-05
8 *93:68 *521:B 0.000109895
9 *99:85 *521:B 4.70343e-05
10 *99:85 *167:19 6.93553e-05
*RES
1 *594:Q *167:4 23 
2 *167:4 *521:B 25.2993 
3 *167:4 *167:19 31.9057 
4 *167:19 *652:A 23 
*END

*D_NET *168 0.00339891
*CONN
*I *519:B I *D sky130_fd_sc_hd__or2_1
*I *520:B I *D sky130_fd_sc_hd__nand2_1
*I *557:A1 I *D sky130_fd_sc_hd__mux2_1
*I *663:A I *D sky130_fd_sc_hd__dlygate4sd3_1
*I *595:Q O *D sky130_fd_sc_hd__dfrtp_1
*CAP
1 *519:B 0
2 *520:B 0.000184419
3 *557:A1 0
4 *663:A 0
5 *595:Q 0.000225657
6 *168:29 0.000385686
7 *168:25 0.000745882
8 *168:8 0.000770271
9 *520:B *523:B 5.26352e-05
10 *168:8 *169:8 7.28526e-05
11 *168:25 *169:8 1.83564e-05
12 *168:25 *169:18 0
13 *168:29 *523:B 0.000221997
14 *520:A *520:B 2.02517e-05
15 *558:S *168:25 4.6595e-05
16 *558:S *168:29 0.000139352
17 *617:RESET_B *168:25 6.86023e-06
18 *20:10 *168:25 0.00014411
19 *80:10 *520:B 5.50106e-05
20 *101:118 *168:25 8.43721e-05
21 *139:8 *168:8 0
22 *149:89 *168:29 0.0002246
23 *156:47 *168:25 0
*RES
1 *595:Q *168:8 42.7229 
2 *168:8 *663:A 38 
3 *168:8 *168:25 25.8129 
4 *168:25 *168:29 5.40643 
5 *168:29 *557:A1 23 
6 *168:29 *520:B 27.3914 
7 *168:25 *519:B 23 
*END

*D_NET *169 0.00338908
*CONN
*I *653:A I *D sky130_fd_sc_hd__dlygate4sd3_1
*I *523:B I *D sky130_fd_sc_hd__nand2_1
*I *522:B I *D sky130_fd_sc_hd__or2_1
*I *596:Q O *D sky130_fd_sc_hd__dfrtp_1
*CAP
1 *653:A 0
2 *523:B 0.000310415
3 *522:B 0
4 *596:Q 9.78514e-05
5 *169:18 0.000740396
6 *169:12 0.000454229
7 *169:8 0.000122099
8 *520:A *523:B 3.44446e-05
9 *520:B *523:B 5.26352e-05
10 *522:A *523:B 7.55491e-05
11 *522:A *169:18 6.07611e-06
12 *523:A *523:B 6.68617e-05
13 *561:A0 *169:12 5.50049e-05
14 *561:A0 *169:18 0.000400204
15 *80:10 *523:B 2.07242e-05
16 *97:104 *523:B 0.00044727
17 *97:119 *523:B 1.58805e-05
18 *101:10 *169:18 4.3407e-05
19 *101:118 *169:18 0
20 *149:39 *169:18 0
21 *149:89 *523:B 4.6318e-06
22 *156:34 *169:18 4.5882e-05
23 *156:47 *523:B 6.0093e-05
24 *156:47 *169:18 2.22183e-05
25 *168:8 *169:8 7.28526e-05
26 *168:25 *169:8 1.83564e-05
27 *168:25 *169:18 0
28 *168:29 *523:B 0.000221997
*RES
1 *596:Q *169:8 40.2579 
2 *169:8 *169:12 15.6214 
3 *169:12 *169:18 24.86 
4 *169:18 *522:B 38 
5 *169:18 *523:B 47.3214 
6 *169:12 *653:A 23 
*END

*D_NET *170 0.00386104
*CONN
*I *515:B I *D sky130_fd_sc_hd__xor2_1
*I *656:A I *D sky130_fd_sc_hd__dlygate4sd3_1
*I *590:Q O *D sky130_fd_sc_hd__dfrtp_1
*CAP
1 *515:B 0.000467747
2 *656:A 0
3 *590:Q 0.000331463
4 *170:18 0.000126688
5 *170:10 0.000925899
6 *170:18 *174:12 0.000192087
7 *507:A *515:B 5.90675e-06
8 *556:S *170:10 0.000353096
9 *581:A0 *170:10 0.000140259
10 *581:A1 *515:B 0
11 *581:A1 *170:10 0.000353214
12 *587:CLK *170:18 5.3304e-05
13 *18:10 *170:10 0.000328014
14 *98:77 *515:B 3.53115e-05
15 *98:77 *170:10 2.93845e-05
16 *98:77 *170:18 0.000197479
17 *98:88 *515:B 0.000225309
18 *117:10 *515:B 9.5877e-05
*RES
1 *590:Q *170:10 33.3157 
2 *170:10 *170:18 33.2314 
3 *170:18 *656:A 23 
4 *170:10 *515:B 32.1143 
*END

*D_NET *171 0.00689696
*CONN
*I *657:A I *D sky130_fd_sc_hd__dlygate4sd3_1
*I *582:A1 I *D sky130_fd_sc_hd__mux2_1
*I *516:B I *D sky130_fd_sc_hd__nand2_1
*I *517:B I *D sky130_fd_sc_hd__or2_1
*I *591:Q O *D sky130_fd_sc_hd__dfrtp_1
*CAP
1 *657:A 0.000772299
2 *582:A1 0.000405035
3 *516:B 0
4 *517:B 0
5 *591:Q 0.000165054
6 *171:29 0.000169183
7 *171:16 0.000392395
8 *171:10 0.000853463
9 *171:6 0.00116257
10 *545:A2 *171:16 6.33627e-05
11 *545:A2 *171:29 0.00018282
12 *545:B1 *171:16 0.000221992
13 *591:CLK *657:A 0.000324415
14 *52:20 *582:A1 0
15 *52:20 *171:10 5.83625e-05
16 *63:8 *171:29 0.000166513
17 *64:10 *582:A1 0
18 *71:10 *171:29 0.000161121
19 *74:10 *582:A1 0.000141879
20 *80:10 *171:10 0.000164282
21 *87:20 *582:A1 3.26062e-05
22 *87:20 *171:10 0.000194318
23 *93:38 *657:A 2.18409e-05
24 *93:38 *171:6 9.31593e-05
25 *93:46 *171:10 0.000354769
26 *98:92 *171:29 4.6318e-06
27 *99:98 *582:A1 0.000228405
28 *99:98 *171:10 9.48381e-06
29 *99:98 *171:16 0.000140259
30 *117:10 *582:A1 8.62876e-05
31 *134:10 *657:A 8.95433e-06
32 *149:20 *171:10 0
33 *149:113 *582:A1 0
34 *150:12 *582:A1 0.0003175
*RES
1 *591:Q *171:6 25.0507 
2 *171:6 *171:10 22.1879 
3 *171:10 *171:16 20.2821 
4 *171:16 *517:B 23 
5 *171:16 *171:29 34.6607 
6 *171:29 *516:B 23 
7 *171:10 *582:A1 47.0107 
8 *171:6 *657:A 34.6207 
*END

*D_NET *172 0.00285218
*CONN
*I *583:A1 I *D sky130_fd_sc_hd__mux2_1
*I *514:B I *D sky130_fd_sc_hd__xor2_1
*I *660:A I *D sky130_fd_sc_hd__dlygate4sd3_1
*I *592:Q O *D sky130_fd_sc_hd__dfrtp_1
*CAP
1 *583:A1 0.000242706
2 *514:B 0.000376705
3 *660:A 0.000102713
4 *592:Q 0.000188433
5 *172:19 0.000751289
6 *172:8 0.000423026
7 *583:A1 *649:A 7.28526e-05
8 *583:A1 *175:23 0.000152838
9 *583:S *583:A1 5.67058e-05
10 *97:119 *514:B 5.50049e-05
11 *107:27 *583:A1 7.76364e-06
12 *107:27 *172:8 0.00012077
13 *107:27 *172:19 7.41334e-05
14 *125:8 *583:A1 0.000129984
15 *130:25 *172:8 6.93553e-05
16 *136:8 *172:8 2.79004e-05
*RES
1 *592:Q *172:8 42.7229 
2 *172:8 *660:A 39.5743 
3 *172:8 *172:19 2.96214 
4 *172:19 *514:B 44.815 
5 *172:19 *583:A1 45.2293 
*END

*D_NET *173 0.00269716
*CONN
*I *553:A1 I *D sky130_fd_sc_hd__mux2_1
*I *505:B I *D sky130_fd_sc_hd__xor2_1
*I *661:A I *D sky130_fd_sc_hd__dlygate4sd3_1
*I *615:Q O *D sky130_fd_sc_hd__dfrtp_1
*CAP
1 *553:A1 0.000403612
2 *505:B 6.36299e-05
3 *661:A 0
4 *615:Q 0.000308246
5 *173:14 0.00021987
6 *173:8 0.000868099
7 *615:D *173:8 9.91798e-05
8 *3:15 *553:A1 0
9 *99:53 *505:B 4.39607e-05
10 *99:53 *173:14 5.83407e-05
11 *99:55 *505:B 3.91386e-05
12 *114:10 *553:A1 0
13 *137:8 *553:A1 4.38375e-05
14 *137:8 *173:14 7.66085e-05
15 *150:43 *505:B 0.000139352
16 *150:43 *173:14 4.34745e-05
17 *150:45 *173:14 9.84851e-05
18 *150:77 *553:A1 6.4393e-05
19 *150:77 *173:14 0.000126936
20 *156:16 *553:A1 0
*RES
1 *615:Q *173:8 41.9564 
2 *173:8 *173:14 20.2407 
3 *173:14 *661:A 23 
4 *173:14 *505:B 25.0714 
5 *173:8 *553:A1 45.54 
*END

*D_NET *174 0.00349443
*CONN
*I *640:A I *D sky130_fd_sc_hd__dlygate4sd3_1
*I *554:A1 I *D sky130_fd_sc_hd__mux2_1
*I *507:B I *D sky130_fd_sc_hd__xor2_1
*I *616:Q O *D sky130_fd_sc_hd__dfrtp_1
*CAP
1 *640:A 0
2 *554:A1 5.02964e-05
3 *507:B 0
4 *616:Q 4.25104e-05
5 *174:36 0.000133964
6 *174:19 0.00104451
7 *174:12 0.000148892
8 *174:6 0.00105165
9 *174:12 *182:18 0.000106516
10 *554:A0 *554:A1 2.30292e-05
11 *588:RESET_B *174:36 0
12 *616:CLK *174:19 6.75862e-05
13 *16:10 *174:19 5.27215e-06
14 *95:40 *174:12 0.000164282
15 *98:77 *174:12 9.176e-05
16 *98:120 *174:36 0.000163352
17 *149:113 *174:36 1.86869e-05
18 *149:129 *174:6 5.50049e-05
19 *149:129 *174:19 0.000135037
20 *170:18 *174:12 0.000192087
*RES
1 *616:Q *174:6 23.6214 
2 *174:6 *174:12 35.075 
3 *174:12 *507:B 23 
4 *174:6 *174:19 11.1029 
5 *174:19 *554:A1 24.4707 
6 *174:19 *174:36 32.8793 
7 *174:36 *640:A 23 
*END

*D_NET *175 0.00295979
*CONN
*I *555:A1 I *D sky130_fd_sc_hd__mux2_1
*I *506:B I *D sky130_fd_sc_hd__xor2_1
*I *649:A I *D sky130_fd_sc_hd__dlygate4sd3_1
*I *617:Q O *D sky130_fd_sc_hd__dfrtp_1
*CAP
1 *555:A1 0.000162487
2 *506:B 0.000343948
3 *649:A 9.67537e-05
4 *617:Q 0
5 *175:23 0.000718002
6 *175:6 0.000308321
7 *555:A1 *511:B 0.000141954
8 *555:A1 *673:A 0.000223043
9 *175:23 *673:A 1.01436e-05
10 *506:A *506:B 5.50049e-05
11 *583:A1 *649:A 7.28526e-05
12 *583:A1 *175:23 0.000152838
13 *107:27 *649:A 0.000141888
14 *107:27 *175:23 0.000500268
15 *111:8 *555:A1 0
16 *150:118 *555:A1 3.22879e-05
*RES
1 *617:Q *175:6 38 
2 *175:6 *649:A 40.5271 
3 *175:6 *175:23 7.60214 
4 *175:23 *506:B 44.3386 
5 *175:23 *555:A1 42.5364 
*END

*D_NET *176 0.00305362
*CONN
*I *510:B I *D sky130_fd_sc_hd__xor2_1
*I *675:A I *D sky130_fd_sc_hd__dlygate4sd3_1
*I *587:Q O *D sky130_fd_sc_hd__dfrtp_1
*CAP
1 *510:B 0
2 *675:A 0
3 *587:Q 6.96823e-05
4 *176:29 0.000691924
5 *176:12 0.000716164
6 *176:8 9.39223e-05
7 *176:29 *181:10 0
8 *553:A0 *176:29 0.000317553
9 *585:RESET_B *176:29 0.000141954
10 *629:A *176:8 0.000166513
11 *3:15 *176:29 0
12 *91:36 *176:29 0
13 *91:51 *176:29 0.000183733
14 *98:69 *176:29 0.000352421
15 *99:63 *176:29 0.000140259
16 *102:10 *176:8 8.16253e-05
17 *149:129 *176:29 1.76557e-05
18 *156:14 *176:12 1.59094e-05
19 *156:14 *176:29 5.01883e-05
20 *157:38 *176:29 1.41129e-05
*RES
1 *587:Q *176:8 40.2579 
2 *176:8 *176:12 15.6214 
3 *176:12 *675:A 23 
4 *176:12 *176:29 46.3436 
5 *176:29 *510:B 23 
*END

*D_NET *177 0.00132365
*CONN
*I *671:A I *D sky130_fd_sc_hd__dlygate4sd3_1
*I *509:B I *D sky130_fd_sc_hd__nand2_1
*I *508:B I *D sky130_fd_sc_hd__or2_1
*I *588:Q O *D sky130_fd_sc_hd__dfrtp_1
*CAP
1 *671:A 0.000111503
2 *509:B 0.000118563
3 *508:B 0
4 *588:Q 7.52236e-05
5 *177:12 0.000206513
6 *177:6 0.000274677
7 *509:A *509:B 5.50049e-05
8 *512:A *671:A 0.000185434
9 *66:12 *509:B 1.14876e-05
10 *103:10 *509:B 3.7122e-06
11 *109:8 *177:12 8.62876e-05
12 *157:42 *177:12 2.55642e-05
13 *157:44 *177:12 0.000169683
*RES
1 *588:Q *177:6 24.0979 
2 *177:6 *177:12 32.61 
3 *177:12 *508:B 23 
4 *177:12 *509:B 25.0714 
5 *177:6 *671:A 25.5271 
*END

*D_NET *178 0.00300662
*CONN
*I *512:B I *D sky130_fd_sc_hd__or2_1
*I *511:B I *D sky130_fd_sc_hd__nand2_1
*I *673:A I *D sky130_fd_sc_hd__dlygate4sd3_1
*I *589:Q O *D sky130_fd_sc_hd__dfrtp_1
*CAP
1 *512:B 0.000312876
2 *511:B 0.00020818
3 *673:A 0.0001322
4 *589:Q 0
5 *178:8 0.000398065
6 *178:6 0.000370562
7 *513:B2 *511:B 0.000106051
8 *555:A1 *511:B 0.000141954
9 *555:A1 *673:A 0.000223043
10 *17:10 *511:B 0.000271476
11 *17:10 *512:B 9.18447e-05
12 *17:10 *178:8 2.5415e-05
13 *69:8 *512:B 0
14 *69:8 *673:A 0
15 *107:27 *512:B 0.000307731
16 *107:27 *673:A 0.000250839
17 *107:27 *178:8 0.000114092
18 *150:118 *511:B 4.21471e-05
19 *175:23 *673:A 1.01436e-05
*RES
1 *589:Q *178:6 38 
2 *178:6 *178:8 1.55357 
3 *178:8 *673:A 41.9357 
4 *178:8 *511:B 43.8829 
5 *178:6 *512:B 45.7057 
*END

*D_NET *179 0.00158622
*CONN
*I *637:A I *D sky130_fd_sc_hd__dlygate4sd3_1
*I *593:Q O *D sky130_fd_sc_hd__dfrtp_1
*CAP
1 *637:A 0
2 *593:Q 0.000492501
3 *179:10 0.000492501
4 *593:RESET_B *179:10 6.88885e-05
5 *603:RESET_B *179:10 0.000140415
6 *610:RESET_B *179:10 1.94812e-05
7 *3:15 *179:10 0.000180933
8 *102:87 *179:10 0.000191495
9 *104:10 *179:10 0
10 *108:10 *179:10 0
*RES
1 *593:Q *179:10 48.0671 
2 *179:10 *637:A 38 
*END

*D_NET *180 0.000248321
*CONN
*I *648:A I *D sky130_fd_sc_hd__dlygate4sd3_1
*I *603:Q O *D sky130_fd_sc_hd__dfrtp_1
*CAP
1 *648:A 0.000124161
2 *603:Q 0.000124161
*RES
1 *603:Q *648:A 48.0507 
*END

*D_NET *181 0.000836218
*CONN
*I *670:A I *D sky130_fd_sc_hd__dlygate4sd3_1
*I *610:Q O *D sky130_fd_sc_hd__dfrtp_1
*CAP
1 *670:A 0
2 *610:Q 0.000370398
3 *181:10 0.000370398
4 *593:RESET_B *181:10 6.17437e-06
5 *610:RESET_B *181:10 8.92482e-05
6 *3:15 *181:10 0
7 *91:51 *181:10 0
8 *108:10 *181:10 0
9 *176:29 *181:10 0
*RES
1 *610:Q *181:10 43.2614 
2 *181:10 *670:A 38 
*END

*D_NET *182 0.00368364
*CONN
*I *547:D I *D sky130_fd_sc_hd__and4b_1
*I *618:Q O *D sky130_fd_sc_hd__dfrtp_1
*CAP
1 *547:D 0
2 *618:Q 0.00017596
3 *182:18 0.000796236
4 *182:12 0.000972196
5 *618:RESET_B *182:12 3.50939e-05
6 *618:RESET_B *182:18 0.00024863
7 *44:18 *182:18 0.000164291
8 *54:10 *182:18 8.62783e-05
9 *55:12 *182:18 0.000448814
10 *62:8 *182:18 2.50451e-05
11 *95:36 *182:18 0.000164291
12 *95:40 *182:18 0.000293785
13 *98:77 *182:18 0
14 *128:23 *182:18 0
15 *149:129 *182:18 0.000166504
16 *174:12 *182:18 0.000106516
*RES
1 *618:Q *182:12 40.8689 
2 *182:12 *182:18 35.5434 
3 *182:18 *547:D 23 
*END
