*SPEF "ieee 1481-1999"
*DESIGN "rng_top"
*DATE "23:02:54 Thursday March 12, 2026"
*VENDOR "The OpenROAD Project"
*PROGRAM "OpenROAD"
*VERSION "edf00dff99f6c40d67a30c0e22a8191c5d2ed9d6"
*DESIGN_FLOW "NAME_SCOPE LOCAL" "PIN_CAP NONE"
*DIVIDER /
*DELIMITER :
*BUS_DELIMITER []
*T_UNIT 1 NS
*C_UNIT 1 PF
*R_UNIT 1 OHM
*L_UNIT 1 HENRY

*NAME_MAP
*3 clk_i
*4 num_to_send_o[0]
*5 num_to_send_o[1]
*6 num_to_send_o[2]
*7 req_num_i
*8 rst_i
*9 wr_i
*10 _000_
*11 _001_
*12 _002_
*13 _003_
*14 _004_
*15 _005_
*16 _006_
*17 _007_
*18 _008_
*19 _009_
*20 _010_
*21 _011_
*22 _012_
*23 _013_
*24 _014_
*25 _015_
*26 _016_
*27 _017_
*28 _018_
*29 _019_
*30 _020_
*31 _021_
*32 _022_
*33 _023_
*34 _024_
*35 _025_
*36 _026_
*37 _027_
*38 _028_
*39 _029_
*40 _030_
*41 _031_
*42 _032_
*43 _033_
*44 _034_
*45 _035_
*46 _036_
*47 _037_
*48 _038_
*49 _039_
*50 _040_
*51 _041_
*52 _042_
*53 _043_
*54 _044_
*55 _045_
*56 _046_
*57 _047_
*58 _048_
*59 _049_
*60 _050_
*61 _051_
*62 _052_
*63 _053_
*64 _054_
*65 _055_
*66 _056_
*67 _057_
*68 _058_
*69 _059_
*70 _060_
*71 _061_
*72 _062_
*73 _063_
*74 _064_
*75 _065_
*76 _066_
*77 _067_
*78 _068_
*79 _069_
*80 _070_
*81 _071_
*82 _072_
*83 _073_
*84 _074_
*85 _075_
*86 _076_
*87 _077_
*88 _078_
*89 _079_
*90 _080_
*91 clknet_0_clk_i
*92 clknet_2_0__leaf_clk_i
*93 clknet_2_1__leaf_clk_i
*94 clknet_2_2__leaf_clk_i
*95 clknet_2_3__leaf_clk_i
*96 net1
*97 net10
*98 net11
*99 net12
*100 net13
*101 net14
*102 net15
*103 net16
*104 net17
*105 net18
*106 net19
*107 net2
*108 net20
*109 net21
*110 net22
*111 net23
*112 net24
*113 net25
*114 net26
*115 net27
*116 net28
*117 net29
*118 net3
*119 net30
*120 net31
*121 net32
*122 net33
*123 net34
*124 net35
*125 net36
*126 net37
*127 net38
*128 net39
*129 net4
*130 net40
*131 net41
*132 net42
*133 net43
*134 net44
*135 net45
*136 net46
*137 net47
*138 net48
*139 net49
*140 net5
*141 net50
*142 net51
*143 net52
*144 net53
*145 net54
*146 net55
*147 net6
*148 net7
*149 net8
*150 net9
*151 num_i_bar\[0\]
*152 num_i_bar\[1\]
*153 num_i_bar\[2\]
*154 req_num_again
*155 rng_rd\.cache\[0\]
*156 rng_rd\.cache\[1\]
*157 rng_rd\.cache\[2\]
*158 rng_rd\.ram_1\[0\]
*159 rng_rd\.ram_1\[1\]
*160 rng_rd\.ram_1\[2\]
*161 rng_rd\.ram_2\[0\]
*162 rng_rd\.ram_2\[1\]
*163 rng_rd\.ram_2\[2\]
*164 rng_rd\.ram_3\[0\]
*165 rng_rd\.ram_3\[1\]
*166 rng_rd\.ram_3\[2\]
*167 rng_rd\.ram_4\[0\]
*168 rng_rd\.ram_4\[1\]
*169 rng_rd\.ram_4\[2\]
*170 rng_rd\.ram_5\[0\]
*171 rng_rd\.ram_5\[1\]
*172 rng_rd\.ram_5\[2\]
*173 rng_rd\.ram_6\[0\]
*174 rng_rd\.ram_6\[1\]
*175 rng_rd\.ram_6\[2\]
*176 rng_rd\.ram_7\[0\]
*177 rng_rd\.ram_7\[1\]
*178 rng_rd\.ram_7\[2\]
*179 rng_rd\.wr_ff1
*180 rng_rd\.wr_ff2
*181 rng_rd\.wr_ff2_d
*182 rng_rd\.wr_pulse
*183 FILLER_0_109
*184 FILLER_0_111
*185 FILLER_0_113
*186 FILLER_0_15
*187 FILLER_0_27
*188 FILLER_0_3
*189 FILLER_0_37
*190 FILLER_0_41
*191 FILLER_0_51
*192 FILLER_0_55
*193 FILLER_0_65
*194 FILLER_0_77
*195 FILLER_0_81
*196 FILLER_0_83
*197 FILLER_0_85
*198 FILLER_0_97
*199 FILLER_10_101
*200 FILLER_10_123
*201 FILLER_10_29
*202 FILLER_10_33
*203 FILLER_10_35
*204 FILLER_10_47
*205 FILLER_10_53
*206 FILLER_10_55
*207 FILLER_10_65
*208 FILLER_10_7
*209 FILLER_10_83
*210 FILLER_10_85
*211 FILLER_10_97
*212 FILLER_11_103
*213 FILLER_11_122
*214 FILLER_11_124
*215 FILLER_11_3
*216 FILLER_11_40
*217 FILLER_11_5
*218 FILLER_11_52
*219 FILLER_11_57
*220 FILLER_11_89
*221 FILLER_11_93
*222 FILLER_11_99
*223 FILLER_12_110
*224 FILLER_12_114
*225 FILLER_12_116
*226 FILLER_12_15
*227 FILLER_12_25
*228 FILLER_12_27
*229 FILLER_12_29
*230 FILLER_12_3
*231 FILLER_12_33
*232 FILLER_12_83
*233 FILLER_12_85
*234 FILLER_13_101
*235 FILLER_13_122
*236 FILLER_13_124
*237 FILLER_13_13
*238 FILLER_13_25
*239 FILLER_13_3
*240 FILLER_13_33
*241 FILLER_13_35
*242 FILLER_13_7
*243 FILLER_13_9
*244 FILLER_13_97
*245 FILLER_14_102
*246 FILLER_14_123
*247 FILLER_14_23
*248 FILLER_14_27
*249 FILLER_14_49
*250 FILLER_15_15
*251 FILLER_15_17
*252 FILLER_15_3
*253 FILLER_15_44
*254 FILLER_15_57
*255 FILLER_16_120
*256 FILLER_16_124
*257 FILLER_16_3
*258 FILLER_16_46
*259 FILLER_16_56
*260 FILLER_16_85
*261 FILLER_17_101
*262 FILLER_17_109
*263 FILLER_17_111
*264 FILLER_17_113
*265 FILLER_17_47
*266 FILLER_17_55
*267 FILLER_17_57
*268 FILLER_17_66
*269 FILLER_17_77
*270 FILLER_18_109
*271 FILLER_18_121
*272 FILLER_18_26
*273 FILLER_18_49
*274 FILLER_18_51
*275 FILLER_18_72
*276 FILLER_18_85
*277 FILLER_18_97
*278 FILLER_19_106
*279 FILLER_19_110
*280 FILLER_19_113
*281 FILLER_19_3
*282 FILLER_19_50
*283 FILLER_19_54
*284 FILLER_19_57
*285 FILLER_19_61
*286 FILLER_19_82
*287 FILLER_19_94
*288 FILLER_1_101
*289 FILLER_1_109
*290 FILLER_1_111
*291 FILLER_1_113
*292 FILLER_1_32
*293 FILLER_1_77
*294 FILLER_1_89
*295 FILLER_20_109
*296 FILLER_20_121
*297 FILLER_20_24
*298 FILLER_20_3
*299 FILLER_20_37
*300 FILLER_20_41
*301 FILLER_20_63
*302 FILLER_20_65
*303 FILLER_20_74
*304 FILLER_20_82
*305 FILLER_20_85
*306 FILLER_20_97
*307 FILLER_21_105
*308 FILLER_21_109
*309 FILLER_21_111
*310 FILLER_21_113
*311 FILLER_21_15
*312 FILLER_21_3
*313 FILLER_21_36
*314 FILLER_21_44
*315 FILLER_21_46
*316 FILLER_21_55
*317 FILLER_21_57
*318 FILLER_21_61
*319 FILLER_21_69
*320 FILLER_21_81
*321 FILLER_21_93
*322 FILLER_22_109
*323 FILLER_22_111
*324 FILLER_22_113
*325 FILLER_22_15
*326 FILLER_22_27
*327 FILLER_22_29
*328 FILLER_22_3
*329 FILLER_22_41
*330 FILLER_22_53
*331 FILLER_22_55
*332 FILLER_22_57
*333 FILLER_22_69
*334 FILLER_22_81
*335 FILLER_22_83
*336 FILLER_22_85
*337 FILLER_22_97
*338 FILLER_2_105
*339 FILLER_2_117
*340 FILLER_2_121
*341 FILLER_2_29
*342 FILLER_2_3
*343 FILLER_2_59
*344 FILLER_2_63
*345 FILLER_2_7
*346 FILLER_3_107
*347 FILLER_3_111
*348 FILLER_3_113
*349 FILLER_3_18
*350 FILLER_3_3
*351 FILLER_3_39
*352 FILLER_3_49
*353 FILLER_3_57
*354 FILLER_3_68
*355 FILLER_3_7
*356 FILLER_4_113
*357 FILLER_4_20
*358 FILLER_4_3
*359 FILLER_4_46
*360 FILLER_4_58
*361 FILLER_4_85
*362 FILLER_4_87
*363 FILLER_5_106
*364 FILLER_5_110
*365 FILLER_5_113
*366 FILLER_5_41
*367 FILLER_5_45
*368 FILLER_5_47
*369 FILLER_5_55
*370 FILLER_5_57
*371 FILLER_5_67
*372 FILLER_5_94
*373 FILLER_5_98
*374 FILLER_6_121
*375 FILLER_6_26
*376 FILLER_6_49
*377 FILLER_6_53
*378 FILLER_6_58
*379 FILLER_6_60
*380 FILLER_6_7
*381 FILLER_6_81
*382 FILLER_6_83
*383 FILLER_6_9
*384 FILLER_6_97
*385 FILLER_7_102
*386 FILLER_7_110
*387 FILLER_7_122
*388 FILLER_7_124
*389 FILLER_7_22
*390 FILLER_7_49
*391 FILLER_7_7
*392 FILLER_7_73
*393 FILLER_7_77
*394 FILLER_8_113
*395 FILLER_8_12
*396 FILLER_8_24
*397 FILLER_8_29
*398 FILLER_8_3
*399 FILLER_8_42
*400 FILLER_8_72
*401 FILLER_9_110
*402 FILLER_9_113
*403 FILLER_9_23
*404 FILLER_9_27
*405 FILLER_9_84
*406 FILLER_9_86
*407 PHY_EDGE_ROW_0_Left_23
*408 PHY_EDGE_ROW_0_Right_0
*409 PHY_EDGE_ROW_10_Left_33
*410 PHY_EDGE_ROW_10_Right_10
*411 PHY_EDGE_ROW_11_Left_34
*412 PHY_EDGE_ROW_11_Right_11
*413 PHY_EDGE_ROW_12_Left_35
*414 PHY_EDGE_ROW_12_Right_12
*415 PHY_EDGE_ROW_13_Left_36
*416 PHY_EDGE_ROW_13_Right_13
*417 PHY_EDGE_ROW_14_Left_37
*418 PHY_EDGE_ROW_14_Right_14
*419 PHY_EDGE_ROW_15_Left_38
*420 PHY_EDGE_ROW_15_Right_15
*421 PHY_EDGE_ROW_16_Left_39
*422 PHY_EDGE_ROW_16_Right_16
*423 PHY_EDGE_ROW_17_Left_40
*424 PHY_EDGE_ROW_17_Right_17
*425 PHY_EDGE_ROW_18_Left_41
*426 PHY_EDGE_ROW_18_Right_18
*427 PHY_EDGE_ROW_19_Left_42
*428 PHY_EDGE_ROW_19_Right_19
*429 PHY_EDGE_ROW_1_Left_24
*430 PHY_EDGE_ROW_1_Right_1
*431 PHY_EDGE_ROW_20_Left_43
*432 PHY_EDGE_ROW_20_Right_20
*433 PHY_EDGE_ROW_21_Left_44
*434 PHY_EDGE_ROW_21_Right_21
*435 PHY_EDGE_ROW_22_Left_45
*436 PHY_EDGE_ROW_22_Right_22
*437 PHY_EDGE_ROW_2_Left_25
*438 PHY_EDGE_ROW_2_Right_2
*439 PHY_EDGE_ROW_3_Left_26
*440 PHY_EDGE_ROW_3_Right_3
*441 PHY_EDGE_ROW_4_Left_27
*442 PHY_EDGE_ROW_4_Right_4
*443 PHY_EDGE_ROW_5_Left_28
*444 PHY_EDGE_ROW_5_Right_5
*445 PHY_EDGE_ROW_6_Left_29
*446 PHY_EDGE_ROW_6_Right_6
*447 PHY_EDGE_ROW_7_Left_30
*448 PHY_EDGE_ROW_7_Right_7
*449 PHY_EDGE_ROW_8_Left_31
*450 PHY_EDGE_ROW_8_Right_8
*451 PHY_EDGE_ROW_9_Left_32
*452 PHY_EDGE_ROW_9_Right_9
*453 TAP_TAPCELL_ROW_0_46
*454 TAP_TAPCELL_ROW_0_47
*455 TAP_TAPCELL_ROW_0_48
*456 TAP_TAPCELL_ROW_0_49
*457 TAP_TAPCELL_ROW_10_68
*458 TAP_TAPCELL_ROW_10_69
*459 TAP_TAPCELL_ROW_11_70
*460 TAP_TAPCELL_ROW_11_71
*461 TAP_TAPCELL_ROW_12_72
*462 TAP_TAPCELL_ROW_12_73
*463 TAP_TAPCELL_ROW_13_74
*464 TAP_TAPCELL_ROW_13_75
*465 TAP_TAPCELL_ROW_14_76
*466 TAP_TAPCELL_ROW_14_77
*467 TAP_TAPCELL_ROW_15_78
*468 TAP_TAPCELL_ROW_15_79
*469 TAP_TAPCELL_ROW_16_80
*470 TAP_TAPCELL_ROW_16_81
*471 TAP_TAPCELL_ROW_17_82
*472 TAP_TAPCELL_ROW_17_83
*473 TAP_TAPCELL_ROW_18_84
*474 TAP_TAPCELL_ROW_18_85
*475 TAP_TAPCELL_ROW_19_86
*476 TAP_TAPCELL_ROW_19_87
*477 TAP_TAPCELL_ROW_1_50
*478 TAP_TAPCELL_ROW_1_51
*479 TAP_TAPCELL_ROW_20_88
*480 TAP_TAPCELL_ROW_20_89
*481 TAP_TAPCELL_ROW_21_90
*482 TAP_TAPCELL_ROW_21_91
*483 TAP_TAPCELL_ROW_22_92
*484 TAP_TAPCELL_ROW_22_93
*485 TAP_TAPCELL_ROW_22_94
*486 TAP_TAPCELL_ROW_22_95
*487 TAP_TAPCELL_ROW_2_52
*488 TAP_TAPCELL_ROW_2_53
*489 TAP_TAPCELL_ROW_3_54
*490 TAP_TAPCELL_ROW_3_55
*491 TAP_TAPCELL_ROW_4_56
*492 TAP_TAPCELL_ROW_4_57
*493 TAP_TAPCELL_ROW_5_58
*494 TAP_TAPCELL_ROW_5_59
*495 TAP_TAPCELL_ROW_6_60
*496 TAP_TAPCELL_ROW_6_61
*497 TAP_TAPCELL_ROW_7_62
*498 TAP_TAPCELL_ROW_7_63
*499 TAP_TAPCELL_ROW_8_64
*500 TAP_TAPCELL_ROW_8_65
*501 TAP_TAPCELL_ROW_9_66
*502 TAP_TAPCELL_ROW_9_67
*503 _081_
*504 _082_
*505 _083_
*506 _084_
*507 _085_
*508 _086_
*509 _087_
*510 _088_
*511 _089_
*512 _090_
*513 _091_
*514 _092_
*515 _093_
*516 _094_
*517 _095_
*518 _096_
*519 _097_
*520 _098_
*521 _099_
*522 _100_
*523 _101_
*524 _102_
*525 _103_
*526 _104_
*527 _105_
*528 _106_
*529 _107_
*530 _108_
*531 _109_
*532 _110_
*533 _111_
*534 _112_
*535 _113_
*536 _114_
*537 _115_
*538 _116_
*539 _117_
*540 _118_
*541 _119_
*542 _120_
*543 _121_
*544 _122_
*545 _123_
*546 _124_
*547 _125_
*548 _126_
*549 _127_
*550 _128_
*551 _129_
*552 _130_
*553 _131_
*554 _132_
*555 _133_
*556 _134_
*557 _135_
*558 _136_
*559 _137_
*560 _138_
*561 _139_
*562 _140_
*563 _141_
*564 _142_
*565 _143_
*566 _144_
*567 _145_
*568 _146_
*569 _147_
*570 _148_
*571 _149_
*572 _150_
*573 _151_
*574 _152_
*575 _153_
*576 _154_
*577 _155_
*578 _156_
*579 _157_
*580 _158_
*581 _159_
*582 _160_
*583 _161_
*584 _162_
*585 _163_
*586 _164_
*587 _165_
*588 _166_
*589 _167_
*590 _168_
*591 _169_
*592 _170_
*593 _171_
*594 _172_
*595 _173_
*596 _174_
*597 _175_
*598 _176_
*599 _177_
*600 _178_
*601 _179_
*602 _180_
*603 _181_
*604 _182_
*605 _183_
*606 _184_
*607 _185_
*608 _186_
*609 _187_
*610 _188_
*611 _189_
*612 _190_
*613 _191_
*614 _192_
*615 _193_
*616 _194_
*617 _195_
*618 _196_
*619 clkbuf_0_clk_i
*620 clkbuf_2_0__f_clk_i
*621 clkbuf_2_1__f_clk_i
*622 clkbuf_2_2__f_clk_i
*623 clkbuf_2_3__f_clk_i
*624 clkload0
*625 clkload1
*626 clkload2
*627 fanout10
*628 fanout11
*629 fanout12
*630 fanout13
*631 fanout14
*632 fanout15
*633 fanout16
*634 fanout7
*635 fanout8
*636 fanout9
*637 hold1
*638 hold10
*639 hold11
*640 hold12
*641 hold13
*642 hold14
*643 hold15
*644 hold16
*645 hold17
*646 hold18
*647 hold19
*648 hold2
*649 hold20
*650 hold21
*651 hold22
*652 hold23
*653 hold24
*654 hold25
*655 hold26
*656 hold27
*657 hold28
*658 hold29
*659 hold3
*660 hold30
*661 hold31
*662 hold32
*663 hold33
*664 hold34
*665 hold35
*666 hold36
*667 hold37
*668 hold38
*669 hold39
*670 hold4
*671 hold5
*672 hold6
*673 hold7
*674 hold8
*675 hold9
*676 input1
*677 input2
*678 input3
*679 output4
*680 output5
*681 output6

*PORTS
clk_i I
num_to_send_o[0] O
num_to_send_o[1] O
num_to_send_o[2] O
req_num_i I
rst_i I
wr_i I

*D_NET *3 0.00601346
*CONN
*P clk_i I
*I *619:A I *D sky130_fd_sc_hd__clkbuf_16
*CAP
1 clk_i 0.00258748
2 *619:A 0.00258748
3 *619:A *510:B 0
4 *619:A *549:A_N 0
5 *619:A *553:A1 0
6 *619:A *581:A0 0
7 *619:A *615:D 4.40899e-05
8 *619:A *615:RESET_B 7.97083e-05
9 *619:A *637:A 0.000150831
10 *619:A *670:A 0
11 *619:A *678:A 3.45293e-05
12 *619:A *102:8 0.000103192
13 *619:A *102:10 0.000152405
14 *619:A *102:14 7.89689e-05
15 *619:A *102:71 0.000157107
16 *619:A *102:87 3.76596e-05
*RES
1 clk_i *619:A 22.5155 
*END

*D_NET *4 0.00104142
*CONN
*P num_to_send_o[0] O
*I *679:X O *D sky130_fd_sc_hd__buf_2
*CAP
1 num_to_send_o[0] 0.000296078
2 *679:X 0.000296078
3 num_to_send_o[0] num_to_send_o[1] 2.24901e-05
4 num_to_send_o[0] num_to_send_o[2] 0
5 num_to_send_o[0] *537:A 7.70351e-05
6 num_to_send_o[0] *604:CLK 0.000120186
7 num_to_send_o[0] *607:D 5.39718e-05
8 num_to_send_o[0] *92:97 0.000175583
*RES
1 *679:X num_to_send_o[0] 7.96503 
*END

*D_NET *5 0.000670821
*CONN
*P num_to_send_o[1] O
*I *680:X O *D sky130_fd_sc_hd__buf_2
*CAP
1 num_to_send_o[1] 0.000308461
2 *680:X 0.000308461
3 num_to_send_o[1] num_to_send_o[2] 3.14094e-05
4 num_to_send_o[0] num_to_send_o[1] 2.24901e-05
*RES
1 *680:X num_to_send_o[1] 7.1793 
*END

*D_NET *6 0.000488565
*CONN
*P num_to_send_o[2] O
*I *681:X O *D sky130_fd_sc_hd__buf_2
*CAP
1 num_to_send_o[2] 0.000219145
2 *681:X 0.000219145
3 num_to_send_o[2] *92:31 1.88656e-05
4 num_to_send_o[0] num_to_send_o[2] 0
5 num_to_send_o[1] num_to_send_o[2] 3.14094e-05
*RES
1 *681:X num_to_send_o[2] 4.90503 
*END

*D_NET *7 0.000642222
*CONN
*P req_num_i I
*I *676:A I *D sky130_fd_sc_hd__buf_1
*CAP
1 req_num_i 0.000310352
2 *676:A 0.000310352
3 *676:A *678:A 2.15176e-05
4 *676:A *56:8 0
*RES
1 req_num_i *676:A 7.5993 
*END

*D_NET *8 0.000389411
*CONN
*P rst_i I
*I *677:A I *D sky130_fd_sc_hd__buf_1
*CAP
1 rst_i 0.000194705
2 *677:A 0.000194705
*RES
1 rst_i *677:A 4.84677 
*END

*D_NET *9 0.000487429
*CONN
*P wr_i I
*I *678:A I *D sky130_fd_sc_hd__buf_1
*CAP
1 wr_i 0.000215691
2 *678:A 0.000215691
3 *678:A *578:B 0
4 *619:A *678:A 3.45293e-05
5 *676:A *678:A 2.15176e-05
*RES
1 wr_i *678:A 6.64043 
*END

*D_NET *10 0.000483485
*CONN
*I *614:D I *D sky130_fd_sc_hd__dfrtp_1
*I *548:Y O *D sky130_fd_sc_hd__inv_2
*CAP
1 *614:D 0.000241742
2 *548:Y 0.000241742
*RES
1 *548:Y *614:D 10.155 
*END

*D_NET *11 0.000758726
*CONN
*I *618:D I *D sky130_fd_sc_hd__dfrtp_1
*I *549:X O *D sky130_fd_sc_hd__and2b_1
*CAP
1 *618:D 0.000202476
2 *549:X 0.000202476
3 *618:D *549:B 7.23602e-05
4 *618:D *610:D 0.000209179
5 *618:D *618:CLK 7.22354e-05
*RES
1 *549:X *618:D 11.505 
*END

*D_NET *12 0.000762326
*CONN
*I *584:D I *D sky130_fd_sc_hd__dfrtp_1
*I *550:X O *D sky130_fd_sc_hd__mux2_1
*CAP
1 *584:D 0.000318442
2 *550:X 0.000318442
3 *584:D *94:51 5.18694e-05
4 *584:D *103:42 7.35729e-05
5 *584:D *154:12 0
*RES
1 *550:X *584:D 12.27 
*END

*D_NET *13 0.00039509
*CONN
*I *585:D I *D sky130_fd_sc_hd__dfrtp_1
*I *551:X O *D sky130_fd_sc_hd__mux2_1
*CAP
1 *585:D 0.000106533
2 *551:X 0.000106533
3 *585:D *551:A0 8.65905e-05
4 *585:D *94:27 0
5 *585:D *154:12 9.5433e-05
*RES
1 *551:X *585:D 9.12 
*END

*D_NET *14 0.000273313
*CONN
*I *586:D I *D sky130_fd_sc_hd__dfrtp_2
*I *552:X O *D sky130_fd_sc_hd__mux2_1
*CAP
1 *586:D 8.93593e-05
2 *552:X 8.93593e-05
3 *586:D *552:A0 9.45943e-05
*RES
1 *552:X *586:D 5.045 
*END

*D_NET *15 0.000499009
*CONN
*I *638:A I *D sky130_fd_sc_hd__dlygate4sd3_1
*I *553:X O *D sky130_fd_sc_hd__mux2_1
*CAP
1 *638:A 0.000159715
2 *553:X 0.000159715
3 *638:A *553:S 0.000132968
4 *638:A *587:D 4.66108e-05
*RES
1 *553:X *638:A 6.335 
*END

*D_NET *16 0.000758618
*CONN
*I *672:A I *D sky130_fd_sc_hd__dlygate4sd3_1
*I *554:X O *D sky130_fd_sc_hd__mux2_1
*CAP
1 *672:A 0.00029295
2 *554:X 0.00029295
3 *672:A *588:D 0
4 *672:A *588:RESET_B 9.37731e-05
5 *672:A *150:12 0
6 *672:A *157:42 7.35813e-05
7 *672:A *174:19 5.36384e-06
*RES
1 *554:X *672:A 12.21 
*END

*D_NET *17 0.000993645
*CONN
*I *674:A I *D sky130_fd_sc_hd__dlygate4sd3_1
*I *555:X O *D sky130_fd_sc_hd__mux2_1
*CAP
1 *674:A 0.000317603
2 *555:X 0.000317603
3 *674:A *511:B 0.000238919
4 *674:A *512:B 9.28188e-05
5 *674:A *513:B2 0
6 *674:A *178:8 2.67022e-05
*RES
1 *555:X *674:A 12.795 
*END

*D_NET *18 0.00168881
*CONN
*I *590:D I *D sky130_fd_sc_hd__dfrtp_1
*I *556:X O *D sky130_fd_sc_hd__mux2_1
*CAP
1 *590:D 0.00063857
2 *556:X 0.00063857
3 *590:D *556:S 0.000122337
4 *590:D *170:10 0.000289334
*RES
1 *556:X *590:D 13.085 
*END

*D_NET *19 0.00063473
*CONN
*I *658:A I *D sky130_fd_sc_hd__dlygate4sd3_1
*I *557:X O *D sky130_fd_sc_hd__mux2_1
*CAP
1 *658:A 9.00342e-05
2 *557:X 9.00342e-05
3 *658:A *514:A 0.00016163
4 *658:A *524:A1 0.000293032
*RES
1 *557:X *658:A 10.62 
*END

*D_NET *20 0.00104925
*CONN
*I *592:D I *D sky130_fd_sc_hd__dfrtp_1
*I *558:X O *D sky130_fd_sc_hd__mux2_1
*CAP
1 *592:D 0.00026494
2 *558:X 0.00026494
3 *592:D *558:S 0.000352161
4 *592:D *617:RESET_B 4.70256e-05
5 *592:D *168:25 0.000120186
*RES
1 *558:X *592:D 11.79 
*END

*D_NET *21 0.000515867
*CONN
*I *594:D I *D sky130_fd_sc_hd__dfrtp_1
*I *559:X O *D sky130_fd_sc_hd__mux2_1
*CAP
1 *594:D 9.42861e-05
2 *559:X 9.42861e-05
3 *594:D *534:A 9.30787e-05
4 *594:D *594:CLK 7.35813e-05
5 *594:D *100:85 0.000160635
6 *594:D *155:14 0
*RES
1 *559:X *594:D 9.81 
*END

*D_NET *22 0.000347072
*CONN
*I *595:D I *D sky130_fd_sc_hd__dfrtp_1
*I *560:X O *D sky130_fd_sc_hd__mux2_1
*CAP
1 *595:D 0.000133086
2 *560:X 0.000133086
3 *595:D *560:A0 3.81908e-06
4 *595:D *595:RESET_B 0
5 *595:D *596:CLK 3.00381e-05
6 *595:D *93:81 4.7043e-05
*RES
1 *560:X *595:D 9.375 
*END

*D_NET *23 0.000360401
*CONN
*I *596:D I *D sky130_fd_sc_hd__dfrtp_1
*I *561:X O *D sky130_fd_sc_hd__mux2_1
*CAP
1 *596:D 0.000119952
2 *561:X 0.000119952
3 *596:D *561:A1 8.65905e-05
4 *596:D *595:RESET_B 4.18603e-06
5 *596:D *93:77 0
6 *596:D *101:10 2.97204e-05
*RES
1 *561:X *596:D 9.12 
*END

*D_NET *24 0.00107334
*CONN
*I *597:D I *D sky130_fd_sc_hd__dfrtp_1
*I *562:X O *D sky130_fd_sc_hd__mux2_1
*CAP
1 *597:D 0.000301839
2 *562:X 0.000301839
3 *597:D *540:A 2.30292e-05
4 *597:D *562:A1 0.000123225
5 *597:D *565:A0 6.58339e-05
6 *597:D *155:14 0.000163806
7 *597:D *161:10 9.37731e-05
*RES
1 *562:X *597:D 11.985 
*END

*D_NET *25 0.000538117
*CONN
*I *598:D I *D sky130_fd_sc_hd__dfrtp_1
*I *563:X O *D sky130_fd_sc_hd__mux2_1
*CAP
1 *598:D 0.000160415
2 *563:X 0.000160415
3 *598:D *563:A1 1.4389e-05
4 *598:D *598:CLK 5.72004e-05
5 *598:D *598:RESET_B 5.13155e-05
6 *598:D *664:A 1.01661e-05
7 *598:D *101:53 8.42161e-05
8 *598:D *162:12 0
*RES
1 *563:X *598:D 10.815 
*END

*D_NET *26 0.000682205
*CONN
*I *646:A I *D sky130_fd_sc_hd__dlygate4sd3_1
*I *564:X O *D sky130_fd_sc_hd__mux2_1
*CAP
1 *646:A 0.000176313
2 *564:X 0.000176313
3 *646:A *560:A1 0.00011964
4 *646:A *564:A0 9.37731e-05
5 *646:A *165:10 0
6 *646:A *166:10 0.000116165
*RES
1 *564:X *646:A 10.41 
*END

*D_NET *27 0.00078517
*CONN
*I *643:A I *D sky130_fd_sc_hd__dlygate4sd3_1
*I *565:X O *D sky130_fd_sc_hd__mux2_1
*CAP
1 *643:A 8.15713e-05
2 *565:X 8.15713e-05
3 *643:A *528:B 0.000196052
4 *643:A *529:A 0.000110492
5 *643:A *92:12 0.000194891
6 *643:A *97:12 8.30853e-06
7 *643:A *148:35 0.000112284
*RES
1 *565:X *643:A 10.41 
*END

*D_NET *28 0.000585073
*CONN
*I *601:D I *D sky130_fd_sc_hd__dfrtp_1
*I *566:X O *D sky130_fd_sc_hd__mux2_1
*CAP
1 *601:D 0.000203176
2 *566:X 0.000203176
3 *601:D *601:CLK 6.23541e-06
4 *601:D *605:RESET_B 3.15734e-05
5 *601:D *665:A 0.000140912
6 *601:D *148:97 0
7 *601:D *160:32 0
*RES
1 *566:X *601:D 10.815 
*END

*D_NET *29 0.00128495
*CONN
*I *665:A I *D sky130_fd_sc_hd__dlygate4sd3_1
*I *567:X O *D sky130_fd_sc_hd__mux2_1
*CAP
1 *665:A 0.000381964
2 *567:X 0.000381964
3 *665:A *567:A1 9.63998e-05
4 *665:A *567:S 0
5 *665:A *601:CLK 8.65037e-05
6 *665:A *602:CLK 3.68999e-05
7 *665:A *92:59 0.00016031
8 *665:A *148:97 0
9 *665:A *160:14 0
10 *601:D *665:A 0.000140912
*RES
1 *567:X *665:A 14.385 
*END

*D_NET *30 0.000992575
*CONN
*I *655:A I *D sky130_fd_sc_hd__dlygate4sd3_1
*I *568:X O *D sky130_fd_sc_hd__mux2_1
*CAP
1 *655:A 0.000308312
2 *568:X 0.000308312
3 *655:A *99:117 0.00037595
*RES
1 *568:X *655:A 8.84 
*END

*D_NET *31 0.000659828
*CONN
*I *605:D I *D sky130_fd_sc_hd__dfrtp_1
*I *569:X O *D sky130_fd_sc_hd__mux2_1
*CAP
1 *605:D 0.000270398
2 *569:X 0.000270398
3 *605:D *572:A0 2.75229e-05
4 *605:D *100:27 4.18603e-06
5 *605:D *100:47 3.26735e-05
6 *605:D *147:14 3.09164e-05
7 *605:D *147:25 2.37321e-05
*RES
1 *569:X *605:D 10.845 
*END

*D_NET *32 0.00103573
*CONN
*I *606:D I *D sky130_fd_sc_hd__dfrtp_1
*I *570:X O *D sky130_fd_sc_hd__mux2_1
*CAP
1 *606:D 0.000402837
2 *570:X 0.000402837
3 *606:D *609:D 0
4 *606:D *609:RESET_B 0.000156482
5 *606:D *92:59 7.35729e-05
6 *606:D *147:14 0
*RES
1 *570:X *606:D 12.675 
*END

*D_NET *33 0.000510816
*CONN
*I *607:D I *D sky130_fd_sc_hd__dfrtp_1
*I *571:X O *D sky130_fd_sc_hd__mux2_1
*CAP
1 *607:D 0.000107475
2 *571:X 0.000107475
3 *607:D *537:A 3.25831e-05
4 *607:D *537:B 7.18817e-05
5 *607:D *604:CLK 2.84137e-05
6 *607:D *679:A 0.000109016
7 num_to_send_o[0] *607:D 5.39718e-05
*RES
1 *571:X *607:D 10.365 
*END

*D_NET *34 0.000424133
*CONN
*I *608:D I *D sky130_fd_sc_hd__dfrtp_1
*I *572:X O *D sky130_fd_sc_hd__mux2_1
*CAP
1 *608:D 0.000212066
2 *572:X 0.000212066
3 *608:D *92:33 0
4 *608:D *148:37 0
*RES
1 *572:X *608:D 10.41 
*END

*D_NET *35 0.000652511
*CONN
*I *609:D I *D sky130_fd_sc_hd__dfrtp_1
*I *573:X O *D sky130_fd_sc_hd__mux2_1
*CAP
1 *609:D 0.000218065
2 *573:X 0.000218065
3 *609:D *605:CLK 1.17409e-05
4 *609:D *609:CLK 0.000114384
5 *609:D *92:46 2.47313e-05
6 *609:D *92:52 6.5525e-05
7 *606:D *609:D 0
*RES
1 *573:X *609:D 11.505 
*END

*D_NET *36 0.000242247
*CONN
*I *611:D I *D sky130_fd_sc_hd__dfrtp_1
*I *576:X O *D sky130_fd_sc_hd__and2_1
*CAP
1 *611:D 8.13178e-05
2 *576:X 8.13178e-05
3 *611:D *578:B 0
4 *611:D *611:CLK 2.75145e-05
5 *611:D *58:12 5.20968e-05
*RES
1 *576:X *611:D 8.775 
*END

*D_NET *37 0.000358105
*CONN
*I *612:D I *D sky130_fd_sc_hd__dfrtp_1
*I *579:Y O *D sky130_fd_sc_hd__nor2_1
*CAP
1 *612:D 0.000134919
2 *579:Y 0.000134919
3 *612:D *579:A 8.8266e-05
4 *612:D *152:10 0
*RES
1 *579:Y *612:D 9.12 
*END

*D_NET *38 0.000562132
*CONN
*I *613:D I *D sky130_fd_sc_hd__dfrtp_1
*I *580:X O *D sky130_fd_sc_hd__xor2_1
*CAP
1 *613:D 0.0002783
2 *580:X 0.0002783
3 *613:D *552:S 5.53249e-06
4 *613:D *613:CLK 0
5 *613:D *613:RESET_B 0
6 *613:D *103:56 0
7 *613:D *152:10 0
8 *613:D *152:18 0
*RES
1 *580:X *613:D 11.385 
*END

*D_NET *39 0.00129129
*CONN
*I *615:D I *D sky130_fd_sc_hd__dfrtp_1
*I *581:X O *D sky130_fd_sc_hd__mux2_1
*CAP
1 *615:D 0.000507142
2 *581:X 0.000507142
3 *615:D *581:A0 0.000116165
4 *615:D *615:RESET_B 2.40101e-05
5 *615:D *173:8 9.2741e-05
6 *619:A *615:D 4.40899e-05
*RES
1 *581:X *615:D 15.585 
*END

*D_NET *40 0.000413816
*CONN
*I *641:A I *D sky130_fd_sc_hd__dlygate4sd3_1
*I *582:X O *D sky130_fd_sc_hd__mux2_1
*CAP
1 *641:A 0.000122716
2 *582:X 0.000122716
3 *641:A *546:A1 0.000117832
4 *641:A *589:CLK 4.47209e-05
5 *641:A *95:51 5.83121e-06
6 *641:A *150:12 0
*RES
1 *582:X *641:A 9.375 
*END

*D_NET *41 0.000191957
*CONN
*I *650:A I *D sky130_fd_sc_hd__dlygate4sd3_1
*I *583:X O *D sky130_fd_sc_hd__mux2_1
*CAP
1 *650:A 5.95659e-05
2 *583:X 5.95659e-05
3 *650:A *583:S 7.28255e-05
*RES
1 *583:X *650:A 4.355 
*END

*D_NET *42 0.000696985
*CONN
*I *536:B1 I *D sky130_fd_sc_hd__a221o_1
*I *534:Y O *D sky130_fd_sc_hd__nand2_1
*CAP
1 *536:B1 8.02581e-05
2 *534:Y 8.02581e-05
3 *536:B1 *536:B2 1.12643e-05
4 *536:B1 *536:C1 0.000123225
5 *536:B1 *547:A_N 0.000310394
6 *536:B1 *620:A 9.15857e-05
7 *536:B1 *156:24 0
8 *536:B1 *156:28 0
*RES
1 *534:Y *536:B1 6.425 
*END

*D_NET *43 0.00100958
*CONN
*I *536:B2 I *D sky130_fd_sc_hd__a221o_1
*I *535:X O *D sky130_fd_sc_hd__or2_1
*CAP
1 *536:B2 0.000146323
2 *535:X 0.000146323
3 *536:B2 *620:A 1.19081e-05
4 *536:B2 *97:68 0.000372453
5 *536:B2 *148:21 0.000277223
6 *536:B2 *156:24 4.40899e-05
7 *536:B1 *536:B2 1.12643e-05
*RES
1 *535:X *536:B2 11.8237 
*END

*D_NET *44 0.00304694
*CONN
*I *546:C1 I *D sky130_fd_sc_hd__o2111a_1
*I *536:X O *D sky130_fd_sc_hd__a221o_1
*CAP
1 *546:C1 0.000851804
2 *536:X 0.000851804
3 *546:C1 *521:A 0.00024756
4 *546:C1 *544:A2 5.74656e-05
5 *546:C1 *546:D1 4.66108e-05
6 *546:C1 *547:A_N 0.000201503
7 *546:C1 *547:D 0.000137578
8 *546:C1 *556:A1 0
9 *546:C1 *594:CLK 7.07801e-05
10 *546:C1 *634:A 0.000183036
11 *546:C1 *636:A 0.00011379
12 *546:C1 *93:10 4.43871e-06
13 *546:C1 *93:25 6.92175e-05
14 *546:C1 *93:34 9.68865e-05
15 *546:C1 *97:98 4.75576e-05
16 *546:C1 *150:24 6.69108e-05
*RES
1 *536:X *546:C1 23.34 
*END

*D_NET *45 0.000783638
*CONN
*I *538:C1 I *D sky130_fd_sc_hd__a221oi_1
*I *537:X O *D sky130_fd_sc_hd__xor2_1
*CAP
1 *538:C1 0.000302117
2 *537:X 0.000302117
3 *538:C1 *537:A 1.01661e-05
4 *538:C1 *537:B 5.53249e-06
5 *538:C1 *538:B2 0.000136182
6 *538:C1 *680:A 0
7 *538:C1 *92:29 2.75229e-05
8 *538:C1 *92:31 0
9 *538:C1 *92:97 0
10 *538:C1 *148:37 0
*RES
1 *537:X *538:C1 12.09 
*END

*D_NET *46 0.000646348
*CONN
*I *539:C1 I *D sky130_fd_sc_hd__o221a_1
*I *538:Y O *D sky130_fd_sc_hd__a221oi_1
*CAP
1 *539:C1 0.000103276
2 *538:Y 0.000103276
3 *539:C1 *538:A2 3.53971e-05
4 *539:C1 *538:B1 0.000122331
5 *539:C1 *140:14 1.33293e-05
6 *539:C1 *147:40 0.000268739
*RES
1 *538:Y *539:C1 6.3275 
*END

*D_NET *47 0.00462328
*CONN
*I *547:A_N I *D sky130_fd_sc_hd__and4b_1
*I *539:X O *D sky130_fd_sc_hd__o221a_1
*CAP
1 *547:A_N 0.00143738
2 *539:X 0.00143738
3 *547:A_N *521:A 0
4 *547:A_N *534:B 9.2741e-05
5 *547:A_N *540:B 0
6 *547:A_N *544:A2 4.9253e-06
7 *547:A_N *556:A1 6.02202e-05
8 *547:A_N *620:A 0.000196889
9 *547:A_N *652:A 4.61744e-05
10 *547:A_N *60:12 0.00053469
11 *547:A_N *91:10 0
12 *547:A_N *97:98 4.11281e-05
13 *547:A_N *156:24 0.000237249
14 *547:A_N *156:28 2.26018e-05
15 *536:B1 *547:A_N 0.000310394
16 *546:C1 *547:A_N 0.000201503
*RES
1 *539:X *547:A_N 33.66 
*END

*D_NET *48 0.00137577
*CONN
*I *544:C1 I *D sky130_fd_sc_hd__a211o_1
*I *540:X O *D sky130_fd_sc_hd__xor2_1
*CAP
1 *544:C1 0.000382486
2 *540:X 0.000382486
3 *544:C1 *520:A 4.71333e-05
4 *544:C1 *544:A2 0.00012657
5 *544:C1 *544:B1 0.0001249
6 *544:C1 *546:D1 0
7 *544:C1 *93:10 4.05358e-05
8 *544:C1 *93:25 3.86529e-05
9 *544:C1 *97:98 0.00023301
*RES
1 *540:X *544:C1 13.53 
*END

*D_NET *49 0.00053806
*CONN
*I *544:A1 I *D sky130_fd_sc_hd__a211o_1
*I *541:Y O *D sky130_fd_sc_hd__nand2_1
*CAP
1 *544:A1 0.000211679
2 *541:Y 0.000211679
3 *544:A1 *541:B 7.35729e-05
4 *544:A1 *93:10 0
5 *544:A1 *149:39 4.11281e-05
*RES
1 *541:Y *544:A1 10.065 
*END

*D_NET *50 0.0012406
*CONN
*I *544:A2 I *D sky130_fd_sc_hd__a211o_1
*I *542:X O *D sky130_fd_sc_hd__or2_1
*CAP
1 *544:A2 0.000153164
2 *542:X 0.000153164
3 *544:A2 *544:B1 7.05779e-05
4 *544:A2 *546:D1 4.92062e-05
5 *544:A2 *592:CLK 1.12578e-05
6 *544:A2 *156:28 0.000614264
7 *544:C1 *544:A2 0.00012657
8 *546:C1 *544:A2 5.74656e-05
9 *547:A_N *544:A2 4.9253e-06
*RES
1 *542:X *544:A2 9.185 
*END

*D_NET *51 0.000551955
*CONN
*I *544:B1 I *D sky130_fd_sc_hd__a211o_1
*I *543:X O *D sky130_fd_sc_hd__xor2_1
*CAP
1 *544:B1 5.9614e-05
2 *543:X 5.9614e-05
3 *544:B1 *592:CLK 0.000237249
4 *544:A2 *544:B1 7.05779e-05
5 *544:C1 *544:B1 0.0001249
*RES
1 *543:X *544:B1 5.735 
*END

*D_NET *52 0.00314512
*CONN
*I *546:D1 I *D sky130_fd_sc_hd__o2111a_1
*I *544:X O *D sky130_fd_sc_hd__a211o_1
*CAP
1 *546:D1 0.000770827
2 *544:X 0.000770827
3 *546:D1 *518:A2 3.39064e-05
4 *546:D1 *524:A2 0.000265917
5 *546:D1 *524:B1 0
6 *546:D1 *524:B2 0.000295743
7 *546:D1 *545:A3 0.000136877
8 *546:D1 *545:C1 0.00011398
9 *546:D1 *546:B1 0.000268734
10 *546:D1 *547:C 1.08758e-05
11 *546:D1 *557:S 5.49093e-05
12 *546:D1 *582:A1 0
13 *546:D1 *592:CLK 0.000161529
14 *546:D1 *594:CLK 0
15 *546:D1 *634:A 0
16 *546:D1 *93:25 0
17 *546:D1 *93:34 0
18 *546:D1 *150:24 7.61941e-05
19 *546:D1 *156:28 2.96334e-05
20 *546:D1 *171:10 5.93505e-05
21 *544:A2 *546:D1 4.92062e-05
22 *544:C1 *546:D1 0
23 *546:C1 *546:D1 4.66108e-05
*RES
1 *544:X *546:D1 24.645 
*END

*D_NET *53 0.000454358
*CONN
*I *547:B I *D sky130_fd_sc_hd__and4b_1
*I *545:X O *D sky130_fd_sc_hd__o311a_1
*CAP
1 *547:B 3.69955e-05
2 *545:X 3.69955e-05
3 *547:B *515:A 2.16917e-05
4 *547:B *545:A1 0.000198046
5 *547:B *150:43 0.00016063
*RES
1 *545:X *547:B 5.03 
*END

*D_NET *54 0.000372937
*CONN
*I *547:C I *D sky130_fd_sc_hd__and4b_1
*I *546:X O *D sky130_fd_sc_hd__o2111a_1
*CAP
1 *547:C 0.000144854
2 *546:X 0.000144854
3 *547:C *547:D 7.23533e-05
4 *547:C *556:A1 0
5 *546:D1 *547:C 1.08758e-05
*RES
1 *546:X *547:C 9.21 
*END

*D_NET *55 0.00259105
*CONN
*I *636:A I *D sky130_fd_sc_hd__buf_2
*I *547:X O *D sky130_fd_sc_hd__and4b_1
*CAP
1 *636:A 0.000472664
2 *547:X 0.000472664
3 *636:A *546:A1 0.00047935
4 *636:A *547:D 0.000418095
5 *636:A *553:S 0.000137571
6 *636:A *588:D 0
7 *636:A *150:12 3.64998e-06
8 *636:A *150:24 0.000138544
9 *636:A *157:42 0.000354725
10 *546:C1 *636:A 0.00011379
*RES
1 *547:X *636:A 22.245 
*END

*D_NET *56 0.000900152
*CONN
*I *578:B I *D sky130_fd_sc_hd__and2b_1
*I *576:A I *D sky130_fd_sc_hd__and2_1
*I *574:Y O *D sky130_fd_sc_hd__o21ai_1
*CAP
1 *578:B 0.000275474
2 *576:A 0
3 *574:Y 6.23322e-05
4 *56:8 0.000337806
5 *578:B *576:B 5.53249e-06
6 *578:B *579:A 1.61831e-05
7 *578:B *579:B 2.75229e-05
8 *578:B *58:12 0
9 *578:B *151:20 0
10 *56:8 *576:B 7.81954e-05
11 *56:8 *96:10 9.71067e-05
12 *611:D *578:B 0
13 *676:A *56:8 0
14 *678:A *578:B 0
*RES
1 *574:Y *56:8 5.235 
2 *56:8 *576:A 3.6 
3 *56:8 *578:B 8.07 
*END

*D_NET *57 0.000244456
*CONN
*I *576:B I *D sky130_fd_sc_hd__and2_1
*I *575:X O *D sky130_fd_sc_hd__or3_1
*CAP
1 *576:B 5.21937e-05
2 *575:X 5.21937e-05
3 *576:B *151:20 5.63405e-05
4 *578:B *576:B 5.53249e-06
5 *56:8 *576:B 7.81954e-05
*RES
1 *575:X *576:B 8.835 
*END

*D_NET *58 0.00147362
*CONN
*I *580:B I *D sky130_fd_sc_hd__xor2_1
*I *579:A I *D sky130_fd_sc_hd__nor2_1
*I *577:X O *D sky130_fd_sc_hd__o211a_1
*CAP
1 *580:B 3.95026e-05
2 *579:A 0.000202996
3 *577:X 0.000240238
4 *58:12 0.000482736
5 *579:A *578:A_N 5.83121e-06
6 *579:A *579:B 6.77001e-05
7 *580:B *578:A_N 4.80285e-05
8 *58:12 *577:A1 2.7881e-05
9 *58:12 *577:A2 4.66108e-05
10 *58:12 *151:20 7.30547e-05
11 *58:12 *152:18 8.24915e-05
12 *578:B *579:A 1.61831e-05
13 *578:B *58:12 0
14 *611:D *58:12 5.20968e-05
15 *612:D *579:A 8.8266e-05
*RES
1 *577:X *58:12 10.49 
2 *58:12 *579:A 5.545 
3 *58:12 *580:B 2.395 
*END

*D_NET *59 0.000141249
*CONN
*I *579:B I *D sky130_fd_sc_hd__nor2_1
*I *578:X O *D sky130_fd_sc_hd__and2b_1
*CAP
1 *579:B 2.3013e-05
2 *578:X 2.3013e-05
3 *578:B *579:B 2.75229e-05
4 *579:A *579:B 6.77001e-05
*RES
1 *578:X *579:B 4.01 
*END

*D_NET *60 0.00208784
*CONN
*I *539:A2 I *D sky130_fd_sc_hd__o221a_1
*I *538:A2 I *D sky130_fd_sc_hd__a221oi_1
*I *503:Y O *D sky130_fd_sc_hd__inv_2
*CAP
1 *539:A2 0
2 *538:A2 0.00012125
3 *503:Y 0.000287159
4 *60:12 0.000408409
5 *538:A2 *140:14 0.0002639
6 *538:A2 *147:40 1.74678e-05
7 *60:12 *530:C1 0.000139245
8 *60:12 *539:A1 4.82919e-05
9 *60:12 *620:A 0.000222228
10 *60:12 *140:14 9.80032e-06
11 *60:12 *148:91 0
12 *539:C1 *538:A2 3.53971e-05
13 *547:A_N *60:12 0.00053469
*RES
1 *503:Y *60:12 13.55 
2 *60:12 *538:A2 4.75 
3 *60:12 *539:A2 1.6 
*END

*D_NET *61 0.00118152
*CONN
*I *539:B2 I *D sky130_fd_sc_hd__o221a_1
*I *538:B2 I *D sky130_fd_sc_hd__a221oi_1
*I *504:Y O *D sky130_fd_sc_hd__inv_2
*CAP
1 *539:B2 6.76085e-05
2 *538:B2 0.000347801
3 *504:Y 0
4 *61:4 0.00041541
5 *538:B2 *573:A1 3.1835e-05
6 *538:B2 *680:A 9.63505e-05
7 *539:B2 *573:A1 3.23391e-05
8 *539:B2 *100:59 0
9 *539:B2 *147:40 5.39961e-05
10 *538:C1 *538:B2 0.000136182
*RES
1 *504:Y *61:4 1.6 
2 *61:4 *538:B2 10.445 
3 *61:4 *539:B2 6.98 
*END

*D_NET *62 0.000753795
*CONN
*I *545:A1 I *D sky130_fd_sc_hd__o311a_1
*I *505:X O *D sky130_fd_sc_hd__xor2_1
*CAP
1 *545:A1 0.000190186
2 *505:X 0.000190186
3 *545:A1 *515:A 3.23663e-05
4 *545:A1 *547:D 2.20665e-05
5 *545:A1 *150:43 0.000120945
6 *547:B *545:A1 0.000198046
*RES
1 *505:X *545:A1 7.46 
*END

*D_NET *63 0.00176248
*CONN
*I *545:A2 I *D sky130_fd_sc_hd__o311a_1
*I *506:X O *D sky130_fd_sc_hd__xor2_1
*CAP
1 *545:A2 0.000347541
2 *506:X 0.000347541
3 *545:A2 *506:A 0
4 *545:A2 *515:A 2.50602e-05
5 *545:A2 *516:B 0.000299868
6 *545:A2 *518:A2 0.000195482
7 *545:A2 *545:B1 0.00017228
8 *545:A2 *583:S 0.000223011
9 *545:A2 *98:92 9.3062e-06
10 *545:A2 *149:20 8.40269e-05
11 *545:A2 *171:16 5.83589e-05
*RES
1 *506:X *545:A2 16.11 
*END

*D_NET *64 0.000942044
*CONN
*I *545:A3 I *D sky130_fd_sc_hd__o311a_1
*I *507:X O *D sky130_fd_sc_hd__xor2_1
*CAP
1 *545:A3 0.000301706
2 *507:X 0.000301706
3 *545:A3 *518:A2 0
4 *545:A3 *546:A1 4.11194e-05
5 *545:A3 *582:A1 0
6 *545:A3 *98:88 0.000160635
7 *545:A3 *150:24 0
8 *546:D1 *545:A3 0.000136877
*RES
1 *507:X *545:A3 12.105 
*END

*D_NET *65 0.000517331
*CONN
*I *513:A1 I *D sky130_fd_sc_hd__a22o_1
*I *508:X O *D sky130_fd_sc_hd__or2_1
*CAP
1 *513:A1 0.000178359
2 *508:X 0.000178359
3 *513:A1 *513:A2 0.000109346
4 *513:A1 *554:S 3.68769e-05
5 *513:A1 *98:120 1.4389e-05
*RES
1 *508:X *513:A1 10.815 
*END

*D_NET *66 0.00110886
*CONN
*I *513:A2 I *D sky130_fd_sc_hd__a22o_1
*I *509:Y O *D sky130_fd_sc_hd__nand2_1
*CAP
1 *513:A2 0.000252111
2 *509:Y 0.000252111
3 *513:A2 *506:A 9.50342e-06
4 *513:A2 *509:A 1.56428e-05
5 *513:A2 *509:B 1.17409e-05
6 *513:A2 *513:B1 4.99619e-05
7 *513:A2 *555:S 0.00012657
8 *513:A2 *98:120 0
9 *513:A2 *157:44 0.000281869
10 *513:A1 *513:A2 0.000109346
*RES
1 *509:Y *513:A2 13.005 
*END

*D_NET *67 0.00189126
*CONN
*I *546:A1 I *D sky130_fd_sc_hd__o2111a_1
*I *510:X O *D sky130_fd_sc_hd__xor2_1
*CAP
1 *546:A1 0.000599656
2 *510:X 0.000599656
3 *546:A1 *150:12 0
4 *546:A1 *150:24 9.50342e-06
5 *546:A1 *157:42 4.41463e-05
6 *545:A3 *546:A1 4.11194e-05
7 *636:A *546:A1 0.00047935
8 *641:A *546:A1 0.000117832
*RES
1 *510:X *546:A1 18.915 
*END

*D_NET *68 0.000280088
*CONN
*I *513:B1 I *D sky130_fd_sc_hd__a22o_1
*I *511:Y O *D sky130_fd_sc_hd__nand2_1
*CAP
1 *513:B1 8.48311e-05
2 *511:Y 8.48311e-05
3 *513:B1 *513:B2 4.92062e-05
4 *513:B1 *555:S 1.12578e-05
5 *513:A2 *513:B1 4.99619e-05
*RES
1 *511:Y *513:B1 4.685 
*END

*D_NET *69 0.00137431
*CONN
*I *513:B2 I *D sky130_fd_sc_hd__a22o_1
*I *512:X O *D sky130_fd_sc_hd__or2_1
*CAP
1 *513:B2 0.000428247
2 *512:X 0.000428247
3 *513:B2 *506:A 0
4 *513:B2 *511:B 9.9214e-05
5 *513:B2 *512:B 0
6 *513:B2 *555:A0 1.71013e-05
7 *513:B2 *555:S 0.000286757
8 *513:B2 *589:D 6.55406e-05
9 *513:B2 *589:RESET_B 0
10 *513:B2 *673:A 0
11 *513:B2 *157:44 0
12 *513:B1 *513:B2 4.92062e-05
13 *674:A *513:B2 0
*RES
1 *512:X *513:B2 16.05 
*END

*D_NET *70 0.00190989
*CONN
*I *546:A2 I *D sky130_fd_sc_hd__o2111a_1
*I *513:X O *D sky130_fd_sc_hd__a22o_1
*CAP
1 *546:A2 0.000625746
2 *513:X 0.000625746
3 *546:A2 *506:A 0
4 *546:A2 *517:A 6.0011e-05
5 *546:A2 *518:B1 1.80064e-05
6 *546:A2 *98:92 3.86607e-05
7 *546:A2 *150:24 0.000311288
8 *546:A2 *150:97 0.000230435
*RES
1 *513:X *546:A2 15.42 
*END

*D_NET *71 0.00177336
*CONN
*I *518:B1 I *D sky130_fd_sc_hd__a211o_1
*I *514:X O *D sky130_fd_sc_hd__xor2_1
*CAP
1 *518:B1 0.000480388
2 *514:X 0.000480388
3 *518:B1 *514:A 8.65961e-05
4 *518:B1 *516:B 0.00013521
5 *518:B1 *517:A 0.000160635
6 *518:B1 *518:A1 0.000329856
7 *518:B1 *524:A1 0
8 *518:B1 *545:B1 0
9 *518:B1 *591:D 2.75229e-05
10 *518:B1 *617:D 0
11 *518:B1 *617:RESET_B 0
12 *518:B1 *635:A 4.00541e-06
13 *518:B1 *149:20 0
14 *518:B1 *150:97 5.0751e-05
15 *546:A2 *518:B1 1.80064e-05
*RES
1 *514:X *518:B1 17.535 
*END

*D_NET *72 0.00059641
*CONN
*I *518:C1 I *D sky130_fd_sc_hd__a211o_1
*I *515:X O *D sky130_fd_sc_hd__xor2_1
*CAP
1 *518:C1 0.000141893
2 *515:X 0.000141893
3 *518:C1 *515:A 0.000138544
4 *518:C1 *517:A 4.18603e-06
5 *518:C1 *555:S 4.75576e-05
6 *518:C1 *98:88 0.000122337
7 *518:C1 *149:10 0
*RES
1 *515:X *518:C1 9.975 
*END

*D_NET *73 0.000943911
*CONN
*I *518:A1 I *D sky130_fd_sc_hd__a211o_1
*I *516:Y O *D sky130_fd_sc_hd__nand2_1
*CAP
1 *518:A1 0.000295991
2 *516:Y 0.000295991
3 *518:A1 *150:97 2.20732e-05
4 *518:B1 *518:A1 0.000329856
*RES
1 *516:Y *518:A1 7.37 
*END

*D_NET *74 0.000720501
*CONN
*I *518:A2 I *D sky130_fd_sc_hd__a211o_1
*I *517:X O *D sky130_fd_sc_hd__or2_1
*CAP
1 *518:A2 0.000186297
2 *517:X 0.000186297
3 *518:A2 *582:A1 0.00011852
4 *545:A2 *518:A2 0.000195482
5 *545:A3 *518:A2 0
6 *546:D1 *518:A2 3.39064e-05
*RES
1 *517:X *518:A2 10.41 
*END

*D_NET *75 0.000722337
*CONN
*I *546:B1 I *D sky130_fd_sc_hd__o2111a_1
*I *518:X O *D sky130_fd_sc_hd__a211o_1
*CAP
1 *546:B1 0.000220931
2 *518:X 0.000220931
3 *546:B1 *150:24 1.17409e-05
4 *546:D1 *546:B1 0.000268734
*RES
1 *518:X *546:B1 6.065 
*END

*D_NET *76 0.00108432
*CONN
*I *524:A1 I *D sky130_fd_sc_hd__a221o_1
*I *519:X O *D sky130_fd_sc_hd__or2_1
*CAP
1 *524:A1 0.000317455
2 *519:X 0.000317455
3 *524:A1 *514:A 0.000131306
4 *524:A1 *524:A2 2.14237e-05
5 *524:A1 *524:B1 3.64998e-06
6 *524:A1 *591:D 0
7 *524:A1 *617:RESET_B 0
8 *524:A1 *149:20 0
9 *518:B1 *524:A1 0
10 *658:A *524:A1 0.000293032
*RES
1 *519:X *524:A1 13.305 
*END

*D_NET *77 0.00117443
*CONN
*I *524:A2 I *D sky130_fd_sc_hd__a221o_1
*I *520:Y O *D sky130_fd_sc_hd__nand2_1
*CAP
1 *524:A2 0.000394668
2 *520:Y 0.000394668
3 *524:A2 *524:B1 7.83301e-05
4 *524:A2 *524:B2 3.78034e-06
5 *524:A2 *524:C1 1.56428e-05
6 *524:A2 *594:CLK 0
7 *524:A2 *93:34 0
8 *524:A1 *524:A2 2.14237e-05
9 *546:D1 *524:A2 0.000265917
*RES
1 *520:Y *524:A2 13.5337 
*END

*D_NET *78 0.000256518
*CONN
*I *524:C1 I *D sky130_fd_sc_hd__a221o_1
*I *521:X O *D sky130_fd_sc_hd__xor2_1
*CAP
1 *524:C1 0.000120438
2 *521:X 0.000120438
3 *524:C1 *521:A 0
4 *524:C1 *521:B 0
5 *524:C1 *524:B1 0
6 *524:A2 *524:C1 1.56428e-05
*RES
1 *521:X *524:C1 5.045 
*END

*D_NET *79 0.00126322
*CONN
*I *524:B1 I *D sky130_fd_sc_hd__a221o_1
*I *522:X O *D sky130_fd_sc_hd__or2_1
*CAP
1 *524:B1 0.000280861
2 *522:X 0.000280861
3 *524:B1 *524:B2 4.91927e-05
4 *524:B1 *557:A0 7.23602e-05
5 *524:B1 *557:S 0.000115464
6 *524:B1 *592:CLK 4.99619e-05
7 *524:B1 *617:CLK 0.00013521
8 *524:B1 *149:20 0.000126334
9 *524:B1 *149:24 7.09999e-05
10 *524:A1 *524:B1 3.64998e-06
11 *524:A2 *524:B1 7.83301e-05
12 *524:C1 *524:B1 0
13 *546:D1 *524:B1 0
*RES
1 *522:X *524:B1 13.92 
*END

*D_NET *80 0.00117462
*CONN
*I *524:B2 I *D sky130_fd_sc_hd__a221o_1
*I *523:Y O *D sky130_fd_sc_hd__nand2_1
*CAP
1 *524:B2 0.000253272
2 *523:Y 0.000253272
3 *524:B2 *520:A 8.8266e-05
4 *524:B2 *520:B 4.82919e-05
5 *524:B2 *523:B 2.10034e-05
6 *524:B2 *617:CLK 2.42236e-05
7 *524:B2 *171:10 0.000137571
8 *524:A2 *524:B2 3.78034e-06
9 *524:B1 *524:B2 4.91927e-05
10 *546:D1 *524:B2 0.000295743
*RES
1 *523:Y *524:B2 12.8138 
*END

*D_NET *81 0.0012396
*CONN
*I *545:B1 I *D sky130_fd_sc_hd__o311a_1
*I *524:X O *D sky130_fd_sc_hd__a221o_1
*CAP
1 *545:B1 0.000258772
2 *524:X 0.000258772
3 *545:B1 *515:A 6.1357e-05
4 *545:B1 *149:20 0.000293726
5 *545:B1 *171:16 0.000194694
6 *518:B1 *545:B1 0
7 *545:A2 *545:B1 0.00017228
*RES
1 *524:X *545:B1 13.845 
*END

*D_NET *82 0.00195946
*CONN
*I *530:C1 I *D sky130_fd_sc_hd__a221o_1
*I *525:X O *D sky130_fd_sc_hd__xor2_1
*CAP
1 *530:C1 0.000635023
2 *525:X 0.000635023
3 *530:C1 *525:B 2.67193e-05
4 *530:C1 *530:B1 0.000420405
5 *530:C1 *530:B2 1.34543e-05
6 *530:C1 *565:A1 0
7 *530:C1 *569:A1 0
8 *530:C1 *597:CLK 0
9 *530:C1 *600:D 0
10 *530:C1 *92:8 0
11 *530:C1 *98:42 4.77719e-05
12 *530:C1 *100:75 2.30258e-05
13 *530:C1 *148:35 0
14 *530:C1 *148:91 0
15 *530:C1 *158:12 1.87982e-05
16 *530:C1 *160:32 0
17 *60:12 *530:C1 0.000139245
*RES
1 *525:X *530:C1 18.855 
*END

*D_NET *83 0.000889911
*CONN
*I *530:A1 I *D sky130_fd_sc_hd__a221o_1
*I *526:X O *D sky130_fd_sc_hd__or2_1
*CAP
1 *530:A1 0.000334708
2 *526:X 0.000334708
3 *530:A1 *526:B 5.51926e-05
4 *530:A1 *530:A2 0.000109838
5 *530:A1 *530:B2 1.08758e-05
6 *530:A1 *545:C1 1.76834e-05
7 *530:A1 *158:12 2.69068e-05
*RES
1 *526:X *530:A1 7.91 
*END

*D_NET *84 0.000334886
*CONN
*I *530:A2 I *D sky130_fd_sc_hd__a221o_1
*I *527:Y O *D sky130_fd_sc_hd__nand2_1
*CAP
1 *530:A2 4.22644e-05
2 *527:Y 4.22644e-05
3 *530:A2 *530:B2 1.20052e-05
4 *530:A2 *158:12 0.000128514
5 *530:A1 *530:A2 0.000109838
*RES
1 *527:Y *530:A2 4.9775 
*END

*D_NET *85 0.00119034
*CONN
*I *530:B1 I *D sky130_fd_sc_hd__a221o_1
*I *528:X O *D sky130_fd_sc_hd__or2_1
*CAP
1 *530:B1 0.000179941
2 *528:X 0.000179941
3 *530:B1 *530:B2 0.000360604
4 *530:B1 *597:CLK 0
5 *530:B1 *627:A 0
6 *530:B1 *92:12 4.94457e-05
7 *530:C1 *530:B1 0.000420405
*RES
1 *528:X *530:B1 12.855 
*END

*D_NET *86 0.00166917
*CONN
*I *530:B2 I *D sky130_fd_sc_hd__a221o_1
*I *529:Y O *D sky130_fd_sc_hd__nand2_1
*CAP
1 *530:B2 0.000500469
2 *529:Y 0.000500469
3 *530:B2 *565:A0 0.000119242
4 *530:B2 *565:A1 8.28321e-05
5 *530:B2 *565:S 9.70218e-06
6 *530:B2 *158:12 5.95127e-05
7 *530:A1 *530:B2 1.08758e-05
8 *530:A2 *530:B2 1.20052e-05
9 *530:B1 *530:B2 0.000360604
10 *530:C1 *530:B2 1.34543e-05
*RES
1 *529:Y *530:B2 16.395 
*END

*D_NET *87 0.00349208
*CONN
*I *545:C1 I *D sky130_fd_sc_hd__o311a_1
*I *530:X O *D sky130_fd_sc_hd__a221o_1
*CAP
1 *545:C1 0.00125375
2 *530:X 0.00125375
3 *545:C1 *526:B 2.96334e-05
4 *545:C1 *559:A0 8.82099e-05
5 *545:C1 *559:S 2.75145e-05
6 *545:C1 *582:A1 2.91062e-05
7 *545:C1 *634:A 4.82919e-05
8 *545:C1 *148:6 0.000346905
9 *545:C1 *158:12 0.000120923
10 *545:C1 *171:10 0.000162325
11 *530:A1 *545:C1 1.76834e-05
12 *546:D1 *545:C1 0.00011398
*RES
1 *530:X *545:C1 26.925 
*END

*D_NET *88 0.000381207
*CONN
*I *536:A1 I *D sky130_fd_sc_hd__a221o_1
*I *531:X O *D sky130_fd_sc_hd__or2_1
*CAP
1 *536:A1 0.000111716
2 *531:X 0.000111716
3 *536:A1 *531:B 4.99619e-05
4 *536:A1 *536:A2 9.30787e-05
5 *536:A1 *97:68 0
6 *536:A1 *97:72 1.47347e-05
*RES
1 *531:X *536:A1 9.12 
*END

*D_NET *89 0.00032844
*CONN
*I *536:A2 I *D sky130_fd_sc_hd__a221o_1
*I *532:Y O *D sky130_fd_sc_hd__nand2_1
*CAP
1 *536:A2 4.97564e-05
2 *532:Y 4.97564e-05
3 *536:A2 *620:A 6.8725e-06
4 *536:A2 *621:A 7.23533e-05
5 *536:A2 *91:10 4.38051e-05
6 *536:A2 *156:24 1.2818e-05
7 *536:A1 *536:A2 9.30787e-05
*RES
1 *532:Y *536:A2 8.70375 
*END

*D_NET *90 0.000778013
*CONN
*I *536:C1 I *D sky130_fd_sc_hd__a221o_1
*I *533:X O *D sky130_fd_sc_hd__xor2_1
*CAP
1 *536:C1 0.000228824
2 *533:X 0.000228824
3 *536:C1 *534:A 9.50342e-06
4 *536:C1 *620:A 0.000123225
5 *536:C1 *97:68 6.44134e-05
6 *536:C1 *101:66 0
7 *536:C1 *163:25 0
8 *536:B1 *536:C1 0.000123225
*RES
1 *533:X *536:C1 11.97 
*END

*D_NET *91 0.00887503
*CONN
*I *622:A I *D sky130_fd_sc_hd__clkbuf_16
*I *623:A I *D sky130_fd_sc_hd__clkbuf_16
*I *620:A I *D sky130_fd_sc_hd__clkbuf_16
*I *621:A I *D sky130_fd_sc_hd__clkbuf_16
*I *619:X O *D sky130_fd_sc_hd__clkbuf_16
*CAP
1 *622:A 0.000276429
2 *623:A 5.92781e-05
3 *620:A 0.000822799
4 *621:A 0.000122609
5 *619:X 4.78064e-05
6 *91:36 0.000572272
7 *91:10 0.00148804
8 *91:8 0.000827004
9 *620:A *534:B 0.000162311
10 *620:A *156:24 2.33338e-05
11 *621:A *541:B 8.65961e-05
12 *621:A *542:B 5.02217e-05
13 *621:A *97:68 0
14 *621:A *97:85 4.47125e-05
15 *622:A *510:A 0.000225175
16 *622:A *510:B 0.000161529
17 *622:A *670:A 0
18 *622:A *98:77 0.000378567
19 *622:A *157:42 0.0007284
20 *623:A *103:32 0.000124895
21 *91:10 *510:A 0.000114492
22 *91:10 *540:B 0.000100536
23 *91:10 *542:B 1.71013e-05
24 *91:10 *543:B 0
25 *91:10 *556:A1 0
26 *91:10 *156:16 0.000434322
27 *91:10 *156:24 0.000112097
28 *91:36 *510:A 0.000734792
29 *91:36 *510:B 0
30 *91:36 *587:D 0.000162318
31 *91:36 *156:16 0.000228525
32 *536:A2 *620:A 6.8725e-06
33 *536:A2 *621:A 7.23533e-05
34 *536:A2 *91:10 4.38051e-05
35 *536:B1 *620:A 9.15857e-05
36 *536:B2 *620:A 1.19081e-05
37 *536:C1 *620:A 0.000123225
38 *547:A_N *620:A 0.000196889
39 *547:A_N *91:10 0
40 *60:12 *620:A 0.000222228
*RES
1 *619:X *91:8 4.05 
2 *91:8 *91:10 12.345 
3 *91:10 *621:A 6.21 
4 *91:10 *620:A 17.28 
5 *91:8 *91:36 8.52 
6 *91:36 *623:A 4.74 
7 *91:36 *622:A 13.605 
*END

*D_NET *92 0.00995492
*CONN
*I *597:CLK I *D sky130_fd_sc_hd__dfrtp_1
*I *600:CLK I *D sky130_fd_sc_hd__dfrtp_1
*I *604:CLK I *D sky130_fd_sc_hd__dfrtp_1
*I *607:CLK I *D sky130_fd_sc_hd__dfrtp_1
*I *608:CLK I *D sky130_fd_sc_hd__dfrtp_1
*I *605:CLK I *D sky130_fd_sc_hd__dfrtp_1
*I *602:CLK I *D sky130_fd_sc_hd__dfrtp_1
*I *601:CLK I *D sky130_fd_sc_hd__dfrtp_1
*I *606:CLK I *D sky130_fd_sc_hd__dfrtp_1
*I *609:CLK I *D sky130_fd_sc_hd__dfrtp_1
*I *624:A I *D sky130_fd_sc_hd__clkbuf_4
*I *620:X O *D sky130_fd_sc_hd__clkbuf_16
*CAP
1 *597:CLK 0.000125658
2 *600:CLK 7.83041e-05
3 *604:CLK 0.00021922
4 *607:CLK 0
5 *608:CLK 0
6 *605:CLK 0.000197407
7 *602:CLK 6.52936e-05
8 *601:CLK 0.000108274
9 *606:CLK 0
10 *609:CLK 0.000213637
11 *624:A 2.35498e-05
12 *620:X 0.000102531
13 *92:97 0.000341997
14 *92:59 0.000757107
15 *92:52 0.000685443
16 *92:46 0.000431114
17 *92:33 0.000581473
18 *92:31 0.000588208
19 *92:29 0.00112584
20 *92:23 0.000769818
21 *92:12 0.000372933
22 *92:8 0.000536943
23 *597:CLK *565:A0 3.7837e-05
24 *597:CLK *627:A 3.17252e-05
25 *600:CLK *529:B 3.09233e-05
26 *600:CLK *565:A1 7.65251e-05
27 *600:CLK *600:D 1.24035e-05
28 *600:CLK *100:59 7.60085e-05
29 *601:CLK *160:14 0
30 *601:CLK *160:32 0
31 *602:CLK *602:D 2.49909e-05
32 *604:CLK *679:A 4.66108e-05
33 *605:CLK *573:A0 0.000204508
34 *605:CLK *573:A1 0.000159543
35 *624:A *97:16 4.99619e-05
36 *92:8 *528:A 2.30258e-05
37 *92:8 *627:A 1.05476e-05
38 *92:8 *148:91 5.8166e-05
39 *92:12 *528:B 0.000143551
40 *92:12 *600:D 4.82863e-05
41 *92:12 *97:16 0.000148977
42 *92:12 *148:35 1.31227e-05
43 *92:23 *529:B 0.00011686
44 *92:23 *100:59 4.70343e-05
45 *92:52 *573:S 0
46 *92:59 *606:RESET_B 2.40101e-05
47 *92:59 *160:8 5.07419e-05
48 *92:97 *537:A 0
49 num_to_send_o[0] *604:CLK 0.000120186
50 num_to_send_o[0] *92:97 0.000175583
51 num_to_send_o[2] *92:31 1.88656e-05
52 *530:B1 *597:CLK 0
53 *530:B1 *92:12 4.94457e-05
54 *530:C1 *597:CLK 0
55 *530:C1 *92:8 0
56 *538:C1 *92:29 2.75229e-05
57 *538:C1 *92:31 0
58 *538:C1 *92:97 0
59 *601:D *601:CLK 6.23541e-06
60 *606:D *92:59 7.35729e-05
61 *607:D *604:CLK 2.84137e-05
62 *608:D *92:33 0
63 *609:D *605:CLK 1.17409e-05
64 *609:D *609:CLK 0.000114384
65 *609:D *92:46 2.47313e-05
66 *609:D *92:52 6.5525e-05
67 *643:A *92:12 0.000194891
68 *665:A *601:CLK 8.65037e-05
69 *665:A *602:CLK 3.68999e-05
70 *665:A *92:59 0.00016031
*RES
1 *620:X *92:8 5.49 
2 *92:8 *92:12 7.97 
3 *92:12 *624:A 2.05 
4 *92:12 *92:23 3.38 
5 *92:23 *92:29 12.73 
6 *92:29 *92:31 5.715 
7 *92:31 *92:33 3.93 
8 *92:33 *609:CLK 8.04 
9 *92:33 *92:46 3.83 
10 *92:46 *92:52 6.4 
11 *92:52 *606:CLK 1.6 
12 *92:52 *92:59 9.765 
13 *92:59 *601:CLK 7.745 
14 *92:59 *602:CLK 2.74 
15 *92:46 *605:CLK 5.965 
16 *92:31 *608:CLK 3.6 
17 *92:29 *92:97 2.655 
18 *92:97 *607:CLK 3.6 
19 *92:97 *604:CLK 7.575 
20 *92:23 *600:CLK 6 
21 *92:8 *597:CLK 5.895 
*END

*D_NET *93 0.0101334
*CONN
*I *596:CLK I *D sky130_fd_sc_hd__dfrtp_1
*I *595:CLK I *D sky130_fd_sc_hd__dfrtp_1
*I *599:CLK I *D sky130_fd_sc_hd__dfrtp_1
*I *598:CLK I *D sky130_fd_sc_hd__dfrtp_1
*I *594:CLK I *D sky130_fd_sc_hd__dfrtp_1
*I *591:CLK I *D sky130_fd_sc_hd__dfrtp_1
*I *617:CLK I *D sky130_fd_sc_hd__dfrtp_1
*I *625:A I *D sky130_fd_sc_hd__clkinv_2
*I *592:CLK I *D sky130_fd_sc_hd__dfrtp_1
*I *621:X O *D sky130_fd_sc_hd__clkbuf_16
*CAP
1 *596:CLK 2.9909e-05
2 *595:CLK 0
3 *599:CLK 0
4 *598:CLK 0.000197075
5 *594:CLK 0.000607958
6 *591:CLK 0.000166245
7 *617:CLK 0.000444998
8 *625:A 0
9 *592:CLK 0.000465511
10 *621:X 0
11 *93:85 0.000487112
12 *93:81 0.000392628
13 *93:77 0.000366243
14 *93:38 0.000748928
15 *93:34 0.000845785
16 *93:25 0.000185398
17 *93:10 0.000912999
18 *93:4 0.000595975
19 *591:CLK *557:A0 0.000179647
20 *591:CLK *657:A 0.000303711
21 *592:CLK *519:A 7.3463e-05
22 *592:CLK *101:118 3.64998e-06
23 *592:CLK *156:28 2.20732e-05
24 *594:CLK *521:A 2.16917e-05
25 *594:CLK *521:B 9.61248e-05
26 *594:CLK *594:RESET_B 6.42726e-05
27 *594:CLK *100:85 2.17931e-05
28 *596:CLK *560:A0 3.45679e-05
29 *598:CLK *601:RESET_B 0
30 *598:CLK *664:A 0
31 *598:CLK *101:31 8.40269e-05
32 *598:CLK *162:12 6.74079e-05
33 *598:CLK *163:8 8.69098e-05
34 *617:CLK *149:20 8.26527e-05
35 *617:CLK *171:10 0.000296081
36 *93:10 *541:B 8.03844e-05
37 *93:10 *543:B 0
38 *93:10 *97:85 0
39 *93:10 *97:98 0
40 *93:38 *591:RESET_B 0.000341194
41 *93:38 *657:A 2.05056e-05
42 *93:38 *171:6 8.75256e-05
43 *93:77 *543:B 0
44 *93:77 *595:RESET_B 0
45 *93:77 *101:10 0
46 *93:77 *149:39 0
47 *93:77 *149:47 0
48 *93:81 *595:RESET_B 0
49 *93:81 *166:10 0
50 *93:85 *599:RESET_B 2.65337e-05
51 *93:85 *101:23 0.000235465
52 *93:85 *101:31 0.000117868
53 *93:85 *166:10 0.000191243
54 *524:A2 *594:CLK 0
55 *524:A2 *93:34 0
56 *524:B1 *592:CLK 4.99619e-05
57 *524:B1 *617:CLK 0.00013521
58 *524:B2 *617:CLK 2.42236e-05
59 *544:A1 *93:10 0
60 *544:A2 *592:CLK 1.12578e-05
61 *544:B1 *592:CLK 0.000237249
62 *544:C1 *93:10 4.05358e-05
63 *544:C1 *93:25 3.86529e-05
64 *546:C1 *594:CLK 7.07801e-05
65 *546:C1 *93:10 4.43871e-06
66 *546:C1 *93:25 6.92175e-05
67 *546:C1 *93:34 9.68865e-05
68 *546:D1 *592:CLK 0.000161529
69 *546:D1 *594:CLK 0
70 *546:D1 *93:25 0
71 *546:D1 *93:34 0
72 *594:D *594:CLK 7.35813e-05
73 *595:D *596:CLK 3.00381e-05
74 *595:D *93:81 4.7043e-05
75 *596:D *93:77 0
76 *598:D *598:CLK 5.72004e-05
*RES
1 *621:X *93:4 1.6 
2 *93:4 *93:10 7.25 
3 *93:10 *592:CLK 11.67 
4 *93:10 *93:25 1.635 
5 *93:25 *625:A 3.6 
6 *93:25 *93:34 2.145 
7 *93:34 *93:38 5.555 
8 *93:38 *617:CLK 14.12 
9 *93:38 *591:CLK 6.535 
10 *93:34 *594:CLK 13.74 
11 *93:4 *93:77 5.675 
12 *93:77 *93:81 3.89 
13 *93:81 *93:85 7.71 
14 *93:85 *598:CLK 10.01 
15 *93:85 *599:CLK 1.6 
16 *93:81 *595:CLK 1.6 
17 *93:77 *596:CLK 4.395 
*END

*D_NET *94 0.00885819
*CONN
*I *593:CLK I *D sky130_fd_sc_hd__dfrtp_1
*I *603:CLK I *D sky130_fd_sc_hd__dfrtp_1
*I *613:CLK I *D sky130_fd_sc_hd__dfrtp_1
*I *612:CLK I *D sky130_fd_sc_hd__dfrtp_1
*I *586:CLK I *D sky130_fd_sc_hd__dfrtp_2
*I *585:CLK I *D sky130_fd_sc_hd__dfrtp_1
*I *590:CLK I *D sky130_fd_sc_hd__dfrtp_1
*I *615:CLK I *D sky130_fd_sc_hd__dfrtp_1
*I *584:CLK I *D sky130_fd_sc_hd__dfrtp_1
*I *614:CLK I *D sky130_fd_sc_hd__dfrtp_1
*I *611:CLK I *D sky130_fd_sc_hd__dfrtp_1
*I *622:X O *D sky130_fd_sc_hd__clkbuf_16
*CAP
1 *593:CLK 0
2 *603:CLK 0.000326153
3 *613:CLK 0.000153424
4 *612:CLK 0.00025867
5 *586:CLK 0
6 *585:CLK 3.37454e-05
7 *590:CLK 8.8372e-05
8 *615:CLK 0.000209863
9 *584:CLK 0
10 *614:CLK 0.000337275
11 *611:CLK 0.000177637
12 *622:X 0.000212453
13 *94:105 0.000658302
14 *94:103 0.00071841
15 *94:92 0.000283006
16 *94:51 0.000502397
17 *94:40 0.000405784
18 *94:31 0.000626027
19 *94:27 0.000412541
20 *94:16 0.00066101
21 *94:14 0.000541116
22 *603:CLK *659:A 8.52845e-05
23 *611:CLK *118:8 0.000247561
24 *612:CLK *152:10 1.83847e-05
25 *94:14 *666:A 1.19928e-05
26 *94:14 *98:77 1.33269e-05
27 *94:14 *118:18 6.6564e-05
28 *94:14 *118:24 8.90199e-05
29 *94:16 *611:RESET_B 0.000116497
30 *94:16 *118:8 9.66106e-05
31 *94:16 *118:18 0.000113809
32 *94:27 *551:A1 0
33 *94:27 *577:A1 1.32017e-05
34 *94:27 *98:10 7.5416e-05
35 *94:27 *98:16 0.000132096
36 *94:27 *98:77 0.000114492
37 *94:27 *103:42 0
38 *94:27 *118:18 0
39 *94:27 *152:18 0.000185405
40 *94:27 *154:12 0
41 *94:31 *98:16 0.000187766
42 *94:31 *154:12 0
43 *94:40 *614:RESET_B 0.000233797
44 *94:51 *614:RESET_B 7.4746e-05
45 *94:92 *103:56 0
46 *94:103 *659:A 0
47 *94:103 *103:56 0
48 *94:105 *612:RESET_B 0.000156091
49 *94:105 *106:14 8.03844e-05
50 *94:105 *152:10 6.01747e-05
51 *584:D *94:51 5.18694e-05
52 *585:D *94:27 0
53 *611:D *611:CLK 2.75145e-05
54 *613:D *613:CLK 0
*RES
1 *622:X *94:14 9.17 
2 *94:14 *94:16 4.245 
3 *94:16 *611:CLK 5.5 
4 *94:16 *94:27 8.225 
5 *94:27 *94:31 4.145 
6 *94:31 *614:CLK 6.535 
7 *94:31 *94:40 4.245 
8 *94:40 *584:CLK 1.6 
9 *94:40 *94:51 5.63 
10 *94:51 *615:CLK 7.305 
11 *94:51 *590:CLK 4.74 
12 *94:27 *585:CLK 4.05 
13 *94:14 *94:92 4.145 
14 *94:92 *586:CLK 3.6 
15 *94:92 *94:103 4.145 
16 *94:103 *94:105 4.935 
17 *94:105 *612:CLK 5.5 
18 *94:105 *613:CLK 7.94 
19 *94:103 *603:CLK 6.535 
20 *94:14 *593:CLK 1.6 
*END

*D_NET *95 0.00698934
*CONN
*I *588:CLK I *D sky130_fd_sc_hd__dfrtp_1
*I *616:CLK I *D sky130_fd_sc_hd__dfrtp_1
*I *589:CLK I *D sky130_fd_sc_hd__dfrtp_1
*I *626:A I *D sky130_fd_sc_hd__clkinvlp_4
*I *587:CLK I *D sky130_fd_sc_hd__dfrtp_1
*I *618:CLK I *D sky130_fd_sc_hd__dfrtp_1
*I *610:CLK I *D sky130_fd_sc_hd__dfrtp_1
*I *623:X O *D sky130_fd_sc_hd__clkbuf_16
*CAP
1 *588:CLK 0.000153329
2 *616:CLK 0.000564819
3 *589:CLK 0.000209638
4 *626:A 0
5 *587:CLK 0.000216827
6 *618:CLK 0.000318314
7 *610:CLK 0
8 *623:X 0
9 *95:51 0.000332163
10 *95:40 0.000427994
11 *95:36 0.000711178
12 *95:30 0.000246596
13 *95:10 0.000726972
14 *95:4 0.000444209
15 *587:CLK *656:A 4.66108e-05
16 *588:CLK *103:30 0.000198203
17 *589:CLK *553:S 0.000313852
18 *589:CLK *554:S 0.0001855
19 *589:CLK *582:A0 0.000168395
20 *589:CLK *588:RESET_B 0.000181005
21 *589:CLK *149:117 0.000223156
22 *616:CLK *553:S 1.0063e-05
23 *616:CLK *616:RESET_B 4.11729e-05
24 *616:CLK *174:19 6.76605e-05
25 *618:CLK *610:D 0
26 *618:CLK *618:RESET_B 0
27 *95:10 *510:A 5.12942e-05
28 *95:10 *549:A_N 0
29 *95:10 *618:RESET_B 0
30 *95:10 *98:77 3.47837e-05
31 *95:10 *103:30 6.07575e-06
32 *95:10 *103:32 7.89269e-05
33 *95:36 *547:D 0.000137578
34 *95:36 *616:RESET_B 0.000106655
35 *95:36 *618:RESET_B 3.09233e-05
36 *95:36 *103:30 2.49909e-05
37 *95:40 *507:B 0.000137571
38 *95:40 *547:D 0.000245893
39 *95:40 *616:RESET_B 3.09233e-05
40 *95:40 *98:77 3.35338e-05
41 *95:51 *553:S 0.000159747
42 *618:D *618:CLK 7.22354e-05
43 *641:A *589:CLK 4.47209e-05
44 *641:A *95:51 5.83121e-06
*RES
1 *623:X *95:4 1.6 
2 *95:4 *95:10 8.195 
3 *95:10 *610:CLK 3.6 
4 *95:10 *618:CLK 8.7 
5 *95:4 *95:30 0.615 
6 *95:30 *95:36 4.085 
7 *95:36 *95:40 4.91 
8 *95:40 *587:CLK 4.825 
9 *95:40 *95:51 2.175 
10 *95:51 *626:A 1.6 
11 *95:51 *589:CLK 9.07 
12 *95:36 *616:CLK 10.185 
13 *95:30 *588:CLK 4.81 
*END

*D_NET *96 0.00151484
*CONN
*I *577:A2 I *D sky130_fd_sc_hd__o211a_1
*I *574:A2 I *D sky130_fd_sc_hd__o21ai_1
*I *575:C I *D sky130_fd_sc_hd__or3_1
*I *676:X O *D sky130_fd_sc_hd__buf_1
*CAP
1 *577:A2 0.000257453
2 *574:A2 0
3 *575:C 0.0001688
4 *676:X 0
5 *96:10 0.000227699
6 *96:4 0.000316352
7 *575:C *574:A1 0.000104393
8 *575:C *574:B1 0.000163199
9 *575:C *575:B 1.16578e-05
10 *577:A2 *639:A 3.26889e-05
11 *577:A2 *151:20 8.88799e-05
12 *56:8 *96:10 9.71067e-05
13 *58:12 *577:A2 4.66108e-05
*RES
1 *676:X *96:4 1.6 
2 *96:4 *96:10 5.125 
3 *96:10 *575:C 5.095 
4 *96:10 *574:A2 1.6 
5 *96:4 *577:A2 5.875 
*END

*D_NET *97 0.0119187
*CONN
*I *531:A I *D sky130_fd_sc_hd__or2_1
*I *523:A I *D sky130_fd_sc_hd__nand2_1
*I *514:A I *D sky130_fd_sc_hd__xor2_1
*I *522:A I *D sky130_fd_sc_hd__or2_1
*I *543:A I *D sky130_fd_sc_hd__xor2_1
*I *532:A I *D sky130_fd_sc_hd__nand2_1
*I *528:A I *D sky130_fd_sc_hd__or2_1
*I *529:A I *D sky130_fd_sc_hd__nand2_1
*I *504:A I *D sky130_fd_sc_hd__inv_2
*I *573:A1 I *D sky130_fd_sc_hd__mux2_1
*I *627:X O *D sky130_fd_sc_hd__buf_2
*CAP
1 *531:A 0
2 *523:A 2.53317e-05
3 *514:A 0.000415302
4 *522:A 4.91649e-05
5 *543:A 0
6 *532:A 1.15106e-05
7 *528:A 5.76025e-05
8 *529:A 5.6785e-05
9 *504:A 0
10 *573:A1 0.000399771
11 *627:X 0
12 *97:104 0.000773326
13 *97:98 0.000492385
14 *97:85 0.000424011
15 *97:72 0.000392147
16 *97:68 0.000682134
17 *97:16 0.000590821
18 *97:12 0.000553745
19 *97:6 0.000466237
20 *97:4 0.000670038
21 *514:A *514:B 4.82863e-05
22 *514:A *523:B 1.52184e-05
23 *514:A *149:20 0.000360611
24 *514:A *149:24 6.21553e-05
25 *522:A *523:B 7.07801e-05
26 *522:A *149:24 0.000104619
27 *522:A *149:39 1.2904e-05
28 *522:A *169:18 5.53249e-06
29 *523:A *520:A 4.99619e-05
30 *523:A *523:B 5.58436e-05
31 *529:A *529:B 1.23331e-05
32 *529:A *600:D 0.000116165
33 *529:A *148:35 2.26364e-05
34 *532:A *531:B 5.4155e-06
35 *573:A1 *572:A1 0.000204456
36 *573:A1 *573:S 5.88944e-05
37 *573:A1 *98:16 0.000378961
38 *573:A1 *100:59 0
39 *573:A1 *147:14 2.46007e-05
40 *573:A1 *147:25 0.000468933
41 *573:A1 *147:40 6.75724e-05
42 *97:6 *148:35 0.000159059
43 *97:12 *528:B 4.17422e-05
44 *97:12 *529:B 1.0183e-05
45 *97:12 *148:35 0.000330451
46 *97:12 *160:32 2.24336e-05
47 *97:16 *528:B 0.000123225
48 *97:68 *534:A 0
49 *97:68 *542:B 0
50 *97:68 *148:21 0.000168157
51 *97:68 *148:35 4.82863e-05
52 *97:68 *163:25 4.18603e-06
53 *97:72 *531:B 7.75783e-05
54 *97:85 *541:B 0.000273872
55 *97:85 *543:B 0.000180682
56 *97:98 *520:A 8.60126e-05
57 *97:98 *543:B 2.30797e-05
58 *97:104 *520:A 9.27255e-06
59 *97:104 *523:B 0.000392292
60 *518:B1 *514:A 8.65961e-05
61 *524:A1 *514:A 0.000131306
62 *536:A1 *97:68 0
63 *536:A1 *97:72 1.47347e-05
64 *536:B2 *97:68 0.000372453
65 *536:C1 *97:68 6.44134e-05
66 *538:B2 *573:A1 3.1835e-05
67 *539:B2 *573:A1 3.23391e-05
68 *544:C1 *97:98 0.00023301
69 *546:C1 *97:98 4.75576e-05
70 *547:A_N *97:98 4.11281e-05
71 *605:CLK *573:A1 0.000159543
72 *621:A *97:68 0
73 *621:A *97:85 4.47125e-05
74 *624:A *97:16 4.99619e-05
75 *643:A *529:A 0.000110492
76 *643:A *97:12 8.30853e-06
77 *658:A *514:A 0.00016163
78 *92:8 *528:A 2.30258e-05
79 *92:12 *97:16 0.000148977
80 *93:10 *97:85 0
81 *93:10 *97:98 0
*RES
1 *627:X *97:4 1.6 
2 *97:4 *97:6 1.485 
3 *97:6 *97:12 6.425 
4 *97:12 *97:16 5.9 
5 *97:16 *573:A1 17.21 
6 *97:16 *504:A 1.6 
7 *97:12 *529:A 5.49 
8 *97:6 *528:A 6.47 
9 *97:4 *97:68 12.7 
10 *97:68 *97:72 2.19 
11 *97:72 *532:A 1.96 
12 *97:72 *97:85 7.7 
13 *97:85 *543:A 3.6 
14 *97:85 *97:98 6.41 
15 *97:98 *97:104 6.26 
16 *97:104 *522:A 5.235 
17 *97:104 *514:A 13.14 
18 *97:98 *523:A 2.665 
19 *97:68 *531:A 1.6 
*END

*D_NET *98 0.0161482
*CONN
*I *508:A I *D sky130_fd_sc_hd__or2_1
*I *509:A I *D sky130_fd_sc_hd__nand2_1
*I *516:A I *D sky130_fd_sc_hd__nand2_1
*I *517:A I *D sky130_fd_sc_hd__or2_1
*I *507:A I *D sky130_fd_sc_hd__xor2_1
*I *551:A0 I *D sky130_fd_sc_hd__mux2_1
*I *533:A I *D sky130_fd_sc_hd__xor2_1
*I *503:A I *D sky130_fd_sc_hd__inv_2
*I *525:A I *D sky130_fd_sc_hd__xor2_1
*I *572:A1 I *D sky130_fd_sc_hd__mux2_1
*I *628:X O *D sky130_fd_sc_hd__clkbuf_4
*CAP
1 *508:A 0
2 *509:A 7.22961e-05
3 *516:A 0
4 *517:A 0.000134041
5 *507:A 3.36214e-05
6 *551:A0 0.000114484
7 *533:A 0.000240026
8 *503:A 0
9 *525:A 0
10 *572:A1 8.19614e-05
11 *628:X 1.76024e-05
12 *98:120 0.000401598
13 *98:92 0.000212565
14 *98:88 0.000817943
15 *98:77 0.00214219
16 *98:42 0.000385023
17 *98:35 0.000456081
18 *98:16 0.00137853
19 *98:10 0.00114328
20 *98:8 0.00175937
21 *507:A *515:B 5.4155e-06
22 *507:A *556:S 0
23 *509:A *509:B 4.82863e-05
24 *509:A *554:A0 2.30292e-05
25 *517:A *515:A 0
26 *517:A *149:10 0.000112123
27 *517:A *149:20 4.5178e-05
28 *551:A0 *628:A 0.000237249
29 *551:A0 *154:12 6.07575e-06
30 *572:A1 *572:A0 4.66108e-05
31 *572:A1 *573:S 4.9968e-05
32 *572:A1 *148:37 0.000164686
33 *98:8 *154:12 4.82863e-05
34 *98:16 *548:A 0.000144982
35 *98:16 *668:A 0
36 *98:16 *100:59 0
37 *98:16 *129:36 0
38 *98:16 *148:37 0.000557917
39 *98:16 *148:65 0.000321975
40 *98:35 *608:RESET_B 0.000133369
41 *98:35 *140:47 0.00028233
42 *98:42 *525:B 4.30188e-05
43 *98:77 *507:B 8.53177e-05
44 *98:77 *510:A 2.16917e-05
45 *98:77 *510:B 0.000309612
46 *98:77 *515:B 3.23663e-05
47 *98:77 *547:D 0
48 *98:77 *551:A1 8.40269e-05
49 *98:77 *556:A1 1.22762e-05
50 *98:77 *577:A1 5.20968e-05
51 *98:77 *616:RESET_B 7.89689e-05
52 *98:77 *618:RESET_B 8.34426e-05
53 *98:77 *639:A 0.000122331
54 *98:77 *656:A 0.000164686
55 *98:77 *133:10 0
56 *98:77 *151:12 9.4366e-05
57 *98:77 *151:20 0
58 *98:77 *157:42 2.96334e-05
59 *98:77 *170:10 2.75229e-05
60 *98:88 *515:B 0.000210574
61 *98:88 *555:S 0.000197269
62 *98:92 *506:A 0
63 *98:92 *516:B 4.43871e-06
64 *98:92 *149:10 2.24423e-05
65 *98:92 *149:113 4.40812e-05
66 *98:120 *506:A 0
67 *98:120 *554:A0 0.000201508
68 *98:120 *554:S 0.000141606
69 *98:120 *588:RESET_B 0
70 *98:120 *640:A 0.000136877
71 *98:120 *149:113 5.6369e-05
72 *98:120 *157:44 0
73 *513:A1 *98:120 1.4389e-05
74 *513:A2 *509:A 1.56428e-05
75 *513:A2 *98:120 0
76 *518:B1 *517:A 0.000160635
77 *518:C1 *517:A 4.18603e-06
78 *518:C1 *98:88 0.000122337
79 *530:C1 *98:42 4.77719e-05
80 *545:A2 *98:92 9.3062e-06
81 *545:A3 *98:88 0.000160635
82 *546:A2 *517:A 6.0011e-05
83 *546:A2 *98:92 3.86607e-05
84 *573:A1 *572:A1 0.000204456
85 *573:A1 *98:16 0.000378961
86 *585:D *551:A0 8.65905e-05
87 *622:A *98:77 0.000378567
88 *94:14 *98:77 1.33269e-05
89 *94:27 *98:10 7.5416e-05
90 *94:27 *98:16 0.000132096
91 *94:27 *98:77 0.000114492
92 *94:31 *98:16 0.000187766
93 *95:10 *98:77 3.47837e-05
94 *95:40 *98:77 3.35338e-05
*RES
1 *628:X *98:8 4.05 
2 *98:8 *98:10 0.87 
3 *98:10 *98:16 22.845 
4 *98:16 *572:A1 6.45 
5 *98:16 *98:35 8.09 
6 *98:35 *525:A 1.6 
7 *98:35 *98:42 2.52 
8 *98:42 *503:A 1.6 
9 *98:42 *533:A 5.155 
10 *98:10 *551:A0 6.12 
11 *98:8 *98:77 36.9 
12 *98:77 *507:A 2.215 
13 *98:77 *98:88 10.04 
14 *98:88 *98:92 3.89 
15 *98:92 *517:A 8.975 
16 *98:92 *516:A 1.6 
17 *98:88 *98:120 9.335 
18 *98:120 *509:A 3.1 
19 *98:120 *508:A 1.6 
*END

*D_NET *99 0.0152243
*CONN
*I *550:A0 I *D sky130_fd_sc_hd__mux2_1
*I *571:A1 I *D sky130_fd_sc_hd__mux2_1
*I *537:B I *D sky130_fd_sc_hd__xor2_1
*I *515:A I *D sky130_fd_sc_hd__xor2_1
*I *521:A I *D sky130_fd_sc_hd__xor2_1
*I *505:A I *D sky130_fd_sc_hd__xor2_1
*I *510:A I *D sky130_fd_sc_hd__xor2_1
*I *534:A I *D sky130_fd_sc_hd__nand2_1
*I *526:A I *D sky130_fd_sc_hd__or2_1
*I *527:A I *D sky130_fd_sc_hd__nand2_1
*I *629:X O *D sky130_fd_sc_hd__clkbuf_4
*CAP
1 *550:A0 0.000286853
2 *571:A1 0
3 *537:B 0.000337957
4 *515:A 0.0005861
5 *521:A 0.000171172
6 *505:A 0
7 *510:A 0.000472202
8 *534:A 0.000554105
9 *526:A 5.53706e-05
10 *527:A 9.0313e-05
11 *629:X 0
12 *99:117 0.000756297
13 *99:75 0.00101364
14 *99:55 0.000504785
15 *99:53 0.000587383
16 *99:40 0.00104248
17 *99:27 0.000430906
18 *99:14 0.000459555
19 *99:8 0.00110968
20 *99:6 0.000794545
21 *510:A *510:B 0.000123225
22 *510:A *556:A1 0.0001369
23 *510:A *133:10 4.05358e-05
24 *510:A *157:42 0.000160641
25 *515:A *555:S 1.73877e-05
26 *515:A *582:A1 0.000214535
27 *515:A *149:20 9.42334e-05
28 *515:A *149:113 0
29 *515:A *150:43 8.23457e-05
30 *515:A *171:10 1.0183e-05
31 *515:A *171:16 0.000123225
32 *521:A *521:B 4.25952e-05
33 *521:A *652:A 6.47594e-05
34 *526:A *155:14 0.000139231
35 *527:A *565:S 0.000130664
36 *534:A *559:A1 0
37 *534:A *562:A0 0
38 *534:A *562:A1 6.23288e-05
39 *534:A *101:66 0
40 *534:A *119:10 4.19967e-05
41 *534:A *148:19 0
42 *534:A *155:14 0
43 *534:A *156:16 0
44 *537:B *537:A 0.000233918
45 *537:B *679:A 0.000116853
46 *537:B *148:37 0
47 *537:B *148:65 0
48 *550:A0 *550:A1 0.000160213
49 *550:A0 *628:A 2.30184e-05
50 *550:A0 *103:42 6.55362e-05
51 *550:A0 *156:16 3.24217e-05
52 *99:8 *156:16 9.76131e-06
53 *99:14 *571:S 4.38036e-05
54 *99:14 *654:A 0
55 *99:27 *571:S 1.1392e-05
56 *99:27 *150:45 5.28702e-05
57 *99:40 *150:45 9.13777e-05
58 *99:53 *505:B 4.16353e-05
59 *99:53 *150:43 1.17409e-05
60 *99:53 *150:45 5.03301e-05
61 *99:53 *173:14 5.34747e-05
62 *99:55 *505:B 3.26889e-05
63 *99:55 *150:43 2.34602e-05
64 *99:75 *150:43 0.000312267
65 *99:117 *568:A0 0.00015479
66 *99:117 *568:S 7.10578e-05
67 *99:117 *571:S 0.000641951
68 *517:A *515:A 0
69 *518:C1 *515:A 0.000138544
70 *524:C1 *521:A 0
71 *536:C1 *534:A 9.50342e-06
72 *538:C1 *537:B 5.53249e-06
73 *545:A1 *515:A 3.23663e-05
74 *545:A2 *515:A 2.50602e-05
75 *545:B1 *515:A 6.1357e-05
76 *546:C1 *521:A 0.00024756
77 *547:A_N *521:A 0
78 *547:B *515:A 2.16917e-05
79 *594:CLK *521:A 2.16917e-05
80 *594:D *534:A 9.30787e-05
81 *607:D *537:B 7.18817e-05
82 *622:A *510:A 0.000225175
83 *655:A *99:117 0.00037595
84 *91:10 *510:A 0.000114492
85 *91:36 *510:A 0.000734792
86 *95:10 *510:A 5.12942e-05
87 *97:68 *534:A 0
88 *98:77 *510:A 2.16917e-05
*RES
1 *629:X *99:6 3.6 
2 *99:6 *99:8 7.755 
3 *99:8 *99:14 4.355 
4 *99:14 *527:A 7.235 
5 *99:14 *99:27 2.175 
6 *99:27 *526:A 7.235 
7 *99:27 *99:40 2.52 
8 *99:40 *534:A 15.395 
9 *99:40 *99:53 3.9 
10 *99:53 *99:55 0.87 
11 *99:55 *510:A 19.43 
12 *99:55 *505:A 1.6 
13 *99:53 *99:75 3.555 
14 *99:75 *521:A 9.575 
15 *99:75 *515:A 15.485 
16 *99:8 *99:117 13.4 
17 *99:117 *537:B 12.71 
18 *99:117 *571:A1 1.6 
19 *99:6 *550:A0 8.01 
*END

*D_NET *100 0.00928741
*CONN
*I *602:RESET_B I *D sky130_fd_sc_hd__dfrtp_1
*I *601:RESET_B I *D sky130_fd_sc_hd__dfrtp_1
*I *597:RESET_B I *D sky130_fd_sc_hd__dfrtp_1
*I *594:RESET_B I *D sky130_fd_sc_hd__dfrtp_1
*I *600:RESET_B I *D sky130_fd_sc_hd__dfrtp_1
*I *604:RESET_B I *D sky130_fd_sc_hd__dfrtp_1
*I *608:RESET_B I *D sky130_fd_sc_hd__dfrtp_1
*I *606:RESET_B I *D sky130_fd_sc_hd__dfrtp_1
*I *609:RESET_B I *D sky130_fd_sc_hd__dfrtp_1
*I *605:RESET_B I *D sky130_fd_sc_hd__dfrtp_1
*I *630:X O *D sky130_fd_sc_hd__clkbuf_4
*CAP
1 *602:RESET_B 0
2 *601:RESET_B 9.11148e-05
3 *597:RESET_B 0.000138583
4 *594:RESET_B 8.67673e-05
5 *600:RESET_B 3.22777e-05
6 *604:RESET_B 2.48235e-05
7 *608:RESET_B 0.000123715
8 *606:RESET_B 2.48235e-05
9 *609:RESET_B 0.000171451
10 *605:RESET_B 0.000596915
11 *630:X 9.66836e-05
12 *100:109 0.000182802
13 *100:85 0.00071281
14 *100:75 0.00110996
15 *100:59 0.00112946
16 *100:47 0.000846157
17 *100:27 0.000356016
18 *100:25 0.000425217
19 *100:6 0.000727847
20 *597:RESET_B *559:A1 0.000227543
21 *597:RESET_B *562:A0 5.23362e-05
22 *597:RESET_B *591:RESET_B 9.70252e-06
23 *597:RESET_B *124:8 2.49909e-05
24 *597:RESET_B *148:19 0.000268987
25 *600:RESET_B *607:RESET_B 1.15423e-05
26 *601:RESET_B *567:S 2.69612e-06
27 *601:RESET_B *148:97 8.29187e-05
28 *601:RESET_B *162:12 0
29 *604:RESET_B *604:D 2.40101e-05
30 *605:RESET_B *566:A0 6.11797e-05
31 *605:RESET_B *160:32 2.03578e-05
32 *609:RESET_B *570:A1 7.60965e-05
33 *609:RESET_B *147:14 2.75229e-05
34 *609:RESET_B *160:14 0
35 *609:RESET_B *160:32 0
36 *100:6 *566:A0 6.20088e-05
37 *100:6 *630:A 3.00381e-05
38 *100:27 *147:14 0
39 *100:27 *160:32 0
40 *100:47 *572:A0 7.89767e-05
41 *100:47 *140:8 2.75707e-05
42 *100:47 *147:25 0
43 *100:47 *160:32 0
44 *100:59 *529:B 0
45 *100:59 *539:A1 2.03578e-05
46 *100:59 *565:A1 0
47 *100:59 *129:36 3.68682e-05
48 *100:59 *140:8 3.18137e-05
49 *100:59 *147:40 0
50 *100:59 *160:32 0
51 *100:75 *565:A1 0
52 *100:75 *604:D 0.000161167
53 *100:75 *607:RESET_B 3.51117e-05
54 *100:75 *158:12 4.35931e-05
55 *100:85 *607:RESET_B 7.92464e-06
56 *100:85 *642:A 5.0751e-05
57 *100:85 *161:6 5.85534e-05
58 *100:109 *148:97 0.000100308
59 *100:109 *162:12 0
60 *530:C1 *100:75 2.30258e-05
61 *539:B2 *100:59 0
62 *573:A1 *100:59 0
63 *594:CLK *594:RESET_B 6.42726e-05
64 *594:CLK *100:85 2.17931e-05
65 *594:D *100:85 0.000160635
66 *598:CLK *601:RESET_B 0
67 *600:CLK *100:59 7.60085e-05
68 *601:D *605:RESET_B 3.15734e-05
69 *605:D *100:27 4.18603e-06
70 *605:D *100:47 3.26735e-05
71 *606:D *609:RESET_B 0.000156482
72 *92:23 *100:59 4.70343e-05
73 *92:59 *606:RESET_B 2.40101e-05
74 *98:16 *100:59 0
75 *98:35 *608:RESET_B 0.000133369
*RES
1 *630:X *100:6 3.43 
2 *100:6 *605:RESET_B 12.43 
3 *605:RESET_B *100:25 2.7425 
4 *100:25 *100:27 2.91 
5 *100:27 *609:RESET_B 5.5025 
6 *100:27 *606:RESET_B 2.3975 
7 *100:25 *100:47 4.185 
8 *100:47 *608:RESET_B 4.1225 
9 *100:47 *100:59 11.54 
10 *100:59 *604:RESET_B 0.3975 
11 *100:59 *100:75 12.235 
12 *100:75 *600:RESET_B 0.7575 
13 *100:75 *100:85 5.97 
14 *100:85 *594:RESET_B 1.4475 
15 *100:85 *597:RESET_B 7.9075 
16 *100:6 *100:109 4.145 
17 *100:109 *601:RESET_B 4.19 
18 *100:109 *602:RESET_B 2 
*END

*D_NET *101 0.014804
*CONN
*I *592:RESET_B I *D sky130_fd_sc_hd__dfrtp_1
*I *617:RESET_B I *D sky130_fd_sc_hd__dfrtp_1
*I *596:RESET_B I *D sky130_fd_sc_hd__dfrtp_1
*I *599:RESET_B I *D sky130_fd_sc_hd__dfrtp_1
*I *607:RESET_B I *D sky130_fd_sc_hd__dfrtp_1
*I *591:RESET_B I *D sky130_fd_sc_hd__dfrtp_1
*I *630:A I *D sky130_fd_sc_hd__clkbuf_4
*I *598:RESET_B I *D sky130_fd_sc_hd__dfrtp_1
*I *595:RESET_B I *D sky130_fd_sc_hd__dfrtp_1
*I *631:X O *D sky130_fd_sc_hd__clkbuf_4
*CAP
1 *592:RESET_B 5.1271e-05
2 *617:RESET_B 0.000609417
3 *596:RESET_B 3.09363e-05
4 *599:RESET_B 1.4025e-05
5 *607:RESET_B 0.00109199
6 *591:RESET_B 0.00105486
7 *630:A 4.29761e-05
8 *598:RESET_B 0.000157705
9 *595:RESET_B 0.000728082
10 *631:X 0
11 *101:118 0.000933141
12 *101:66 0.00259415
13 *101:53 0.000851466
14 *101:31 0.000742589
15 *101:23 0.000785599
16 *101:10 0.000648369
17 *101:4 0.000709688
18 *591:RESET_B *565:A0 4.80285e-05
19 *591:RESET_B *647:A 1.83847e-05
20 *591:RESET_B *124:8 6.58423e-05
21 *591:RESET_B *164:8 6.98204e-05
22 *596:RESET_B *560:A0 8.07672e-05
23 *598:RESET_B *664:A 7.06865e-05
24 *598:RESET_B *163:21 2.07184e-05
25 *607:RESET_B *642:A 3.57349e-05
26 *607:RESET_B *119:10 0.000193168
27 *607:RESET_B *129:8 2.17886e-05
28 *607:RESET_B *161:6 0.000158066
29 *607:RESET_B *161:10 8.35683e-05
30 *617:RESET_B *558:A0 0
31 *617:RESET_B *583:A0 0
32 *617:RESET_B *591:D 0
33 *617:RESET_B *168:25 7.1932e-06
34 *630:A *566:A0 4.82863e-05
35 *630:A *148:93 0
36 *630:A *162:12 1.7396e-05
37 *101:10 *560:A0 0
38 *101:10 *149:39 6.55406e-05
39 *101:10 *169:18 4.49498e-05
40 *101:31 *163:8 4.66108e-05
41 *101:53 *563:A1 0.000199833
42 *101:53 *566:A0 0.000197269
43 *101:53 *138:12 8.53113e-06
44 *101:53 *162:12 0
45 *101:53 *163:21 0.000242618
46 *101:53 *163:25 1.17309e-05
47 *101:66 *533:B 0.000187766
48 *101:66 *534:B 0.000224494
49 *101:66 *562:A1 8.97486e-05
50 *101:66 *119:10 2.42236e-05
51 *101:66 *148:91 0
52 *101:66 *148:93 0
53 *101:66 *161:10 0.00020779
54 *101:66 *162:12 4.49498e-05
55 *101:118 *519:A 1.71013e-05
56 *101:118 *168:25 8.56227e-05
57 *101:118 *169:18 0
58 *518:B1 *617:RESET_B 0
59 *524:A1 *617:RESET_B 0
60 *534:A *101:66 0
61 *536:C1 *101:66 0
62 *592:CLK *101:118 3.64998e-06
63 *592:D *617:RESET_B 4.70256e-05
64 *595:D *595:RESET_B 0
65 *596:D *595:RESET_B 4.18603e-06
66 *596:D *101:10 2.97204e-05
67 *597:RESET_B *591:RESET_B 9.70252e-06
68 *598:CLK *101:31 8.40269e-05
69 *598:D *598:RESET_B 5.13155e-05
70 *598:D *101:53 8.42161e-05
71 *600:RESET_B *607:RESET_B 1.15423e-05
72 *93:38 *591:RESET_B 0.000341194
73 *93:77 *595:RESET_B 0
74 *93:77 *101:10 0
75 *93:81 *595:RESET_B 0
76 *93:85 *599:RESET_B 2.65337e-05
77 *93:85 *101:23 0.000235465
78 *93:85 *101:31 0.000117868
79 *100:6 *630:A 3.00381e-05
80 *100:75 *607:RESET_B 3.51117e-05
81 *100:85 *607:RESET_B 7.92464e-06
*RES
1 *631:X *101:4 1.6 
2 *101:4 *101:10 8.03 
3 *101:10 *595:RESET_B 4.91 
4 *595:RESET_B *101:23 8.1075 
5 *101:23 *101:31 5.675 
6 *101:31 *598:RESET_B 4.6775 
7 *101:31 *101:53 10.72 
8 *101:53 *630:A 4.665 
9 *101:53 *101:66 10.305 
10 *101:66 *591:RESET_B 15.7925 
11 *101:66 *607:RESET_B 16.2425 
12 *101:23 *599:RESET_B 0.7575 
13 *101:10 *596:RESET_B 2.7425 
14 *101:4 *101:118 8.575 
15 *101:118 *617:RESET_B 13.6975 
16 *101:118 *592:RESET_B 0.7425 
*END

*D_NET *102 0.00714922
*CONN
*I *603:RESET_B I *D sky130_fd_sc_hd__dfrtp_1
*I *586:RESET_B I *D sky130_fd_sc_hd__dfrtp_2
*I *610:RESET_B I *D sky130_fd_sc_hd__dfrtp_1
*I *593:RESET_B I *D sky130_fd_sc_hd__dfrtp_1
*I *585:RESET_B I *D sky130_fd_sc_hd__dfrtp_1
*I *587:RESET_B I *D sky130_fd_sc_hd__dfrtp_1
*I *614:RESET_B I *D sky130_fd_sc_hd__dfrtp_1
*I *584:RESET_B I *D sky130_fd_sc_hd__dfrtp_1
*I *590:RESET_B I *D sky130_fd_sc_hd__dfrtp_1
*I *615:RESET_B I *D sky130_fd_sc_hd__dfrtp_1
*I *632:X O *D sky130_fd_sc_hd__clkbuf_4
*CAP
1 *603:RESET_B 6.14676e-05
2 *586:RESET_B 0.000168165
3 *610:RESET_B 6.04171e-05
4 *593:RESET_B 0.000166308
5 *585:RESET_B 0.000472081
6 *587:RESET_B 2.72303e-05
7 *614:RESET_B 0.000731216
8 *584:RESET_B 1.24402e-05
9 *590:RESET_B 0
10 *615:RESET_B 0.000106424
11 *632:X 0
12 *102:87 0.000345942
13 *102:73 0.000226725
14 *102:71 0.000285911
15 *102:33 0.000895893
16 *102:31 0.000179467
17 *102:14 0.000189642
18 *102:10 0.000180699
19 *102:8 0.000663646
20 *102:6 0.000263686
21 *585:RESET_B *510:B 0.000124895
22 *585:RESET_B *629:A 0.000157804
23 *585:RESET_B *156:16 5.90539e-05
24 *586:RESET_B *552:A0 3.82009e-05
25 *593:RESET_B *637:A 6.42013e-05
26 *593:RESET_B *670:A 5.83121e-06
27 *603:RESET_B *637:A 0.000117559
28 *610:RESET_B *637:A 1.83847e-05
29 *610:RESET_B *670:A 8.34138e-05
30 *615:RESET_B *581:A0 0
31 *615:RESET_B *155:14 0.000129291
32 *102:8 *627:A 0
33 *102:10 *627:A 0
34 *102:10 *629:A 3.56184e-05
35 *102:10 *176:12 7.63125e-05
36 *102:14 *629:A 1.0183e-05
37 *102:14 *155:14 4.28396e-05
38 *102:33 *155:8 4.66108e-05
39 *102:71 *627:A 0
40 *102:71 *157:17 0
41 *102:87 *637:A 0.000160064
42 *102:87 *157:17 0
43 *615:D *615:RESET_B 2.40101e-05
44 *619:A *615:RESET_B 7.97083e-05
45 *619:A *102:8 0.000103192
46 *619:A *102:10 0.000152405
47 *619:A *102:14 7.89689e-05
48 *619:A *102:71 0.000157107
49 *619:A *102:87 3.76596e-05
50 *94:40 *614:RESET_B 0.000233797
51 *94:51 *614:RESET_B 7.4746e-05
*RES
1 *632:X *102:6 3.6 
2 *102:6 *102:8 2.145 
3 *102:8 *102:10 3.165 
4 *102:10 *102:14 2.085 
5 *102:14 *615:RESET_B 5.0525 
6 *102:14 *590:RESET_B 2 
7 *102:10 *102:31 2 
8 *102:31 *102:33 2.175 
9 *102:33 *584:RESET_B 0.3975 
10 *102:33 *614:RESET_B 10.1925 
11 *102:31 *587:RESET_B 0.3975 
12 *102:8 *585:RESET_B 8.7275 
13 *102:6 *102:71 3.42 
14 *102:71 *102:73 2 
15 *102:73 *593:RESET_B 2.8125 
16 *102:73 *610:RESET_B 1.4325 
17 *102:71 *102:87 2.655 
18 *102:87 *586:RESET_B 4.4675 
19 *102:87 *603:RESET_B 3.38 
*END

*D_NET *103 0.010519
*CONN
*I *618:RESET_B I *D sky130_fd_sc_hd__dfrtp_1
*I *616:RESET_B I *D sky130_fd_sc_hd__dfrtp_1
*I *632:A I *D sky130_fd_sc_hd__clkbuf_4
*I *613:RESET_B I *D sky130_fd_sc_hd__dfrtp_1
*I *612:RESET_B I *D sky130_fd_sc_hd__dfrtp_1
*I *611:RESET_B I *D sky130_fd_sc_hd__dfrtp_1
*I *588:RESET_B I *D sky130_fd_sc_hd__dfrtp_1
*I *589:RESET_B I *D sky130_fd_sc_hd__dfrtp_1
*I *633:X O *D sky130_fd_sc_hd__buf_2
*CAP
1 *618:RESET_B 0.000301653
2 *616:RESET_B 9.72716e-05
3 *632:A 0
4 *613:RESET_B 0.00018989
5 *612:RESET_B 3.06696e-05
6 *611:RESET_B 4.08131e-05
7 *588:RESET_B 0.00103792
8 *589:RESET_B 0.000961092
9 *633:X 0.000379779
10 *103:82 0.000398925
11 *103:56 0.000501514
12 *103:42 0.000951244
13 *103:32 0.00117425
14 *103:30 0.00100138
15 *588:RESET_B *589:D 0.000108985
16 *588:RESET_B *616:D 0
17 *588:RESET_B *640:A 0
18 *588:RESET_B *149:113 3.9442e-05
19 *588:RESET_B *150:12 0
20 *589:RESET_B *509:B 3.64998e-06
21 *589:RESET_B *589:D 6.55406e-05
22 *589:RESET_B *157:44 0.000100544
23 *611:RESET_B *118:18 4.66108e-05
24 *612:RESET_B *152:10 9.11714e-05
25 *616:RESET_B *553:S 2.85434e-05
26 *618:RESET_B *547:D 0.000262252
27 *618:RESET_B *610:D 0
28 *103:42 *550:A1 0.000160213
29 *103:42 *550:S 0.000112538
30 *103:42 *551:A1 0.000116158
31 *103:42 *551:S 0.000240966
32 *103:42 *628:A 6.26658e-05
33 *103:42 *666:A 0.000199496
34 *103:42 *118:18 2.92496e-05
35 *103:42 *118:24 0
36 *103:42 *151:12 9.54469e-05
37 *103:42 *154:12 8.09021e-06
38 *103:56 *552:S 6.50083e-05
39 *103:56 *106:14 7.06865e-05
40 *103:56 *118:18 5.36621e-05
41 *513:B2 *589:RESET_B 0
42 *550:A0 *103:42 6.55362e-05
43 *584:D *103:42 7.35729e-05
44 *588:CLK *103:30 0.000198203
45 *589:CLK *588:RESET_B 0.000181005
46 *613:D *613:RESET_B 0
47 *613:D *103:56 0
48 *616:CLK *616:RESET_B 4.11729e-05
49 *618:CLK *618:RESET_B 0
50 *623:A *103:32 0.000124895
51 *672:A *588:RESET_B 9.37731e-05
52 *94:16 *611:RESET_B 0.000116497
53 *94:27 *103:42 0
54 *94:92 *103:56 0
55 *94:103 *103:56 0
56 *94:105 *612:RESET_B 0.000156091
57 *95:10 *618:RESET_B 0
58 *95:10 *103:30 6.07575e-06
59 *95:10 *103:32 7.89269e-05
60 *95:36 *616:RESET_B 0.000106655
61 *95:36 *618:RESET_B 3.09233e-05
62 *95:36 *103:30 2.49909e-05
63 *95:40 *616:RESET_B 3.09233e-05
64 *98:77 *616:RESET_B 7.89689e-05
65 *98:77 *618:RESET_B 8.34426e-05
66 *98:120 *588:RESET_B 0
*RES
1 *633:X *589:RESET_B 11.645 
2 *589:RESET_B *588:RESET_B 13.7575 
3 *588:RESET_B *103:30 6.9675 
4 *103:30 *103:32 8.73 
5 *103:32 *103:42 15.815 
6 *103:42 *611:RESET_B 3.0875 
7 *103:42 *103:56 4.74 
8 *103:56 *612:RESET_B 3.4325 
9 *103:56 *613:RESET_B 5.21 
10 *103:32 *632:A 1.6 
11 *103:30 *103:82 2 
12 *103:82 *616:RESET_B 4.3775 
13 *103:82 *618:RESET_B 9.035 
*END

*D_NET *104 0.000268663
*CONN
*I *603:D I *D sky130_fd_sc_hd__dfrtp_1
*I *637:X O *D sky130_fd_sc_hd__dlygate4sd3_1
*CAP
1 *603:D 0.000134331
2 *637:X 0.000134331
3 *603:D *637:A 0
4 *603:D *659:A 0
*RES
1 *637:X *603:D 9.03 
*END

*D_NET *105 0.00133847
*CONN
*I *549:B I *D sky130_fd_sc_hd__and2b_1
*I *610:D I *D sky130_fd_sc_hd__dfrtp_1
*I *648:X O *D sky130_fd_sc_hd__dlygate4sd3_1
*CAP
1 *549:B 5.14813e-05
2 *610:D 0.000270592
3 *648:X 0.000206393
4 *105:8 0.000528466
5 *549:B *549:A_N 0
6 *610:D *549:A_N 0
7 *618:CLK *610:D 0
8 *618:D *549:B 7.23602e-05
9 *618:D *610:D 0.000209179
10 *618:RESET_B *610:D 0
*RES
1 *648:X *105:8 5.775 
2 *105:8 *610:D 8.745 
3 *105:8 *549:B 4.725 
*END

*D_NET *106 0.0010847
*CONN
*I *552:A1 I *D sky130_fd_sc_hd__mux2_1
*I *580:A I *D sky130_fd_sc_hd__xor2_1
*I *659:X O *D sky130_fd_sc_hd__dlygate4sd3_1
*CAP
1 *552:A1 0
2 *580:A 0.000232255
3 *659:X 0.000229272
4 *106:14 0.000461527
5 *580:A *552:A0 9.03508e-06
6 *106:14 *552:A0 1.54061e-06
7 *94:105 *106:14 8.03844e-05
8 *103:56 *106:14 7.06865e-05
*RES
1 *659:X *106:14 8.75 
2 *106:14 *580:A 5.08 
3 *106:14 *552:A1 1.6 
*END

*D_NET *107 0.00485422
*CONN
*I *633:A I *D sky130_fd_sc_hd__buf_2
*I *631:A I *D sky130_fd_sc_hd__clkbuf_4
*I *677:X O *D sky130_fd_sc_hd__buf_1
*CAP
1 *633:A 0.000939365
2 *631:A 0.000456669
3 *677:X 0.000379435
4 *107:12 0.00177547
5 *633:A *512:B 0.00025631
6 *633:A *558:A1 0
7 *633:A *583:A1 8.09021e-06
8 *633:A *649:A 0.000118527
9 *633:A *673:A 0.000209179
10 *633:A *172:8 0.000122465
11 *633:A *172:19 7.54567e-05
12 *633:A *175:23 0.000417808
13 *633:A *178:8 9.54469e-05
14 *107:12 *558:A1 0
*RES
1 *677:X *107:12 9.87 
2 *107:12 *631:A 10.26 
3 *107:12 *633:A 24.555 
*END

*D_NET *108 0.00112653
*CONN
*I *549:A_N I *D sky130_fd_sc_hd__and2b_1
*I *670:X O *D sky130_fd_sc_hd__dlygate4sd3_1
*CAP
1 *549:A_N 0.00051913
2 *670:X 0.00051913
3 *549:A_N *637:A 0
4 *549:A_N *670:A 0
5 *549:A_N *157:42 8.8266e-05
6 *549:B *549:A_N 0
7 *610:D *549:A_N 0
8 *619:A *549:A_N 0
9 *95:10 *549:A_N 0
*RES
1 *670:X *549:A_N 15.495 
*END

*D_NET *109 0.00082184
*CONN
*I *554:A0 I *D sky130_fd_sc_hd__mux2_1
*I *671:X O *D sky130_fd_sc_hd__dlygate4sd3_1
*CAP
1 *554:A0 0.000251917
2 *671:X 0.000251917
3 *554:A0 *554:A1 2.11084e-05
4 *554:A0 *177:12 7.23602e-05
5 *509:A *554:A0 2.30292e-05
6 *98:120 *554:A0 0.000201508
*RES
1 *671:X *554:A0 10.935 
*END

*D_NET *110 0.000470357
*CONN
*I *588:D I *D sky130_fd_sc_hd__dfrtp_1
*I *672:X O *D sky130_fd_sc_hd__dlygate4sd3_1
*CAP
1 *588:D 0.000126401
2 *672:X 0.000126401
3 *588:D *150:12 0.000166805
4 *588:D *157:42 5.0751e-05
5 *636:A *588:D 0
6 *672:A *588:D 0
*RES
1 *672:X *588:D 9.975 
*END

*D_NET *111 0.000216824
*CONN
*I *555:A0 I *D sky130_fd_sc_hd__mux2_1
*I *673:X O *D sky130_fd_sc_hd__dlygate4sd3_1
*CAP
1 *555:A0 9.98612e-05
2 *673:X 9.98612e-05
3 *555:A0 *506:A 0
4 *555:A0 *555:A1 0
5 *513:B2 *555:A0 1.71013e-05
*RES
1 *673:X *555:A0 8.835 
*END

*D_NET *112 0.000618124
*CONN
*I *589:D I *D sky130_fd_sc_hd__dfrtp_1
*I *674:X O *D sky130_fd_sc_hd__dlygate4sd3_1
*CAP
1 *589:D 0.000189029
2 *674:X 0.000189029
3 *513:B2 *589:D 6.55406e-05
4 *588:RESET_B *589:D 0.000108985
5 *589:RESET_B *589:D 6.55406e-05
*RES
1 *674:X *589:D 11.1 
*END

*D_NET *113 0.000503596
*CONN
*I *553:A0 I *D sky130_fd_sc_hd__mux2_1
*I *675:X O *D sky130_fd_sc_hd__dlygate4sd3_1
*CAP
1 *553:A0 4.68436e-05
2 *675:X 4.68436e-05
3 *553:A0 *510:B 0.000279787
4 *553:A0 *553:S 4.92062e-05
5 *553:A0 *156:16 8.09157e-05
*RES
1 *675:X *553:A0 5.72 
*END

*D_NET *114 0.00050736
*CONN
*I *587:D I *D sky130_fd_sc_hd__dfrtp_1
*I *638:X O *D sky130_fd_sc_hd__dlygate4sd3_1
*CAP
1 *587:D 6.66538e-05
2 *638:X 6.66538e-05
3 *587:D *553:A1 0
4 *587:D *553:S 4.66108e-05
5 *587:D *156:16 0.000118513
6 *638:A *587:D 4.66108e-05
7 *91:36 *587:D 0.000162318
*RES
1 *638:X *587:D 9.54 
*END

*D_NET *115 0.000483183
*CONN
*I *551:A1 I *D sky130_fd_sc_hd__mux2_1
*I *639:X O *D sky130_fd_sc_hd__dlygate4sd3_1
*CAP
1 *551:A1 0.000126234
2 *639:X 0.000126234
3 *551:A1 *154:12 3.05295e-05
4 *94:27 *551:A1 0
5 *98:77 *551:A1 8.40269e-05
6 *103:42 *551:A1 0.000116158
*RES
1 *639:X *551:A1 9.375 
*END

*D_NET *116 0.00037349
*CONN
*I *582:A0 I *D sky130_fd_sc_hd__mux2_1
*I *640:X O *D sky130_fd_sc_hd__dlygate4sd3_1
*CAP
1 *582:A0 0.000102547
2 *640:X 0.000102547
3 *589:CLK *582:A0 0.000168395
*RES
1 *640:X *582:A0 5.03 
*END

*D_NET *117 0.000769828
*CONN
*I *616:D I *D sky130_fd_sc_hd__dfrtp_1
*I *641:X O *D sky130_fd_sc_hd__dlygate4sd3_1
*CAP
1 *616:D 0.000247501
2 *641:X 0.000247501
3 *616:D *515:B 8.40269e-05
4 *616:D *582:A1 7.23602e-05
5 *616:D *149:113 0
6 *616:D *150:12 0.000118438
7 *588:RESET_B *616:D 0
*RES
1 *641:X *616:D 11.415 
*END

*D_NET *118 0.00374836
*CONN
*I *552:S I *D sky130_fd_sc_hd__mux2_1
*I *593:D I *D sky130_fd_sc_hd__dfrtp_1
*I *550:S I *D sky130_fd_sc_hd__mux2_1
*I *551:S I *D sky130_fd_sc_hd__mux2_1
*I *678:X O *D sky130_fd_sc_hd__buf_1
*CAP
1 *552:S 5.9717e-05
2 *593:D 0
3 *550:S 1.84359e-05
4 *551:S 3.0326e-05
5 *678:X 0.000432005
6 *118:24 0.000274679
7 *118:18 0.000430604
8 *118:8 0.000696409
9 *550:S *628:A 0.000122801
10 *551:S *628:A 0.000239807
11 *552:S *152:18 0
12 *118:18 *666:A 0.000276441
13 *118:18 *152:18 0
14 *118:24 *151:12 0
15 *611:CLK *118:8 0.000247561
16 *611:RESET_B *118:18 4.66108e-05
17 *613:D *552:S 5.53249e-06
18 *94:14 *118:18 6.6564e-05
19 *94:14 *118:24 8.90199e-05
20 *94:16 *118:8 9.66106e-05
21 *94:16 *118:18 0.000113809
22 *94:27 *118:18 0
23 *103:42 *550:S 0.000112538
24 *103:42 *551:S 0.000240966
25 *103:42 *118:18 2.92496e-05
26 *103:42 *118:24 0
27 *103:56 *552:S 6.50083e-05
28 *103:56 *118:18 5.36621e-05
*RES
1 *678:X *118:8 9.225 
2 *118:8 *118:18 7.235 
3 *118:18 *118:24 7.675 
4 *118:24 *551:S 3.775 
5 *118:24 *550:S 2.74 
6 *118:18 *593:D 1.6 
7 *118:8 *552:S 4.98 
*END

*D_NET *119 0.00280375
*CONN
*I *565:A0 I *D sky130_fd_sc_hd__mux2_1
*I *562:A1 I *D sky130_fd_sc_hd__mux2_1
*I *642:X O *D sky130_fd_sc_hd__dlygate4sd3_1
*CAP
1 *565:A0 0.000366358
2 *562:A1 0.000170102
3 *642:X 0.00022767
4 *119:10 0.00076413
5 *562:A1 *540:A 0.000315527
6 *565:A0 *565:A1 2.68464e-05
7 *565:A0 *565:S 8.52883e-05
8 *119:10 *642:A 4.21973e-05
9 *530:B2 *565:A0 0.000119242
10 *534:A *562:A1 6.23288e-05
11 *534:A *119:10 4.19967e-05
12 *591:RESET_B *565:A0 4.80285e-05
13 *597:CLK *565:A0 3.7837e-05
14 *597:D *562:A1 0.000123225
15 *597:D *565:A0 6.58339e-05
16 *607:RESET_B *119:10 0.000193168
17 *101:66 *562:A1 8.97486e-05
18 *101:66 *119:10 2.42236e-05
*RES
1 *642:X *119:10 7.155 
2 *119:10 *562:A1 8.355 
3 *119:10 *565:A0 10.035 
*END

*D_NET *120 0.000720891
*CONN
*I *600:D I *D sky130_fd_sc_hd__dfrtp_1
*I *643:X O *D sky130_fd_sc_hd__dlygate4sd3_1
*CAP
1 *600:D 0.00016447
2 *643:X 0.00016447
3 *600:D *529:B 6.55328e-05
4 *600:D *565:A1 0.000138277
5 *600:D *148:35 1.12852e-05
6 *529:A *600:D 0.000116165
7 *530:C1 *600:D 0
8 *600:CLK *600:D 1.24035e-05
9 *92:12 *600:D 4.82863e-05
*RES
1 *643:X *600:D 11.07 
*END

*D_NET *121 0.00101404
*CONN
*I *566:A1 I *D sky130_fd_sc_hd__mux2_1
*I *569:A0 I *D sky130_fd_sc_hd__mux2_1
*I *644:X O *D sky130_fd_sc_hd__dlygate4sd3_1
*CAP
1 *566:A1 5.82148e-05
2 *569:A0 0.000236639
3 *644:X 0
4 *121:4 0.000294854
5 *566:A1 *148:93 4.87406e-05
6 *566:A1 *159:8 0
7 *569:A0 *569:A1 2.86975e-05
8 *569:A0 *569:S 0.000346894
*RES
1 *644:X *121:4 1.6 
2 *121:4 *569:A0 5.845 
3 *121:4 *566:A1 6.725 
*END

*D_NET *122 0.00150426
*CONN
*I *561:A1 I *D sky130_fd_sc_hd__mux2_1
*I *564:A0 I *D sky130_fd_sc_hd__mux2_1
*I *645:X O *D sky130_fd_sc_hd__dlygate4sd3_1
*CAP
1 *561:A1 0.000161968
2 *564:A0 0.000306874
3 *645:X 0
4 *122:4 0.000468842
5 *561:A1 *561:A0 4.82863e-05
6 *561:A1 *561:S 1.60203e-05
7 *561:A1 *149:47 0.000187381
8 *564:A0 *645:A 4.82919e-05
9 *564:A0 *149:47 7.35813e-05
10 *564:A0 *165:10 0
11 *564:A0 *166:10 1.26548e-05
12 *596:D *561:A1 8.65905e-05
13 *646:A *564:A0 9.37731e-05
*RES
1 *645:X *122:4 1.6 
2 *122:4 *564:A0 10.535 
3 *122:4 *561:A1 5.155 
*END

*D_NET *123 0.000725336
*CONN
*I *599:D I *D sky130_fd_sc_hd__dfrtp_1
*I *646:X O *D sky130_fd_sc_hd__dlygate4sd3_1
*CAP
1 *599:D 0.000240351
2 *646:X 0.000240351
3 *599:D *564:A1 1.03833e-05
4 *599:D *662:A 1.83847e-05
5 *599:D *163:21 0
6 *599:D *163:25 3.45516e-05
7 *599:D *165:10 0.000181315
*RES
1 *646:X *599:D 11.58 
*END

*D_NET *124 0.00104582
*CONN
*I *559:A1 I *D sky130_fd_sc_hd__mux2_1
*I *562:A0 I *D sky130_fd_sc_hd__mux2_1
*I *647:X O *D sky130_fd_sc_hd__dlygate4sd3_1
*CAP
1 *559:A1 0.000153013
2 *562:A0 7.44863e-05
3 *647:X 4.49693e-05
4 *124:8 0.000272469
5 *559:A1 *148:19 3.4222e-05
6 *562:A0 *148:19 4.76581e-05
7 *124:8 *164:8 4.82919e-05
8 *534:A *559:A1 0
9 *534:A *562:A0 0
10 *591:RESET_B *124:8 6.58423e-05
11 *597:RESET_B *559:A1 0.000227543
12 *597:RESET_B *562:A0 5.23362e-05
13 *597:RESET_B *124:8 2.49909e-05
*RES
1 *647:X *124:8 4.74 
2 *124:8 *562:A0 5.235 
3 *124:8 *559:A1 7.02 
*END

*D_NET *125 0.000472217
*CONN
*I *583:A0 I *D sky130_fd_sc_hd__mux2_1
*I *649:X O *D sky130_fd_sc_hd__dlygate4sd3_1
*CAP
1 *583:A0 0.000170223
2 *649:X 0.000170223
3 *583:A0 *583:A1 0.000131772
4 *617:RESET_B *583:A0 0
*RES
1 *649:X *583:A0 10.875 
*END

*D_NET *126 0.000325802
*CONN
*I *617:D I *D sky130_fd_sc_hd__dfrtp_1
*I *650:X O *D sky130_fd_sc_hd__dlygate4sd3_1
*CAP
1 *617:D 0.00015769
2 *650:X 0.00015769
3 *617:D *583:S 1.04217e-05
4 *518:B1 *617:D 0
*RES
1 *650:X *617:D 9.375 
*END

*D_NET *127 0.00153583
*CONN
*I *563:A1 I *D sky130_fd_sc_hd__mux2_1
*I *566:A0 I *D sky130_fd_sc_hd__mux2_1
*I *651:X O *D sky130_fd_sc_hd__dlygate4sd3_1
*CAP
1 *563:A1 0.000133382
2 *566:A0 0.000232615
3 *651:X 6.07053e-05
4 *127:10 0.000426702
5 *563:A1 *560:A1 4.66108e-05
6 *563:A1 *564:A1 3.40816e-06
7 *127:10 *138:12 0
8 *127:10 *162:12 4.94404e-05
9 *598:D *563:A1 1.4389e-05
10 *605:RESET_B *566:A0 6.11797e-05
11 *630:A *566:A0 4.82863e-05
12 *100:6 *566:A0 6.20088e-05
13 *101:53 *563:A1 0.000199833
14 *101:53 *566:A0 0.000197269
*RES
1 *651:X *127:10 6.725 
2 *127:10 *566:A0 6.19 
3 *127:10 *563:A1 4.48 
*END

*D_NET *128 0.00178711
*CONN
*I *556:A1 I *D sky130_fd_sc_hd__mux2_1
*I *559:A0 I *D sky130_fd_sc_hd__mux2_1
*I *652:X O *D sky130_fd_sc_hd__dlygate4sd3_1
*CAP
1 *556:A1 0.00036525
2 *559:A0 0.000214985
3 *652:X 0
4 *128:4 0.000580235
5 *556:A1 *547:D 0
6 *556:A1 *148:6 4.60584e-05
7 *559:A0 *559:S 4.82863e-05
8 *559:A0 *148:6 0.000234685
9 *510:A *556:A1 0.0001369
10 *545:C1 *559:A0 8.82099e-05
11 *546:C1 *556:A1 0
12 *547:A_N *556:A1 6.02202e-05
13 *547:C *556:A1 0
14 *91:10 *556:A1 0
15 *98:77 *556:A1 1.22762e-05
*RES
1 *652:X *128:4 1.6 
2 *128:4 *559:A0 5.785 
3 *128:4 *556:A1 11.855 
*END

*D_NET *129 0.00314792
*CONN
*I *668:A I *D sky130_fd_sc_hd__dlygate4sd3_1
*I *568:A1 I *D sky130_fd_sc_hd__mux2_1
*I *679:A I *D sky130_fd_sc_hd__buf_2
*I *537:A I *D sky130_fd_sc_hd__xor2_1
*I *607:Q O *D sky130_fd_sc_hd__dfrtp_1
*CAP
1 *668:A 8.61534e-05
2 *568:A1 0.000128302
3 *679:A 5.73781e-05
4 *537:A 7.36816e-05
5 *607:Q 0
6 *129:36 0.000509407
7 *129:8 0.000621383
8 *129:4 0.000785275
9 *568:A1 *571:S 0.000201503
10 *129:36 *565:A1 0
11 *129:36 *654:A 0
12 num_to_send_o[0] *537:A 7.70351e-05
13 *537:B *537:A 0.000233918
14 *537:B *679:A 0.000116853
15 *538:C1 *537:A 1.01661e-05
16 *604:CLK *679:A 4.66108e-05
17 *607:D *537:A 3.25831e-05
18 *607:D *679:A 0.000109016
19 *607:RESET_B *129:8 2.17886e-05
20 *92:97 *537:A 0
21 *98:16 *668:A 0
22 *98:16 *129:36 0
23 *100:59 *129:36 3.68682e-05
*RES
1 *607:Q *129:4 1.6 
2 *129:4 *129:8 7.28 
3 *129:8 *537:A 6.51 
4 *129:8 *679:A 5.43 
5 *129:4 *129:36 6.74 
6 *129:36 *568:A1 5.43 
7 *129:36 *668:A 4.98 
*END

*D_NET *130 0.00253928
*CONN
*I *558:A1 I *D sky130_fd_sc_hd__mux2_1
*I *561:A0 I *D sky130_fd_sc_hd__mux2_1
*I *653:X O *D sky130_fd_sc_hd__dlygate4sd3_1
*CAP
1 *558:A1 0.000512771
2 *561:A0 0.00045727
3 *653:X 0
4 *130:4 0.000970041
5 *558:A1 *172:8 6.47594e-05
6 *561:A0 *561:S 8.57024e-05
7 *561:A0 *169:12 4.82863e-05
8 *561:A0 *169:18 0.000352161
9 *561:A1 *561:A0 4.82863e-05
10 *633:A *558:A1 0
11 *107:12 *558:A1 0
*RES
1 *653:X *130:4 1.6 
2 *130:4 *561:A0 9.685 
3 *130:4 *558:A1 13.235 
*END

*D_NET *131 0.00042015
*CONN
*I *568:A0 I *D sky130_fd_sc_hd__mux2_1
*I *654:X O *D sky130_fd_sc_hd__dlygate4sd3_1
*CAP
1 *568:A0 3.23724e-05
2 *654:X 3.23724e-05
3 *568:A0 *571:S 0.000200615
4 *99:117 *568:A0 0.00015479
*RES
1 *654:X *568:A0 5.03 
*END

*D_NET *132 0.00137494
*CONN
*I *604:D I *D sky130_fd_sc_hd__dfrtp_1
*I *655:X O *D sky130_fd_sc_hd__dlygate4sd3_1
*CAP
1 *604:D 0.000486221
2 *655:X 0.000486221
3 *604:D *565:A1 2.59981e-05
4 *604:D *654:A 3.86607e-05
5 *604:D *158:6 6.77417e-05
6 *604:D *158:12 8.49205e-05
7 *604:RESET_B *604:D 2.40101e-05
8 *100:75 *604:D 0.000161167
*RES
1 *655:X *604:D 15.93 
*END

*D_NET *133 0.000798504
*CONN
*I *556:A0 I *D sky130_fd_sc_hd__mux2_1
*I *581:A1 I *D sky130_fd_sc_hd__mux2_1
*I *656:X O *D sky130_fd_sc_hd__dlygate4sd3_1
*CAP
1 *556:A0 0
2 *581:A1 0.000177041
3 *656:X 4.67455e-05
4 *133:10 0.000223787
5 *581:A1 *515:B 0
6 *581:A1 *170:10 0.000310394
7 *510:A *133:10 4.05358e-05
8 *98:77 *133:10 0
*RES
1 *656:X *133:10 6.47 
2 *133:10 *581:A1 4.825 
3 *133:10 *556:A0 1.6 
*END

*D_NET *134 0.00111807
*CONN
*I *557:A0 I *D sky130_fd_sc_hd__mux2_1
*I *657:X O *D sky130_fd_sc_hd__dlygate4sd3_1
*CAP
1 *557:A0 0.000392632
2 *657:X 0.000392632
3 *557:A0 *657:A 8.44669e-06
4 *557:A0 *149:20 7.23533e-05
5 *524:B1 *557:A0 7.23602e-05
6 *591:CLK *557:A0 0.000179647
*RES
1 *657:X *557:A0 12.66 
*END

*D_NET *135 0.000347269
*CONN
*I *591:D I *D sky130_fd_sc_hd__dfrtp_1
*I *658:X O *D sky130_fd_sc_hd__dlygate4sd3_1
*CAP
1 *591:D 0.000159873
2 *658:X 0.000159873
3 *518:B1 *591:D 2.75229e-05
4 *524:A1 *591:D 0
5 *617:RESET_B *591:D 0
*RES
1 *658:X *591:D 9.54 
*END

*D_NET *136 0.00011796
*CONN
*I *558:A0 I *D sky130_fd_sc_hd__mux2_1
*I *660:X O *D sky130_fd_sc_hd__dlygate4sd3_1
*CAP
1 *558:A0 4.45868e-05
2 *660:X 4.45868e-05
3 *558:A0 *172:8 2.87867e-05
4 *617:RESET_B *558:A0 0
*RES
1 *660:X *558:A0 8.07 
*END

*D_NET *137 0.000782013
*CONN
*I *581:A0 I *D sky130_fd_sc_hd__mux2_1
*I *661:X O *D sky130_fd_sc_hd__dlygate4sd3_1
*CAP
1 *581:A0 0.000209426
2 *661:X 0.000209426
3 *581:A0 *553:A1 4.62396e-05
4 *581:A0 *155:14 0
5 *581:A0 *170:10 0.000123225
6 *581:A0 *173:14 7.75325e-05
7 *615:D *581:A0 0.000116165
8 *615:RESET_B *581:A0 0
9 *619:A *581:A0 0
*RES
1 *661:X *581:A0 12.015 
*END

*D_NET *138 0.00174238
*CONN
*I *560:A1 I *D sky130_fd_sc_hd__mux2_1
*I *563:A0 I *D sky130_fd_sc_hd__mux2_1
*I *662:X O *D sky130_fd_sc_hd__dlygate4sd3_1
*CAP
1 *560:A1 0.000353728
2 *563:A0 0
3 *662:X 0.000148352
4 *138:12 0.00050208
5 *560:A1 *563:S 2.32597e-05
6 *560:A1 *564:A1 0.000306291
7 *560:A1 *149:49 0.000163199
8 *138:12 *163:25 7.06865e-05
9 *563:A1 *560:A1 4.66108e-05
10 *646:A *560:A1 0.00011964
11 *101:53 *138:12 8.53113e-06
12 *127:10 *138:12 0
*RES
1 *662:X *138:12 7.61 
2 *138:12 *563:A0 1.6 
3 *138:12 *560:A1 8.635 
*END

*D_NET *139 0.00116915
*CONN
*I *560:A0 I *D sky130_fd_sc_hd__mux2_1
*I *663:X O *D sky130_fd_sc_hd__dlygate4sd3_1
*CAP
1 *560:A0 0.000524997
2 *663:X 0.000524997
3 *560:A0 *168:8 0
4 *595:D *560:A0 3.81908e-06
5 *596:CLK *560:A0 3.45679e-05
6 *596:RESET_B *560:A0 8.07672e-05
7 *101:10 *560:A0 0
*RES
1 *663:X *560:A0 13.35 
*END

*D_NET *140 0.00324067
*CONN
*I *669:A I *D sky130_fd_sc_hd__dlygate4sd3_1
*I *569:A1 I *D sky130_fd_sc_hd__mux2_1
*I *539:A1 I *D sky130_fd_sc_hd__o221a_1
*I *538:A1 I *D sky130_fd_sc_hd__a221oi_1
*I *680:A I *D sky130_fd_sc_hd__buf_2
*I *608:Q O *D sky130_fd_sc_hd__dfrtp_1
*CAP
1 *669:A 0
2 *569:A1 0.000186209
3 *539:A1 4.75086e-05
4 *538:A1 0
5 *680:A 0.000288644
6 *608:Q 0
7 *140:47 0.000367692
8 *140:14 0.000535715
9 *140:8 0.000369276
10 *140:4 0.00025618
11 *539:A1 *147:25 1.65192e-05
12 *539:A1 *147:40 4.18603e-06
13 *569:A1 *525:B 0
14 *569:A1 *160:32 0.000163992
15 *680:A *148:37 0.000111308
16 *140:8 *147:25 6.14689e-05
17 *140:14 *538:B1 9.53428e-06
18 *140:47 *525:B 0
19 *530:C1 *569:A1 0
20 *538:A2 *140:14 0.0002639
21 *538:B2 *680:A 9.63505e-05
22 *538:C1 *680:A 0
23 *539:C1 *140:14 1.33293e-05
24 *569:A0 *569:A1 2.86975e-05
25 *60:12 *539:A1 4.82919e-05
26 *60:12 *140:14 9.80032e-06
27 *98:35 *140:47 0.00028233
28 *100:47 *140:8 2.75707e-05
29 *100:59 *539:A1 2.03578e-05
30 *100:59 *140:8 3.18137e-05
*RES
1 *608:Q *140:4 1.6 
2 *140:4 *140:8 3.89 
3 *140:8 *140:14 5.48 
4 *140:14 *680:A 10.865 
5 *140:14 *538:A1 1.6 
6 *140:8 *539:A1 4.665 
7 *140:4 *140:47 3.225 
8 *140:47 *569:A1 8.975 
9 *140:47 *669:A 1.6 
*END

*D_NET *141 0.000576897
*CONN
*I *567:A0 I *D sky130_fd_sc_hd__mux2_1
*I *664:X O *D sky130_fd_sc_hd__dlygate4sd3_1
*CAP
1 *567:A0 0.000265338
2 *664:X 0.000265338
3 *567:A0 *567:A1 3.00381e-05
4 *567:A0 *567:S 1.61831e-05
*RES
1 *664:X *567:A0 7.1 
*END

*D_NET *142 0.000243512
*CONN
*I *602:D I *D sky130_fd_sc_hd__dfrtp_1
*I *665:X O *D sky130_fd_sc_hd__dlygate4sd3_1
*CAP
1 *602:D 0.000109261
2 *665:X 0.000109261
3 *602:CLK *602:D 2.49909e-05
*RES
1 *665:X *602:D 4.685 
*END

*D_NET *143 0.00037535
*CONN
*I *550:A1 I *D sky130_fd_sc_hd__mux2_1
*I *666:X O *D sky130_fd_sc_hd__dlygate4sd3_1
*CAP
1 *550:A1 2.7462e-05
2 *666:X 2.7462e-05
3 *550:A0 *550:A1 0.000160213
4 *103:42 *550:A1 0.000160213
*RES
1 *666:X *550:A1 4.685 
*END

*D_NET *144 0.000367958
*CONN
*I *570:A0 I *D sky130_fd_sc_hd__mux2_1
*I *667:X O *D sky130_fd_sc_hd__dlygate4sd3_1
*CAP
1 *570:A0 0.000156851
2 *667:X 0.000156851
3 *570:A0 *147:14 0
4 *570:A0 *160:14 5.4256e-05
*RES
1 *667:X *570:A0 9.63 
*END

*D_NET *145 0.000602968
*CONN
*I *571:A0 I *D sky130_fd_sc_hd__mux2_1
*I *668:X O *D sky130_fd_sc_hd__dlygate4sd3_1
*CAP
1 *571:A0 0.000301484
2 *668:X 0.000301484
3 *571:A0 *548:A 0
*RES
1 *668:X *571:A0 10.59 
*END

*D_NET *146 0.000716193
*CONN
*I *572:A0 I *D sky130_fd_sc_hd__mux2_1
*I *669:X O *D sky130_fd_sc_hd__dlygate4sd3_1
*CAP
1 *572:A0 0.000258236
2 *669:X 0.000258236
3 *572:A0 *572:S 4.66108e-05
4 *572:A0 *147:25 0
5 *572:A1 *572:A0 4.66108e-05
6 *605:D *572:A0 2.75229e-05
7 *100:47 *572:A0 7.89767e-05
*RES
1 *669:X *572:A0 11.7 
*END

*D_NET *147 0.0042052
*CONN
*I *570:A1 I *D sky130_fd_sc_hd__mux2_1
*I *538:B1 I *D sky130_fd_sc_hd__a221oi_1
*I *681:A I *D sky130_fd_sc_hd__buf_2
*I *539:B1 I *D sky130_fd_sc_hd__o221a_1
*I *573:A0 I *D sky130_fd_sc_hd__mux2_1
*I *609:Q O *D sky130_fd_sc_hd__dfrtp_1
*CAP
1 *570:A1 0.000120734
2 *538:B1 6.77537e-05
3 *681:A 9.37732e-05
4 *539:B1 0
5 *573:A0 0.000162485
6 *609:Q 0
7 *147:40 0.000498273
8 *147:25 0.000527017
9 *147:14 0.00074453
10 *147:4 0.000512509
11 *147:14 *160:14 0
12 *538:A2 *147:40 1.74678e-05
13 *539:A1 *147:25 1.65192e-05
14 *539:A1 *147:40 4.18603e-06
15 *539:B2 *147:40 5.39961e-05
16 *539:C1 *538:B1 0.000122331
17 *539:C1 *147:40 0.000268739
18 *570:A0 *147:14 0
19 *572:A0 *147:25 0
20 *573:A1 *147:14 2.46007e-05
21 *573:A1 *147:25 0.000468933
22 *573:A1 *147:40 6.75724e-05
23 *605:CLK *573:A0 0.000204508
24 *605:D *147:14 3.09164e-05
25 *605:D *147:25 2.37321e-05
26 *606:D *147:14 0
27 *609:RESET_B *570:A1 7.60965e-05
28 *609:RESET_B *147:14 2.75229e-05
29 *100:27 *147:14 0
30 *100:47 *147:25 0
31 *100:59 *147:40 0
32 *140:8 *147:25 6.14689e-05
33 *140:14 *538:B1 9.53428e-06
*RES
1 *609:Q *147:4 1.6 
2 *147:4 *147:14 10.195 
3 *147:14 *573:A0 3.775 
4 *147:14 *147:25 7.46 
5 *147:25 *539:B1 3.6 
6 *147:25 *147:40 7.04 
7 *147:40 *681:A 3.1 
8 *147:40 *538:B1 3.445 
9 *147:4 *570:A1 3.775 
*END

*D_NET *148 0.0141072
*CONN
*I *562:S I *D sky130_fd_sc_hd__mux2_1
*I *569:S I *D sky130_fd_sc_hd__mux2_1
*I *566:S I *D sky130_fd_sc_hd__mux2_1
*I *570:S I *D sky130_fd_sc_hd__mux2_1
*I *567:S I *D sky130_fd_sc_hd__mux2_1
*I *548:A I *D sky130_fd_sc_hd__inv_2
*I *568:S I *D sky130_fd_sc_hd__mux2_1
*I *572:S I *D sky130_fd_sc_hd__mux2_1
*I *573:S I *D sky130_fd_sc_hd__mux2_1
*I *559:S I *D sky130_fd_sc_hd__mux2_1
*I *634:X O *D sky130_fd_sc_hd__clkbuf_4
*CAP
1 *562:S 0
2 *569:S 0.000205801
3 *566:S 0
4 *570:S 0.000401645
5 *567:S 0.000193237
6 *548:A 0.000267476
7 *568:S 4.80359e-05
8 *572:S 2.61242e-05
9 *573:S 0.000175799
10 *559:S 1.17533e-05
11 *634:X 0.000182827
12 *148:97 0.000817544
13 *148:93 0.000341015
14 *148:91 0.000720225
15 *148:65 0.000663438
16 *148:37 0.000541945
17 *148:35 0.00155483
18 *148:21 0.00139693
19 *148:19 0.000377541
20 *148:6 0.000438144
21 *567:S *567:A1 1.16578e-05
22 *568:S *571:S 0.000123225
23 *148:19 *156:16 0.000275333
24 *148:19 *156:24 2.7881e-05
25 *148:21 *540:A 0.000378802
26 *148:21 *155:14 0.000159741
27 *148:35 *528:B 0.000386142
28 *148:91 *525:B 0
29 *148:91 *533:B 0
30 *148:91 *534:B 0
31 *148:91 *159:8 0
32 *148:93 *162:12 0
33 *148:97 *162:12 0
34 *529:A *148:35 2.26364e-05
35 *530:C1 *148:35 0
36 *530:C1 *148:91 0
37 *534:A *148:19 0
38 *536:B2 *148:21 0.000277223
39 *537:B *148:37 0
40 *537:B *148:65 0
41 *538:C1 *148:37 0
42 *545:C1 *559:S 2.75145e-05
43 *545:C1 *148:6 0.000346905
44 *556:A1 *148:6 4.60584e-05
45 *559:A0 *559:S 4.82863e-05
46 *559:A0 *148:6 0.000234685
47 *559:A1 *148:19 3.4222e-05
48 *562:A0 *148:19 4.76581e-05
49 *566:A1 *148:93 4.87406e-05
50 *567:A0 *567:S 1.61831e-05
51 *569:A0 *569:S 0.000346894
52 *571:A0 *548:A 0
53 *572:A0 *572:S 4.66108e-05
54 *572:A1 *573:S 4.9968e-05
55 *572:A1 *148:37 0.000164686
56 *573:A1 *573:S 5.88944e-05
57 *597:RESET_B *148:19 0.000268987
58 *600:D *148:35 1.12852e-05
59 *601:D *148:97 0
60 *601:RESET_B *567:S 2.69612e-06
61 *601:RESET_B *148:97 8.29187e-05
62 *608:D *148:37 0
63 *630:A *148:93 0
64 *643:A *148:35 0.000112284
65 *665:A *567:S 0
66 *665:A *148:97 0
67 *680:A *148:37 0.000111308
68 *60:12 *148:91 0
69 *92:8 *148:91 5.8166e-05
70 *92:12 *148:35 1.31227e-05
71 *92:52 *573:S 0
72 *97:6 *148:35 0.000159059
73 *97:12 *148:35 0.000330451
74 *97:68 *148:21 0.000168157
75 *97:68 *148:35 4.82863e-05
76 *98:16 *548:A 0.000144982
77 *98:16 *148:37 0.000557917
78 *98:16 *148:65 0.000321975
79 *99:117 *568:S 7.10578e-05
80 *100:109 *148:97 0.000100308
81 *101:66 *148:91 0
82 *101:66 *148:93 0
*RES
1 *634:X *148:6 6.88 
2 *148:6 *559:S 2.05 
3 *148:6 *148:19 10.48 
4 *148:19 *148:21 5.625 
5 *148:21 *148:35 11.8193 
6 *148:35 *148:37 8.3925 
7 *148:37 *573:S 6.555 
8 *148:37 *572:S 4.05 
9 *148:35 *148:65 6.9975 
10 *148:65 *568:S 5.1 
11 *148:65 *548:A 8.58 
12 *148:21 *148:91 8.225 
13 *148:91 *148:93 2.145 
14 *148:93 *148:97 4.635 
15 *148:97 *567:S 6.705 
16 *148:97 *570:S 9.225 
17 *148:93 *566:S 3.6 
18 *148:91 *569:S 7.86 
19 *148:19 *562:S 1.6 
*END

*D_NET *149 0.01401
*CONN
*I *554:S I *D sky130_fd_sc_hd__mux2_1
*I *582:S I *D sky130_fd_sc_hd__mux2_1
*I *553:S I *D sky130_fd_sc_hd__mux2_1
*I *583:S I *D sky130_fd_sc_hd__mux2_1
*I *558:S I *D sky130_fd_sc_hd__mux2_1
*I *561:S I *D sky130_fd_sc_hd__mux2_1
*I *560:S I *D sky130_fd_sc_hd__mux2_1
*I *564:S I *D sky130_fd_sc_hd__mux2_1
*I *563:S I *D sky130_fd_sc_hd__mux2_1
*I *557:S I *D sky130_fd_sc_hd__mux2_1
*I *635:X O *D sky130_fd_sc_hd__clkbuf_4
*CAP
1 *554:S 0.000155755
2 *582:S 0
3 *553:S 0.00057931
4 *583:S 0.000629645
5 *558:S 0.000541591
6 *561:S 5.44181e-05
7 *560:S 0
8 *564:S 0
9 *563:S 0.00036979
10 *557:S 9.47723e-05
11 *635:X 0
12 *149:117 0.000716901
13 *149:113 0.000481755
14 *149:49 0.000428957
15 *149:47 0.000403707
16 *149:39 0.000606344
17 *149:24 0.000438038
18 *149:20 0.00109383
19 *149:10 0.0011367
20 *149:6 0.000279101
21 *553:S *510:B 1.61831e-05
22 *553:S *547:D 0.000139231
23 *553:S *156:16 0.000198939
24 *553:S *174:6 4.82863e-05
25 *553:S *174:19 0.000118081
26 *554:S *157:44 0
27 *558:S *519:A 4.9968e-05
28 *558:S *523:B 4.43871e-06
29 *558:S *168:25 4.35348e-05
30 *558:S *168:29 0.000319595
31 *563:S *564:A1 0.000227015
32 *583:S *583:A1 4.99619e-05
33 *149:10 *555:S 4.43871e-06
34 *149:20 *171:10 0
35 *149:39 *541:A 6.10014e-05
36 *149:39 *169:18 0
37 *149:47 *543:B 0
38 *149:47 *166:10 0
39 *149:113 *555:S 6.46783e-05
40 *149:113 *582:A1 0
41 *149:113 *640:A 1.94805e-05
42 *513:A1 *554:S 3.68769e-05
43 *514:A *149:20 0.000360611
44 *514:A *149:24 6.21553e-05
45 *515:A *149:20 9.42334e-05
46 *515:A *149:113 0
47 *517:A *149:10 0.000112123
48 *517:A *149:20 4.5178e-05
49 *518:B1 *149:20 0
50 *518:C1 *149:10 0
51 *522:A *149:24 0.000104619
52 *522:A *149:39 1.2904e-05
53 *524:A1 *149:20 0
54 *524:B1 *557:S 0.000115464
55 *524:B1 *149:20 0.000126334
56 *524:B1 *149:24 7.09999e-05
57 *544:A1 *149:39 4.11281e-05
58 *545:A2 *583:S 0.000223011
59 *545:A2 *149:20 8.40269e-05
60 *545:B1 *149:20 0.000293726
61 *546:D1 *557:S 5.49093e-05
62 *553:A0 *553:S 4.92062e-05
63 *557:A0 *149:20 7.23533e-05
64 *560:A1 *563:S 2.32597e-05
65 *560:A1 *149:49 0.000163199
66 *561:A0 *561:S 8.57024e-05
67 *561:A1 *561:S 1.60203e-05
68 *561:A1 *149:47 0.000187381
69 *564:A0 *149:47 7.35813e-05
70 *587:D *553:S 4.66108e-05
71 *588:RESET_B *149:113 3.9442e-05
72 *589:CLK *553:S 0.000313852
73 *589:CLK *554:S 0.0001855
74 *589:CLK *149:117 0.000223156
75 *592:D *558:S 0.000352161
76 *616:CLK *553:S 1.0063e-05
77 *616:D *149:113 0
78 *616:RESET_B *553:S 2.85434e-05
79 *617:CLK *149:20 8.26527e-05
80 *617:D *583:S 1.04217e-05
81 *636:A *553:S 0.000137571
82 *638:A *553:S 0.000132968
83 *650:A *583:S 7.28255e-05
84 *93:77 *149:39 0
85 *93:77 *149:47 0
86 *95:51 *553:S 0.000159747
87 *98:92 *149:10 2.24423e-05
88 *98:92 *149:113 4.40812e-05
89 *98:120 *554:S 0.000141606
90 *98:120 *149:113 5.6369e-05
91 *101:10 *149:39 6.55406e-05
*RES
1 *635:X *149:6 3.6 
2 *149:6 *149:10 3.89 
3 *149:10 *149:20 12.47 
4 *149:20 *149:24 2.8125 
5 *149:24 *557:S 5.8125 
6 *149:24 *149:39 6.3125 
7 *149:39 *149:47 10.3 
8 *149:47 *149:49 1.485 
9 *149:49 *563:S 7.18 
10 *149:49 *564:S 1.6 
11 *149:47 *560:S 1.6 
12 *149:39 *561:S 2.74 
13 *149:20 *558:S 17.755 
14 *149:10 *583:S 10.27 
15 *149:6 *149:113 6.185 
16 *149:113 *149:117 2.535 
17 *149:117 *553:S 18.5 
18 *149:117 *582:S 1.6 
19 *149:113 *554:S 9.065 
*END

*D_NET *150 0.0133247
*CONN
*I *555:S I *D sky130_fd_sc_hd__mux2_1
*I *635:A I *D sky130_fd_sc_hd__clkbuf_4
*I *556:S I *D sky130_fd_sc_hd__mux2_1
*I *581:S I *D sky130_fd_sc_hd__mux2_1
*I *565:S I *D sky130_fd_sc_hd__mux2_1
*I *571:S I *D sky130_fd_sc_hd__mux2_1
*I *634:A I *D sky130_fd_sc_hd__clkbuf_4
*I *636:X O *D sky130_fd_sc_hd__buf_2
*CAP
1 *555:S 0.000551477
2 *635:A 3.38389e-05
3 *556:S 0.000161254
4 *581:S 0
5 *565:S 0.000527571
6 *571:S 0.000571529
7 *634:A 0.000120146
8 *636:X 0.00053862
9 *150:97 0.000651645
10 *150:77 0.000270949
11 *150:45 0.00148164
12 *150:43 0.000769755
13 *150:24 0.000664182
14 *150:12 0.000871463
15 *555:S *511:B 3.94429e-05
16 *555:S *555:A1 3.00381e-05
17 *556:S *170:10 0.000312618
18 *565:S *627:A 0.000180195
19 *150:12 *582:A1 0.000265924
20 *150:12 *157:42 6.07575e-06
21 *150:43 *505:B 0.000122331
22 *150:43 *173:14 3.83041e-05
23 *150:45 *173:14 8.65961e-05
24 *150:77 *553:A1 6.10014e-05
25 *150:77 *156:16 0.000176629
26 *150:77 *173:14 0.00011741
27 *507:A *556:S 0
28 *513:A2 *555:S 0.00012657
29 *513:B1 *555:S 1.12578e-05
30 *513:B2 *555:S 0.000286757
31 *515:A *555:S 1.73877e-05
32 *515:A *150:43 8.23457e-05
33 *518:A1 *150:97 2.20732e-05
34 *518:B1 *635:A 4.00541e-06
35 *518:B1 *150:97 5.0751e-05
36 *518:C1 *555:S 4.75576e-05
37 *527:A *565:S 0.000130664
38 *530:B2 *565:S 9.70218e-06
39 *545:A1 *150:43 0.000120945
40 *545:A3 *150:24 0
41 *545:C1 *634:A 4.82919e-05
42 *546:A1 *150:12 0
43 *546:A1 *150:24 9.50342e-06
44 *546:A2 *150:24 0.000311288
45 *546:A2 *150:97 0.000230435
46 *546:B1 *150:24 1.17409e-05
47 *546:C1 *634:A 0.000183036
48 *546:C1 *150:24 6.69108e-05
49 *546:D1 *634:A 0
50 *546:D1 *150:24 7.61941e-05
51 *547:B *150:43 0.00016063
52 *565:A0 *565:S 8.52883e-05
53 *568:A0 *571:S 0.000200615
54 *568:A1 *571:S 0.000201503
55 *568:S *571:S 0.000123225
56 *588:D *150:12 0.000166805
57 *588:RESET_B *150:12 0
58 *590:D *556:S 0.000122337
59 *616:D *150:12 0.000118438
60 *636:A *150:12 3.64998e-06
61 *636:A *150:24 0.000138544
62 *641:A *150:12 0
63 *672:A *150:12 0
64 *98:88 *555:S 0.000197269
65 *99:14 *571:S 4.38036e-05
66 *99:27 *571:S 1.1392e-05
67 *99:27 *150:45 5.28702e-05
68 *99:40 *150:45 9.13777e-05
69 *99:53 *150:43 1.17409e-05
70 *99:53 *150:45 5.03301e-05
71 *99:55 *150:43 2.34602e-05
72 *99:75 *150:43 0.000312267
73 *99:117 *571:S 0.000641951
74 *149:10 *555:S 4.43871e-06
75 *149:113 *555:S 6.46783e-05
*RES
1 *636:X *150:12 15.68 
2 *150:12 *150:24 8.435 
3 *150:24 *634:A 6.195 
4 *150:24 *150:43 8.945 
5 *150:43 *150:45 6.315 
6 *150:45 *571:S 13.36 
7 *150:45 *565:S 14.12 
8 *150:43 *150:77 7.675 
9 *150:77 *581:S 1.6 
10 *150:77 *556:S 5.635 
11 *150:12 *150:97 2.175 
12 *150:97 *635:A 2.215 
13 *150:97 *555:S 16.445 
*END

*D_NET *151 0.00373223
*CONN
*I *666:A I *D sky130_fd_sc_hd__dlygate4sd3_1
*I *577:C1 I *D sky130_fd_sc_hd__o211a_1
*I *575:A I *D sky130_fd_sc_hd__or3_1
*I *574:B1 I *D sky130_fd_sc_hd__o21ai_1
*I *611:Q O *D sky130_fd_sc_hd__dfrtp_1
*CAP
1 *666:A 0.000702814
2 *577:C1 2.08177e-05
3 *575:A 0
4 *574:B1 2.50715e-05
5 *611:Q 0
6 *151:20 0.000304167
7 *151:12 0.000491968
8 *151:4 0.000894869
9 *574:B1 *574:A1 9.91257e-05
10 *577:C1 *639:A 2.20695e-05
11 *666:A *627:A 0
12 *666:A *628:A 1.59888e-05
13 *666:A *157:17 0
14 *151:12 *639:A 2.00254e-05
15 *151:20 *577:A1 3.38982e-05
16 *151:20 *639:A 4.21973e-05
17 *575:C *574:B1 0.000163199
18 *576:B *151:20 5.63405e-05
19 *577:A2 *151:20 8.88799e-05
20 *578:B *151:20 0
21 *58:12 *151:20 7.30547e-05
22 *94:14 *666:A 1.19928e-05
23 *98:77 *151:12 9.4366e-05
24 *98:77 *151:20 0
25 *103:42 *666:A 0.000199496
26 *103:42 *151:12 9.54469e-05
27 *118:18 *666:A 0.000276441
28 *118:24 *151:12 0
*RES
1 *611:Q *151:4 1.6 
2 *151:4 *151:12 7.645 
3 *151:12 *151:20 8.92 
4 *151:20 *574:B1 3.085 
5 *151:20 *575:A 1.6 
6 *151:12 *577:C1 2.11 
7 *151:4 *666:A 15.785 
*END

*D_NET *152 0.00213307
*CONN
*I *578:A_N I *D sky130_fd_sc_hd__and2b_1
*I *577:B1 I *D sky130_fd_sc_hd__o211a_1
*I *639:A I *D sky130_fd_sc_hd__dlygate4sd3_1
*I *612:Q O *D sky130_fd_sc_hd__dfrtp_1
*CAP
1 *578:A_N 5.03681e-05
2 *577:B1 0
3 *639:A 3.77707e-05
4 *612:Q 0.000330154
5 *152:18 0.000317848
6 *152:10 0.000660599
7 *152:18 *577:A1 5.53249e-06
8 *552:S *152:18 0
9 *577:A2 *639:A 3.26889e-05
10 *577:C1 *639:A 2.20695e-05
11 *579:A *578:A_N 5.83121e-06
12 *580:B *578:A_N 4.80285e-05
13 *612:CLK *152:10 1.83847e-05
14 *612:D *152:10 0
15 *612:RESET_B *152:10 9.11714e-05
16 *613:D *152:10 0
17 *613:D *152:18 0
18 *58:12 *152:18 8.24915e-05
19 *94:27 *152:18 0.000185405
20 *94:105 *152:10 6.01747e-05
21 *98:77 *639:A 0.000122331
22 *118:18 *152:18 0
23 *151:12 *639:A 2.00254e-05
24 *151:20 *639:A 4.21973e-05
*RES
1 *612:Q *152:10 7.935 
2 *152:10 *152:18 7.34 
3 *152:18 *639:A 3.1 
4 *152:18 *577:B1 1.6 
5 *152:10 *578:A_N 4.395 
*END

*D_NET *153 0.000599799
*CONN
*I *659:A I *D sky130_fd_sc_hd__dlygate4sd3_1
*I *613:Q O *D sky130_fd_sc_hd__dfrtp_1
*CAP
1 *659:A 0.000257257
2 *613:Q 0.000257257
3 *603:CLK *659:A 8.52845e-05
4 *603:D *659:A 0
5 *94:103 *659:A 0
*RES
1 *613:Q *659:A 10.77 
*END

*D_NET *154 0.00232303
*CONN
*I *577:A1 I *D sky130_fd_sc_hd__o211a_1
*I *574:A1 I *D sky130_fd_sc_hd__o21ai_1
*I *575:B I *D sky130_fd_sc_hd__or3_1
*I *614:Q O *D sky130_fd_sc_hd__dfrtp_1
*CAP
1 *577:A1 6.88618e-05
2 *574:A1 0.000248561
3 *575:B 2.85641e-05
4 *614:Q 0.000468254
5 *154:14 0.000316106
6 *154:12 0.000576097
7 *154:12 *628:A 8.03844e-05
8 *551:A0 *154:12 6.07575e-06
9 *551:A1 *154:12 3.05295e-05
10 *574:B1 *574:A1 9.91257e-05
11 *575:C *574:A1 0.000104393
12 *575:C *575:B 1.16578e-05
13 *584:D *154:12 0
14 *585:D *154:12 9.5433e-05
15 *58:12 *577:A1 2.7881e-05
16 *94:27 *577:A1 1.32017e-05
17 *94:27 *154:12 0
18 *94:31 *154:12 0
19 *98:8 *154:12 4.82863e-05
20 *98:77 *577:A1 5.20968e-05
21 *103:42 *154:12 8.09021e-06
22 *151:20 *577:A1 3.38982e-05
23 *152:18 *577:A1 5.53249e-06
*RES
1 *614:Q *154:12 12.65 
2 *154:12 *154:14 0.45 
3 *154:14 *575:B 2.05 
4 *154:14 *574:A1 6.295 
5 *154:12 *577:A1 7.235 
*END

*D_NET *155 0.00514633
*CONN
*I *629:A I *D sky130_fd_sc_hd__clkbuf_4
*I *540:A I *D sky130_fd_sc_hd__xor2_1
*I *535:A I *D sky130_fd_sc_hd__or2_1
*I *584:Q O *D sky130_fd_sc_hd__dfrtp_1
*CAP
1 *629:A 0.00015732
2 *540:A 0.000161262
3 *535:A 0
4 *584:Q 3.69588e-05
5 *155:14 0.000629178
6 *155:8 0.000662195
7 *540:A *520:A 0.000122337
8 *629:A *627:A 0.000242127
9 *629:A *156:16 9.58314e-05
10 *629:A *176:12 0.000139238
11 *155:14 *534:B 1.71013e-05
12 *155:14 *627:A 0.00116739
13 *155:14 *161:10 0.000112906
14 *526:A *155:14 0.000139231
15 *534:A *155:14 0
16 *562:A1 *540:A 0.000315527
17 *581:A0 *155:14 0
18 *585:RESET_B *629:A 0.000157804
19 *594:D *155:14 0
20 *597:D *540:A 2.30292e-05
21 *597:D *155:14 0.000163806
22 *615:RESET_B *155:14 0.000129291
23 *102:10 *629:A 3.56184e-05
24 *102:14 *629:A 1.0183e-05
25 *102:14 *155:14 4.28396e-05
26 *102:33 *155:8 4.66108e-05
27 *148:21 *540:A 0.000378802
28 *148:21 *155:14 0.000159741
*RES
1 *584:Q *155:8 4.05 
2 *155:8 *155:14 17.105 
3 *155:14 *535:A 1.6 
4 *155:14 *540:A 6.88 
5 *155:8 *629:A 9.135 
*END

*D_NET *156 0.0113818
*CONN
*I *628:A I *D sky130_fd_sc_hd__clkbuf_4
*I *520:A I *D sky130_fd_sc_hd__nand2_1
*I *542:A I *D sky130_fd_sc_hd__or2_1
*I *519:A I *D sky130_fd_sc_hd__or2_1
*I *541:A I *D sky130_fd_sc_hd__nand2_1
*I *585:Q O *D sky130_fd_sc_hd__dfrtp_1
*CAP
1 *628:A 0.000486088
2 *520:A 0.000415582
3 *542:A 0
4 *519:A 0.000305746
5 *541:A 4.95554e-05
6 *585:Q 0
7 *156:28 0.000959124
8 *156:24 0.000798593
9 *156:16 0.00200051
10 *156:6 0.00187625
11 *519:A *523:B 6.1452e-05
12 *519:A *168:25 0
13 *519:A *169:18 2.24423e-05
14 *520:A *520:B 1.85674e-05
15 *520:A *523:B 3.06427e-05
16 *541:A *169:18 4.70256e-05
17 *156:16 *510:B 5.18305e-05
18 *156:16 *553:A1 0
19 *156:16 *176:12 1.56428e-05
20 *523:A *520:A 4.99619e-05
21 *524:B2 *520:A 8.8266e-05
22 *534:A *156:16 0
23 *536:A2 *156:24 1.2818e-05
24 *536:B1 *156:24 0
25 *536:B1 *156:28 0
26 *536:B2 *156:24 4.40899e-05
27 *540:A *520:A 0.000122337
28 *544:A2 *156:28 0.000614264
29 *544:C1 *520:A 4.71333e-05
30 *546:D1 *156:28 2.96334e-05
31 *547:A_N *156:24 0.000237249
32 *547:A_N *156:28 2.26018e-05
33 *550:A0 *628:A 2.30184e-05
34 *550:A0 *156:16 3.24217e-05
35 *550:S *628:A 0.000122801
36 *551:A0 *628:A 0.000237249
37 *551:S *628:A 0.000239807
38 *553:A0 *156:16 8.09157e-05
39 *553:S *156:16 0.000198939
40 *558:S *519:A 4.9968e-05
41 *585:RESET_B *156:16 5.90539e-05
42 *587:D *156:16 0.000118513
43 *592:CLK *519:A 7.3463e-05
44 *592:CLK *156:28 2.20732e-05
45 *620:A *156:24 2.33338e-05
46 *629:A *156:16 9.58314e-05
47 *666:A *628:A 1.59888e-05
48 *91:10 *156:16 0.000434322
49 *91:10 *156:24 0.000112097
50 *91:36 *156:16 0.000228525
51 *97:98 *520:A 8.60126e-05
52 *97:104 *520:A 9.27255e-06
53 *99:8 *156:16 9.76131e-06
54 *101:118 *519:A 1.71013e-05
55 *103:42 *628:A 6.26658e-05
56 *148:19 *156:16 0.000275333
57 *148:19 *156:24 2.7881e-05
58 *149:39 *541:A 6.10014e-05
59 *150:77 *156:16 0.000176629
60 *154:12 *628:A 8.03844e-05
*RES
1 *585:Q *156:6 3.6 
2 *156:6 *156:16 30.55 
3 *156:16 *156:24 6.935 
4 *156:24 *156:28 8.31 
5 *156:28 *541:A 6.98 
6 *156:28 *519:A 10.685 
7 *156:24 *542:A 1.6 
8 *156:16 *520:A 10.965 
9 *156:6 *628:A 13.215 
*END

*D_NET *157 0.012003
*CONN
*I *512:A I *D sky130_fd_sc_hd__or2_1
*I *511:A I *D sky130_fd_sc_hd__nand2_1
*I *506:A I *D sky130_fd_sc_hd__xor2_1
*I *627:A I *D sky130_fd_sc_hd__buf_2
*I *552:A0 I *D sky130_fd_sc_hd__mux2_1
*I *586:Q O *D sky130_fd_sc_hd__dfrtp_2
*CAP
1 *512:A 0.000159096
2 *511:A 0
3 *506:A 0.00021077
4 *627:A 0.000979972
5 *552:A0 0.000786088
6 *586:Q 0
7 *157:44 0.000456411
8 *157:42 0.00177372
9 *157:17 0.00255426
10 *157:4 0.000991395
11 *506:A *506:B 4.82863e-05
12 *512:A *671:A 0.000163204
13 *157:42 *510:B 1.33285e-05
14 *157:42 *177:12 2.14129e-05
15 *157:44 *177:12 0.000141606
16 *510:A *157:42 0.000160641
17 *513:A2 *506:A 9.50342e-06
18 *513:A2 *157:44 0.000281869
19 *513:B2 *506:A 0
20 *513:B2 *157:44 0
21 *530:B1 *627:A 0
22 *545:A2 *506:A 0
23 *546:A1 *157:42 4.41463e-05
24 *546:A2 *506:A 0
25 *549:A_N *157:42 8.8266e-05
26 *554:S *157:44 0
27 *555:A0 *506:A 0
28 *565:S *627:A 0.000180195
29 *580:A *552:A0 9.03508e-06
30 *586:D *552:A0 9.45943e-05
31 *586:RESET_B *552:A0 3.82009e-05
32 *588:D *157:42 5.0751e-05
33 *589:RESET_B *157:44 0.000100544
34 *597:CLK *627:A 3.17252e-05
35 *622:A *157:42 0.0007284
36 *629:A *627:A 0.000242127
37 *636:A *157:42 0.000354725
38 *666:A *627:A 0
39 *666:A *157:17 0
40 *672:A *157:42 7.35813e-05
41 *92:8 *627:A 1.05476e-05
42 *98:77 *157:42 2.96334e-05
43 *98:92 *506:A 0
44 *98:120 *506:A 0
45 *98:120 *157:44 0
46 *102:8 *627:A 0
47 *102:10 *627:A 0
48 *102:71 *627:A 0
49 *102:71 *157:17 0
50 *102:87 *157:17 0
51 *106:14 *552:A0 1.54061e-06
52 *150:12 *157:42 6.07575e-06
53 *155:14 *627:A 0.00116739
*RES
1 *586:Q *157:4 1.6 
2 *157:4 *552:A0 10.855 
3 *157:4 *157:17 5.165 
4 *157:17 *627:A 25.47 
5 *157:17 *157:42 27.805 
6 *157:42 *157:44 5.97 
7 *157:44 *506:A 6.795 
8 *157:44 *511:A 3.6 
9 *157:42 *512:A 6.465 
*END

*D_NET *158 0.00292593
*CONN
*I *654:A I *D sky130_fd_sc_hd__dlygate4sd3_1
*I *565:A1 I *D sky130_fd_sc_hd__mux2_1
*I *526:B I *D sky130_fd_sc_hd__or2_1
*I *527:B I *D sky130_fd_sc_hd__nand2_1
*I *604:Q O *D sky130_fd_sc_hd__dfrtp_1
*CAP
1 *654:A 7.5859e-05
2 *565:A1 0.000430092
3 *526:B 2.15849e-05
4 *527:B 0
5 *604:Q 8.34775e-05
6 *158:26 0.000505951
7 *158:12 0.000357595
8 *158:6 0.000419488
9 *565:A1 *529:B 7.00889e-06
10 *530:A1 *526:B 5.51926e-05
11 *530:A1 *158:12 2.69068e-05
12 *530:A2 *158:12 0.000128514
13 *530:B2 *565:A1 8.28321e-05
14 *530:B2 *158:12 5.95127e-05
15 *530:C1 *565:A1 0
16 *530:C1 *158:12 1.87982e-05
17 *545:C1 *526:B 2.96334e-05
18 *545:C1 *158:12 0.000120923
19 *565:A0 *565:A1 2.68464e-05
20 *600:CLK *565:A1 7.65251e-05
21 *600:D *565:A1 0.000138277
22 *604:D *565:A1 2.59981e-05
23 *604:D *654:A 3.86607e-05
24 *604:D *158:6 6.77417e-05
25 *604:D *158:12 8.49205e-05
26 *99:14 *654:A 0
27 *100:59 *565:A1 0
28 *100:75 *565:A1 0
29 *100:75 *158:12 4.35931e-05
30 *129:36 *565:A1 0
31 *129:36 *654:A 0
*RES
1 *604:Q *158:6 2.74 
2 *158:6 *158:12 6.6 
3 *158:12 *527:B 1.6 
4 *158:12 *526:B 2.395 
5 *158:6 *158:26 2 
6 *158:26 *565:A1 11.265 
7 *158:26 *654:A 4.98 
*END

*D_NET *159 0.000766269
*CONN
*I *525:B I *D sky130_fd_sc_hd__xor2_1
*I *644:A I *D sky130_fd_sc_hd__dlygate4sd3_1
*I *605:Q O *D sky130_fd_sc_hd__dfrtp_1
*CAP
1 *525:B 0.000243567
2 *644:A 0
3 *605:Q 0.000104698
4 *159:8 0.000348265
5 *159:8 *160:32 0
6 *530:C1 *525:B 2.67193e-05
7 *566:A1 *159:8 0
8 *569:A1 *525:B 0
9 *98:42 *525:B 4.30188e-05
10 *140:47 *525:B 0
11 *148:91 *525:B 0
12 *148:91 *159:8 0
*RES
1 *605:Q *159:8 5.235 
2 *159:8 *644:A 3.6 
3 *159:8 *525:B 7.08 
*END

*D_NET *160 0.00476296
*CONN
*I *529:B I *D sky130_fd_sc_hd__nand2_1
*I *528:B I *D sky130_fd_sc_hd__or2_1
*I *567:A1 I *D sky130_fd_sc_hd__mux2_1
*I *667:A I *D sky130_fd_sc_hd__dlygate4sd3_1
*I *606:Q O *D sky130_fd_sc_hd__dfrtp_1
*CAP
1 *529:B 0.000103407
2 *528:B 0.000161338
3 *567:A1 0.000245915
4 *667:A 0
5 *606:Q 8.76197e-05
6 *160:32 0.000935496
7 *160:14 0.000566651
8 *160:8 0.00107911
9 *529:A *529:B 1.23331e-05
10 *530:C1 *160:32 0
11 *565:A1 *529:B 7.00889e-06
12 *567:A0 *567:A1 3.00381e-05
13 *567:S *567:A1 1.16578e-05
14 *569:A1 *160:32 0.000163992
15 *570:A0 *160:14 5.4256e-05
16 *600:CLK *529:B 3.09233e-05
17 *600:D *529:B 6.55328e-05
18 *601:CLK *160:14 0
19 *601:CLK *160:32 0
20 *601:D *160:32 0
21 *605:RESET_B *160:32 2.03578e-05
22 *609:RESET_B *160:14 0
23 *609:RESET_B *160:32 0
24 *643:A *528:B 0.000196052
25 *665:A *567:A1 9.63998e-05
26 *665:A *160:14 0
27 *92:12 *528:B 0.000143551
28 *92:23 *529:B 0.00011686
29 *92:59 *160:8 5.07419e-05
30 *97:12 *528:B 4.17422e-05
31 *97:12 *529:B 1.0183e-05
32 *97:12 *160:32 2.24336e-05
33 *97:16 *528:B 0.000123225
34 *100:27 *160:32 0
35 *100:47 *160:32 0
36 *100:59 *529:B 0
37 *100:59 *160:32 0
38 *147:14 *160:14 0
39 *148:35 *528:B 0.000386142
40 *159:8 *160:32 0
*RES
1 *606:Q *160:8 4.74 
2 *160:8 *160:14 7.25 
3 *160:14 *667:A 1.6 
4 *160:14 *567:A1 5.845 
5 *160:8 *160:32 11.37 
6 *160:32 *528:B 9.24 
7 *160:32 *529:B 6.195 
*END

*D_NET *161 0.00200101
*CONN
*I *642:A I *D sky130_fd_sc_hd__dlygate4sd3_1
*I *535:B I *D sky130_fd_sc_hd__or2_1
*I *534:B I *D sky130_fd_sc_hd__nand2_1
*I *600:Q O *D sky130_fd_sc_hd__dfrtp_1
*CAP
1 *642:A 3.16261e-05
2 *535:B 0
3 *534:B 0.00014746
4 *600:Q 4.71787e-05
5 *161:10 0.000251706
6 *161:6 0.000183051
7 *547:A_N *534:B 9.2741e-05
8 *597:D *161:10 9.37731e-05
9 *607:RESET_B *642:A 3.57349e-05
10 *607:RESET_B *161:6 0.000158066
11 *607:RESET_B *161:10 8.35683e-05
12 *620:A *534:B 0.000162311
13 *100:85 *642:A 5.0751e-05
14 *100:85 *161:6 5.85534e-05
15 *101:66 *534:B 0.000224494
16 *101:66 *161:10 0.00020779
17 *119:10 *642:A 4.21973e-05
18 *148:91 *534:B 0
19 *155:14 *534:B 1.71013e-05
20 *155:14 *161:10 0.000112906
*RES
1 *600:Q *161:6 3.085 
2 *161:6 *161:10 5.675 
3 *161:10 *534:B 7.74 
4 *161:10 *535:B 3.6 
5 *161:6 *642:A 2.74 
*END

*D_NET *162 0.0013297
*CONN
*I *651:A I *D sky130_fd_sc_hd__dlygate4sd3_1
*I *533:B I *D sky130_fd_sc_hd__xor2_1
*I *601:Q O *D sky130_fd_sc_hd__dfrtp_1
*CAP
1 *651:A 0
2 *533:B 8.93486e-05
3 *601:Q 0.00039202
4 *162:12 0.000481369
5 *162:12 *163:25 0
6 *598:CLK *162:12 6.74079e-05
7 *598:D *162:12 0
8 *601:RESET_B *162:12 0
9 *630:A *162:12 1.7396e-05
10 *100:109 *162:12 0
11 *101:53 *162:12 0
12 *101:66 *533:B 0.000187766
13 *101:66 *162:12 4.49498e-05
14 *127:10 *162:12 4.94404e-05
15 *148:91 *533:B 0
16 *148:93 *162:12 0
17 *148:97 *162:12 0
*RES
1 *601:Q *162:12 12.545 
2 *162:12 *533:B 7.745 
3 *162:12 *651:A 1.6 
*END

*D_NET *163 0.00323087
*CONN
*I *564:A1 I *D sky130_fd_sc_hd__mux2_1
*I *531:B I *D sky130_fd_sc_hd__or2_1
*I *532:B I *D sky130_fd_sc_hd__nand2_1
*I *664:A I *D sky130_fd_sc_hd__dlygate4sd3_1
*I *602:Q O *D sky130_fd_sc_hd__dfrtp_1
*CAP
1 *564:A1 0.000128351
2 *531:B 0.000114596
3 *532:B 0
4 *664:A 0.000203743
5 *602:Q 0.000143116
6 *163:25 0.00033881
7 *163:21 0.000514522
8 *163:8 0.000508817
9 *163:25 *165:10 0
10 *163:25 *165:21 0
11 *532:A *531:B 5.4155e-06
12 *536:A1 *531:B 4.99619e-05
13 *536:C1 *163:25 0
14 *560:A1 *564:A1 0.000306291
15 *563:A1 *564:A1 3.40816e-06
16 *563:S *564:A1 0.000227015
17 *598:CLK *664:A 0
18 *598:CLK *163:8 8.69098e-05
19 *598:D *664:A 1.01661e-05
20 *598:RESET_B *664:A 7.06865e-05
21 *598:RESET_B *163:21 2.07184e-05
22 *599:D *564:A1 1.03833e-05
23 *599:D *163:21 0
24 *599:D *163:25 3.45516e-05
25 *97:68 *163:25 4.18603e-06
26 *97:72 *531:B 7.75783e-05
27 *101:31 *163:8 4.66108e-05
28 *101:53 *163:21 0.000242618
29 *101:53 *163:25 1.17309e-05
30 *138:12 *163:25 7.06865e-05
31 *162:12 *163:25 0
*RES
1 *602:Q *163:8 5.43 
2 *163:8 *664:A 7.02 
3 *163:8 *163:21 3.4875 
4 *163:21 *163:25 6.0575 
5 *163:25 *532:B 1.6 
6 *163:25 *531:B 3.79 
7 *163:21 *564:A1 7.9575 
*END

*D_NET *164 0.00079566
*CONN
*I *647:A I *D sky130_fd_sc_hd__dlygate4sd3_1
*I *540:B I *D sky130_fd_sc_hd__xor2_1
*I *597:Q O *D sky130_fd_sc_hd__dfrtp_1
*CAP
1 *647:A 2.1118e-05
2 *540:B 0.000100936
3 *597:Q 0.000157259
4 *164:8 0.000279313
5 *547:A_N *540:B 0
6 *591:RESET_B *647:A 1.83847e-05
7 *591:RESET_B *164:8 6.98204e-05
8 *91:10 *540:B 0.000100536
9 *124:8 *164:8 4.82919e-05
*RES
1 *597:Q *164:8 4.39 
2 *164:8 *540:B 7.745 
3 *164:8 *647:A 2.05 
*END

*D_NET *165 0.00324812
*CONN
*I *542:B I *D sky130_fd_sc_hd__or2_1
*I *541:B I *D sky130_fd_sc_hd__nand2_1
*I *662:A I *D sky130_fd_sc_hd__dlygate4sd3_1
*I *598:Q O *D sky130_fd_sc_hd__dfrtp_1
*CAP
1 *542:B 9.35025e-05
2 *541:B 0.000387158
3 *662:A 5.05351e-05
4 *598:Q 0.000569963
5 *165:21 0.000612838
6 *165:10 0.000752675
7 *542:B *543:B 0
8 *165:10 *543:B 0
9 *165:10 *166:10 0
10 *165:21 *543:B 0
11 *544:A1 *541:B 7.35729e-05
12 *564:A0 *165:10 0
13 *599:D *662:A 1.83847e-05
14 *599:D *165:10 0.000181315
15 *621:A *541:B 8.65961e-05
16 *621:A *542:B 5.02217e-05
17 *646:A *165:10 0
18 *91:10 *542:B 1.71013e-05
19 *93:10 *541:B 8.03844e-05
20 *97:68 *542:B 0
21 *97:85 *541:B 0.000273872
22 *163:25 *165:10 0
23 *163:25 *165:21 0
*RES
1 *598:Q *165:10 11.835 
2 *165:10 *662:A 4.395 
3 *165:10 *165:21 2.145 
4 *165:21 *541:B 11.295 
5 *165:21 *542:B 5.235 
*END

*D_NET *166 0.00193365
*CONN
*I *543:B I *D sky130_fd_sc_hd__xor2_1
*I *645:A I *D sky130_fd_sc_hd__dlygate4sd3_1
*I *599:Q O *D sky130_fd_sc_hd__dfrtp_1
*CAP
1 *543:B 0.000238606
2 *645:A 2.11983e-05
3 *599:Q 0.000420962
4 *166:10 0.000680765
5 *542:B *543:B 0
6 *564:A0 *645:A 4.82919e-05
7 *564:A0 *166:10 1.26548e-05
8 *646:A *166:10 0.000116165
9 *91:10 *543:B 0
10 *93:10 *543:B 0
11 *93:77 *543:B 0
12 *93:81 *166:10 0
13 *93:85 *166:10 0.000191243
14 *97:85 *543:B 0.000180682
15 *97:98 *543:B 2.30797e-05
16 *149:47 *543:B 0
17 *149:47 *166:10 0
18 *165:10 *543:B 0
19 *165:10 *166:10 0
20 *165:21 *543:B 0
*RES
1 *599:Q *166:10 9.885 
2 *166:10 *645:A 4.05 
3 *166:10 *543:B 8.04 
*END

*D_NET *167 0.00048796
*CONN
*I *652:A I *D sky130_fd_sc_hd__dlygate4sd3_1
*I *521:B I *D sky130_fd_sc_hd__xor2_1
*I *594:Q O *D sky130_fd_sc_hd__dfrtp_1
*CAP
1 *652:A 5.06741e-05
2 *521:B 6.84792e-05
3 *594:Q 0
4 *167:4 0.000119153
5 *521:A *521:B 4.25952e-05
6 *521:A *652:A 6.47594e-05
7 *524:C1 *521:B 0
8 *547:A_N *652:A 4.61744e-05
9 *594:CLK *521:B 9.61248e-05
*RES
1 *594:Q *167:4 1.6 
2 *167:4 *521:B 3.265 
3 *167:4 *652:A 6.98 
*END

*D_NET *168 0.00280125
*CONN
*I *519:B I *D sky130_fd_sc_hd__or2_1
*I *520:B I *D sky130_fd_sc_hd__nand2_1
*I *557:A1 I *D sky130_fd_sc_hd__mux2_1
*I *663:A I *D sky130_fd_sc_hd__dlygate4sd3_1
*I *595:Q O *D sky130_fd_sc_hd__dfrtp_1
*CAP
1 *519:B 0
2 *520:B 0.000150025
3 *557:A1 0
4 *663:A 0
5 *595:Q 0.000184074
6 *168:29 0.000301375
7 *168:25 0.000579943
8 *168:8 0.000612667
9 *520:B *523:B 5.09759e-05
10 *168:8 *169:12 6.74079e-05
11 *168:25 *169:12 1.70935e-05
12 *168:25 *169:18 0
13 *168:29 *523:B 0.0001947
14 *519:A *168:25 0
15 *520:A *520:B 1.85674e-05
16 *524:B2 *520:B 4.82919e-05
17 *558:S *168:25 4.35348e-05
18 *558:S *168:29 0.000319595
19 *560:A0 *168:8 0
20 *592:D *168:25 0.000120186
21 *617:RESET_B *168:25 7.1932e-06
22 *101:118 *168:25 8.56227e-05
*RES
1 *595:Q *168:8 7.02 
2 *168:8 *663:A 3.6 
3 *168:8 *168:25 9.83 
4 *168:25 *168:29 3.915 
5 *168:29 *557:A1 1.6 
6 *168:29 *520:B 4.78 
7 *168:25 *519:B 1.6 
*END

*D_NET *169 0.00279827
*CONN
*I *653:A I *D sky130_fd_sc_hd__dlygate4sd3_1
*I *523:B I *D sky130_fd_sc_hd__nand2_1
*I *522:B I *D sky130_fd_sc_hd__or2_1
*I *596:Q O *D sky130_fd_sc_hd__dfrtp_1
*CAP
1 *653:A 0
2 *523:B 0.000216804
3 *522:B 0
4 *596:Q 9.28231e-05
5 *169:18 0.000555186
6 *169:12 0.000431206
7 *514:A *523:B 1.52184e-05
8 *519:A *523:B 6.1452e-05
9 *519:A *169:18 2.24423e-05
10 *520:A *523:B 3.06427e-05
11 *520:B *523:B 5.09759e-05
12 *522:A *523:B 7.07801e-05
13 *522:A *169:18 5.53249e-06
14 *523:A *523:B 5.58436e-05
15 *524:B2 *523:B 2.10034e-05
16 *541:A *169:18 4.70256e-05
17 *558:S *523:B 4.43871e-06
18 *561:A0 *169:12 4.82863e-05
19 *561:A0 *169:18 0.000352161
20 *97:104 *523:B 0.000392292
21 *101:10 *169:18 4.49498e-05
22 *101:118 *169:18 0
23 *149:39 *169:18 0
24 *168:8 *169:12 6.74079e-05
25 *168:25 *169:12 1.70935e-05
26 *168:25 *169:18 0
27 *168:29 *523:B 0.0001947
*RES
1 *596:Q *169:12 7.685 
2 *169:12 *169:18 9.14 
3 *169:18 *522:B 3.6 
4 *169:18 *523:B 10.35 
5 *169:12 *653:A 1.6 
*END

*D_NET *170 0.00317616
*CONN
*I *515:B I *D sky130_fd_sc_hd__xor2_1
*I *656:A I *D sky130_fd_sc_hd__dlygate4sd3_1
*I *590:Q O *D sky130_fd_sc_hd__dfrtp_1
*CAP
1 *515:B 0.0003716
2 *656:A 7.99464e-05
3 *590:Q 0.000252818
4 *170:10 0.000704365
5 *656:A *507:B 0.000160658
6 *507:A *515:B 5.4155e-06
7 *556:S *170:10 0.000312618
8 *581:A0 *170:10 0.000123225
9 *581:A1 *515:B 0
10 *581:A1 *170:10 0.000310394
11 *587:CLK *656:A 4.66108e-05
12 *590:D *170:10 0.000289334
13 *616:D *515:B 8.40269e-05
14 *98:77 *515:B 3.23663e-05
15 *98:77 *656:A 0.000164686
16 *98:77 *170:10 2.75229e-05
17 *98:88 *515:B 0.000210574
*RES
1 *590:Q *170:10 9.07 
2 *170:10 *656:A 7.94 
3 *170:10 *515:B 8.2 
*END

*D_NET *171 0.00555119
*CONN
*I *657:A I *D sky130_fd_sc_hd__dlygate4sd3_1
*I *582:A1 I *D sky130_fd_sc_hd__mux2_1
*I *516:B I *D sky130_fd_sc_hd__nand2_1
*I *517:B I *D sky130_fd_sc_hd__or2_1
*I *591:Q O *D sky130_fd_sc_hd__dfrtp_1
*CAP
1 *657:A 0.000627322
2 *582:A1 0.00026744
3 *516:B 0.000120566
4 *517:B 0
5 *591:Q 0.000124658
6 *171:16 0.000298524
7 *171:10 0.000602081
8 *171:6 0.000908663
9 *515:A *582:A1 0.000214535
10 *515:A *171:10 1.0183e-05
11 *515:A *171:16 0.000123225
12 *518:A2 *582:A1 0.00011852
13 *518:B1 *516:B 0.00013521
14 *524:B2 *171:10 0.000137571
15 *545:A2 *516:B 0.000299868
16 *545:A2 *171:16 5.83589e-05
17 *545:A3 *582:A1 0
18 *545:B1 *171:16 0.000194694
19 *545:C1 *582:A1 2.91062e-05
20 *545:C1 *171:10 0.000162325
21 *546:D1 *582:A1 0
22 *546:D1 *171:10 5.93505e-05
23 *557:A0 *657:A 8.44669e-06
24 *591:CLK *657:A 0.000303711
25 *616:D *582:A1 7.23602e-05
26 *617:CLK *171:10 0.000296081
27 *93:38 *657:A 2.05056e-05
28 *93:38 *171:6 8.75256e-05
29 *98:92 *516:B 4.43871e-06
30 *149:20 *171:10 0
31 *149:113 *582:A1 0
32 *150:12 *582:A1 0.000265924
*RES
1 *591:Q *171:6 3.085 
2 *171:6 *171:10 7.205 
3 *171:10 *171:16 5.825 
4 *171:16 *517:B 1.6 
5 *171:16 *516:B 8.975 
6 *171:10 *582:A1 10.125 
7 *171:6 *657:A 10.015 
*END

*D_NET *172 0.00239236
*CONN
*I *583:A1 I *D sky130_fd_sc_hd__mux2_1
*I *514:B I *D sky130_fd_sc_hd__xor2_1
*I *660:A I *D sky130_fd_sc_hd__dlygate4sd3_1
*I *592:Q O *D sky130_fd_sc_hd__dfrtp_1
*CAP
1 *583:A1 0.000180672
2 *514:B 0.000325789
3 *660:A 8.34255e-05
4 *592:Q 0.000136257
5 *172:19 0.000607696
6 *172:8 0.000320917
7 *583:A1 *649:A 6.74079e-05
8 *583:A1 *175:23 0.000140617
9 *514:A *514:B 4.82863e-05
10 *558:A0 *172:8 2.87867e-05
11 *558:A1 *172:8 6.47594e-05
12 *583:A0 *583:A1 0.000131772
13 *583:S *583:A1 4.99619e-05
14 *633:A *583:A1 8.09021e-06
15 *633:A *172:8 0.000122465
16 *633:A *172:19 7.54567e-05
*RES
1 *592:Q *172:8 7.02 
2 *172:8 *660:A 4.74 
3 *172:8 *172:19 2.145 
4 *172:19 *514:B 8.535 
5 *172:19 *583:A1 8.835 
*END

*D_NET *173 0.00220865
*CONN
*I *553:A1 I *D sky130_fd_sc_hd__mux2_1
*I *505:B I *D sky130_fd_sc_hd__xor2_1
*I *661:A I *D sky130_fd_sc_hd__dlygate4sd3_1
*I *615:Q O *D sky130_fd_sc_hd__dfrtp_1
*CAP
1 *553:A1 0.000311146
2 *505:B 4.51136e-05
3 *661:A 0
4 *615:Q 0.000250194
5 *173:14 0.000158009
6 *173:8 0.000674236
7 *581:A0 *553:A1 4.62396e-05
8 *581:A0 *173:14 7.75325e-05
9 *587:D *553:A1 0
10 *615:D *173:8 9.2741e-05
11 *619:A *553:A1 0
12 *99:53 *505:B 4.16353e-05
13 *99:53 *173:14 5.34747e-05
14 *99:55 *505:B 3.26889e-05
15 *150:43 *505:B 0.000122331
16 *150:43 *173:14 3.83041e-05
17 *150:45 *173:14 8.65961e-05
18 *150:77 *553:A1 6.10014e-05
19 *150:77 *173:14 0.00011741
20 *156:16 *553:A1 0
*RES
1 *615:Q *173:8 6.465 
2 *173:8 *173:14 5.795 
3 *173:14 *661:A 1.6 
4 *173:14 *505:B 3.1 
5 *173:8 *553:A1 9.06 
*END

*D_NET *174 0.00285107
*CONN
*I *640:A I *D sky130_fd_sc_hd__dlygate4sd3_1
*I *554:A1 I *D sky130_fd_sc_hd__mux2_1
*I *507:B I *D sky130_fd_sc_hd__xor2_1
*I *616:Q O *D sky130_fd_sc_hd__dfrtp_1
*CAP
1 *640:A 9.56184e-05
2 *554:A1 4.29437e-05
3 *507:B 9.71683e-05
4 *616:Q 3.38751e-05
5 *174:19 0.000844913
6 *174:6 0.000837395
7 *507:B *547:D 9.87538e-05
8 *553:S *174:6 4.82863e-05
9 *553:S *174:19 0.000118081
10 *554:A0 *554:A1 2.11084e-05
11 *588:RESET_B *640:A 0
12 *616:CLK *174:19 6.76605e-05
13 *656:A *507:B 0.000160658
14 *672:A *174:19 5.36384e-06
15 *95:40 *507:B 0.000137571
16 *98:77 *507:B 8.53177e-05
17 *98:120 *640:A 0.000136877
18 *149:113 *640:A 1.94805e-05
*RES
1 *616:Q *174:6 2.05 
2 *174:6 *507:B 9.275 
3 *174:6 *174:19 8.04 
4 *174:19 *554:A1 2.665 
5 *174:19 *640:A 7.685 
*END

*D_NET *175 0.00246743
*CONN
*I *555:A1 I *D sky130_fd_sc_hd__mux2_1
*I *506:B I *D sky130_fd_sc_hd__xor2_1
*I *649:A I *D sky130_fd_sc_hd__dlygate4sd3_1
*I *617:Q O *D sky130_fd_sc_hd__dfrtp_1
*CAP
1 *555:A1 0.000126771
2 *506:B 0.00029981
3 *649:A 6.92158e-05
4 *617:Q 0
5 *175:23 0.000593395
6 *175:6 0.00023603
7 *555:A1 *511:B 0.000124895
8 *555:A1 *673:A 0.000186099
9 *175:23 *673:A 8.53113e-06
10 *506:A *506:B 4.82863e-05
11 *555:A0 *555:A1 0
12 *555:S *555:A1 3.00381e-05
13 *583:A1 *649:A 6.74079e-05
14 *583:A1 *175:23 0.000140617
15 *633:A *649:A 0.000118527
16 *633:A *175:23 0.000417808
*RES
1 *617:Q *175:6 3.6 
2 *175:6 *649:A 5.43 
3 *175:6 *175:23 5.505 
4 *175:23 *506:B 8.19 
5 *175:23 *555:A1 6.885 
*END

*D_NET *176 0.00252833
*CONN
*I *510:B I *D sky130_fd_sc_hd__xor2_1
*I *675:A I *D sky130_fd_sc_hd__dlygate4sd3_1
*I *587:Q O *D sky130_fd_sc_hd__dfrtp_1
*CAP
1 *510:B 0.000548551
2 *675:A 0
3 *587:Q 5.98241e-05
4 *176:12 0.000608375
5 *510:B *670:A 0
6 *510:A *510:B 0.000123225
7 *553:A0 *510:B 0.000279787
8 *553:S *510:B 1.61831e-05
9 *585:RESET_B *510:B 0.000124895
10 *619:A *510:B 0
11 *622:A *510:B 0.000161529
12 *629:A *176:12 0.000139238
13 *91:36 *510:B 0
14 *98:77 *510:B 0.000309612
15 *102:10 *176:12 7.63125e-05
16 *156:16 *510:B 5.18305e-05
17 *156:16 *176:12 1.56428e-05
18 *157:42 *510:B 1.33285e-05
*RES
1 *587:Q *176:12 7.685 
2 *176:12 *675:A 1.6 
3 *176:12 *510:B 17.435 
*END

*D_NET *177 0.00107702
*CONN
*I *671:A I *D sky130_fd_sc_hd__dlygate4sd3_1
*I *509:B I *D sky130_fd_sc_hd__nand2_1
*I *508:B I *D sky130_fd_sc_hd__or2_1
*I *588:Q O *D sky130_fd_sc_hd__dfrtp_1
*CAP
1 *671:A 8.9253e-05
2 *509:B 9.51264e-05
3 *508:B 0
4 *588:Q 5.97443e-05
5 *177:12 0.000158384
6 *177:6 0.000212255
7 *509:A *509:B 4.82863e-05
8 *512:A *671:A 0.000163204
9 *513:A2 *509:B 1.17409e-05
10 *554:A0 *177:12 7.23602e-05
11 *589:RESET_B *509:B 3.64998e-06
12 *157:42 *177:12 2.14129e-05
13 *157:44 *177:12 0.000141606
*RES
1 *588:Q *177:6 2.395 
2 *177:6 *177:12 5.89 
3 *177:12 *508:B 1.6 
4 *177:12 *509:B 3.1 
5 *177:6 *671:A 3.43 
*END

*D_NET *178 0.00247568
*CONN
*I *512:B I *D sky130_fd_sc_hd__or2_1
*I *511:B I *D sky130_fd_sc_hd__nand2_1
*I *673:A I *D sky130_fd_sc_hd__dlygate4sd3_1
*I *589:Q O *D sky130_fd_sc_hd__dfrtp_1
*CAP
1 *512:B 0.00025118
2 *511:B 0.000167138
3 *673:A 9.32881e-05
4 *589:Q 0
5 *178:8 0.000297881
6 *178:6 0.000288634
7 *513:B2 *511:B 9.9214e-05
8 *513:B2 *512:B 0
9 *513:B2 *673:A 0
10 *555:A1 *511:B 0.000124895
11 *555:A1 *673:A 0.000186099
12 *555:S *511:B 3.94429e-05
13 *633:A *512:B 0.00025631
14 *633:A *673:A 0.000209179
15 *633:A *178:8 9.54469e-05
16 *674:A *511:B 0.000238919
17 *674:A *512:B 9.28188e-05
18 *674:A *178:8 2.67022e-05
19 *175:23 *673:A 8.53113e-06
*RES
1 *589:Q *178:6 3.6 
2 *178:6 *178:8 1.125 
3 *178:8 *673:A 6.45 
4 *178:8 *511:B 7.86 
5 *178:6 *512:B 9.18 
*END

*D_NET *179 0.00128876
*CONN
*I *637:A I *D sky130_fd_sc_hd__dlygate4sd3_1
*I *593:Q O *D sky130_fd_sc_hd__dfrtp_1
*CAP
1 *637:A 0.000388862
2 *593:Q 0.000388862
3 *549:A_N *637:A 0
4 *593:RESET_B *637:A 6.42013e-05
5 *603:D *637:A 0
6 *603:RESET_B *637:A 0.000117559
7 *610:RESET_B *637:A 1.83847e-05
8 *619:A *637:A 0.000150831
9 *102:87 *637:A 0.000160064
*RES
1 *593:Q *637:A 14.49 
*END

*D_NET *180 0.000208981
*CONN
*I *648:A I *D sky130_fd_sc_hd__dlygate4sd3_1
*I *603:Q O *D sky130_fd_sc_hd__dfrtp_1
*CAP
1 *648:A 0.00010449
2 *603:Q 0.00010449
*RES
1 *603:Q *648:A 4.685 
*END

*D_NET *181 0.000677636
*CONN
*I *670:A I *D sky130_fd_sc_hd__dlygate4sd3_1
*I *610:Q O *D sky130_fd_sc_hd__dfrtp_1
*CAP
1 *670:A 0.000294195
2 *610:Q 0.000294195
3 *510:B *670:A 0
4 *549:A_N *670:A 0
5 *593:RESET_B *670:A 5.83121e-06
6 *610:RESET_B *670:A 8.34138e-05
7 *619:A *670:A 0
8 *622:A *670:A 0
*RES
1 *610:Q *670:A 11.01 
*END

*D_NET *182 0.00291829
*CONN
*I *547:D I *D sky130_fd_sc_hd__and4b_1
*I *618:Q O *D sky130_fd_sc_hd__dfrtp_1
*CAP
1 *547:D 0.000692246
2 *618:Q 0.000692246
3 *507:B *547:D 9.87538e-05
4 *545:A1 *547:D 2.20665e-05
5 *546:C1 *547:D 0.000137578
6 *547:C *547:D 7.23533e-05
7 *553:S *547:D 0.000139231
8 *556:A1 *547:D 0
9 *618:RESET_B *547:D 0.000262252
10 *636:A *547:D 0.000418095
11 *95:36 *547:D 0.000137578
12 *95:40 *547:D 0.000245893
13 *98:77 *547:D 0
*RES
1 *618:Q *547:D 24.1537 
*END
