*SPEF "ieee 1481-1999"
*DESIGN "rng_top"
*DATE "21:54:18 Thursday March 12, 2026"
*VENDOR "The OpenROAD Project"
*PROGRAM "OpenROAD"
*VERSION "edf00dff99f6c40d67a30c0e22a8191c5d2ed9d6"
*DESIGN_FLOW "NAME_SCOPE LOCAL" "PIN_CAP NONE"
*DIVIDER /
*DELIMITER :
*BUS_DELIMITER []
*T_UNIT 1 NS
*C_UNIT 1 PF
*R_UNIT 1 OHM
*L_UNIT 1 HENRY

*NAME_MAP
*3 clk_i
*4 num_to_send_o[0]
*5 num_to_send_o[1]
*6 num_to_send_o[2]
*7 req_num_i
*8 rst_i
*9 wr_i
*10 _000_
*11 _001_
*12 _002_
*13 _003_
*14 _004_
*15 _005_
*16 _006_
*17 _007_
*18 _008_
*19 _009_
*20 _010_
*21 _011_
*22 _012_
*23 _013_
*24 _014_
*25 _015_
*26 _016_
*27 _017_
*28 _018_
*29 _019_
*30 _020_
*31 _021_
*32 _022_
*33 _023_
*34 _024_
*35 _025_
*36 _026_
*37 _027_
*38 _028_
*39 _029_
*40 _030_
*41 _031_
*42 _032_
*43 _033_
*44 _034_
*45 _035_
*46 _036_
*47 _037_
*48 _038_
*49 _039_
*50 _040_
*51 _041_
*52 _042_
*53 _043_
*54 _044_
*55 _045_
*56 _046_
*57 _047_
*58 _048_
*59 _049_
*60 _050_
*61 _051_
*62 _052_
*63 _053_
*64 _054_
*65 _055_
*66 _056_
*67 _057_
*68 _058_
*69 _059_
*70 _060_
*71 _061_
*72 _062_
*73 _063_
*74 _064_
*75 _065_
*76 _066_
*77 _067_
*78 _068_
*79 _069_
*80 _070_
*81 _071_
*82 _072_
*83 _073_
*84 _074_
*85 _075_
*86 _076_
*87 _077_
*88 _078_
*89 clknet_0_clk_i
*90 clknet_2_0__leaf_clk_i
*91 clknet_2_1__leaf_clk_i
*92 clknet_2_2__leaf_clk_i
*93 clknet_2_3__leaf_clk_i
*94 net1
*95 net10
*96 net11
*97 net12
*98 net13
*99 net14
*100 net15
*101 net16
*102 net17
*103 net18
*104 net19
*105 net2
*106 net20
*107 net21
*108 net22
*109 net23
*110 net24
*111 net25
*112 net26
*113 net27
*114 net28
*115 net29
*116 net3
*117 net30
*118 net31
*119 net32
*120 net33
*121 net34
*122 net35
*123 net36
*124 net37
*125 net38
*126 net39
*127 net4
*128 net40
*129 net41
*130 net42
*131 net43
*132 net44
*133 net45
*134 net46
*135 net47
*136 net48
*137 net49
*138 net5
*139 net50
*140 net51
*141 net52
*142 net53
*143 net54
*144 net55
*145 net56
*146 net57
*147 net58
*148 net6
*149 net7
*150 net8
*151 net9
*152 num_i_bar\[0\]
*153 num_i_bar\[1\]
*154 num_i_bar\[2\]
*155 req_num
*156 rng_rd\.cache\[0\]
*157 rng_rd\.cache\[1\]
*158 rng_rd\.cache\[2\]
*159 rng_rd\.ram_1\[0\]
*160 rng_rd\.ram_1\[1\]
*161 rng_rd\.ram_1\[2\]
*162 rng_rd\.ram_2\[0\]
*163 rng_rd\.ram_2\[1\]
*164 rng_rd\.ram_2\[2\]
*165 rng_rd\.ram_3\[0\]
*166 rng_rd\.ram_3\[1\]
*167 rng_rd\.ram_3\[2\]
*168 rng_rd\.ram_4\[0\]
*169 rng_rd\.ram_4\[1\]
*170 rng_rd\.ram_4\[2\]
*171 rng_rd\.ram_5\[0\]
*172 rng_rd\.ram_5\[1\]
*173 rng_rd\.ram_5\[2\]
*174 rng_rd\.ram_6\[0\]
*175 rng_rd\.ram_6\[1\]
*176 rng_rd\.ram_6\[2\]
*177 rng_rd\.ram_7\[0\]
*178 rng_rd\.ram_7\[1\]
*179 rng_rd\.ram_7\[2\]
*180 rng_rd\.req_num
*181 rng_rd\.wr_ff1
*182 rng_rd\.wr_ff2
*183 rng_rd\.wr_ff2_d
*184 rng_rd\.wr_pulse
*185 FILLER_0_109
*186 FILLER_0_111
*187 FILLER_0_113
*188 FILLER_0_15
*189 FILLER_0_27
*190 FILLER_0_29
*191 FILLER_0_3
*192 FILLER_0_41
*193 FILLER_0_53
*194 FILLER_0_55
*195 FILLER_0_57
*196 FILLER_0_69
*197 FILLER_0_81
*198 FILLER_0_83
*199 FILLER_0_85
*200 FILLER_0_97
*201 FILLER_10_104
*202 FILLER_10_122
*203 FILLER_10_124
*204 FILLER_10_15
*205 FILLER_10_19
*206 FILLER_10_29
*207 FILLER_10_3
*208 FILLER_10_41
*209 FILLER_10_53
*210 FILLER_10_55
*211 FILLER_10_82
*212 FILLER_10_85
*213 FILLER_10_92
*214 FILLER_11_104
*215 FILLER_11_121
*216 FILLER_11_15
*217 FILLER_11_24
*218 FILLER_11_3
*219 FILLER_11_54
*220 FILLER_11_91
*221 FILLER_12_123
*222 FILLER_12_23
*223 FILLER_12_27
*224 FILLER_12_29
*225 FILLER_12_33
*226 FILLER_12_82
*227 FILLER_12_85
*228 FILLER_12_97
*229 FILLER_13_113
*230 FILLER_13_122
*231 FILLER_13_124
*232 FILLER_13_28
*233 FILLER_13_30
*234 FILLER_13_57
*235 FILLER_13_59
*236 FILLER_13_7
*237 FILLER_14_121
*238 FILLER_14_22
*239 FILLER_14_26
*240 FILLER_14_3
*241 FILLER_14_44
*242 FILLER_14_58
*243 FILLER_14_67
*244 FILLER_14_71
*245 FILLER_14_80
*246 FILLER_14_99
*247 FILLER_15_109
*248 FILLER_15_111
*249 FILLER_15_113
*250 FILLER_15_20
*251 FILLER_15_24
*252 FILLER_15_28
*253 FILLER_15_3
*254 FILLER_15_46
*255 FILLER_15_48
*256 FILLER_15_54
*257 FILLER_15_57
*258 FILLER_15_66
*259 FILLER_15_70
*260 FILLER_16_107
*261 FILLER_16_11
*262 FILLER_16_119
*263 FILLER_16_123
*264 FILLER_16_27
*265 FILLER_16_3
*266 FILLER_16_56
*267 FILLER_16_64
*268 FILLER_16_73
*269 FILLER_16_81
*270 FILLER_16_83
*271 FILLER_16_85
*272 FILLER_16_96
*273 FILLER_16_98
*274 FILLER_17_107
*275 FILLER_17_111
*276 FILLER_17_113
*277 FILLER_17_19
*278 FILLER_17_40
*279 FILLER_17_65
*280 FILLER_17_7
*281 FILLER_17_83
*282 FILLER_17_9
*283 FILLER_18_100
*284 FILLER_18_112
*285 FILLER_18_124
*286 FILLER_18_23
*287 FILLER_18_27
*288 FILLER_18_38
*289 FILLER_18_59
*290 FILLER_18_63
*291 FILLER_19_105
*292 FILLER_19_109
*293 FILLER_19_111
*294 FILLER_19_113
*295 FILLER_19_51
*296 FILLER_19_55
*297 FILLER_19_66
*298 FILLER_19_68
*299 FILLER_19_78
*300 FILLER_19_82
*301 FILLER_19_93
*302 FILLER_1_105
*303 FILLER_1_109
*304 FILLER_1_111
*305 FILLER_1_113
*306 FILLER_1_16
*307 FILLER_1_3
*308 FILLER_1_40
*309 FILLER_1_52
*310 FILLER_1_57
*311 FILLER_1_69
*312 FILLER_1_7
*313 FILLER_1_81
*314 FILLER_1_93
*315 FILLER_20_113
*316 FILLER_20_3
*317 FILLER_20_38
*318 FILLER_20_42
*319 FILLER_20_7
*320 FILLER_21_111
*321 FILLER_21_113
*322 FILLER_21_15
*323 FILLER_21_3
*324 FILLER_21_32
*325 FILLER_21_36
*326 FILLER_21_46
*327 FILLER_21_57
*328 FILLER_21_59
*329 FILLER_21_76
*330 FILLER_21_78
*331 FILLER_21_87
*332 FILLER_21_99
*333 FILLER_22_109
*334 FILLER_22_111
*335 FILLER_22_113
*336 FILLER_22_15
*337 FILLER_22_27
*338 FILLER_22_29
*339 FILLER_22_3
*340 FILLER_22_37
*341 FILLER_22_42
*342 FILLER_22_54
*343 FILLER_22_57
*344 FILLER_22_69
*345 FILLER_22_81
*346 FILLER_22_83
*347 FILLER_22_85
*348 FILLER_22_97
*349 FILLER_2_109
*350 FILLER_2_26
*351 FILLER_2_3
*352 FILLER_2_37
*353 FILLER_2_49
*354 FILLER_2_5
*355 FILLER_2_61
*356 FILLER_2_73
*357 FILLER_2_81
*358 FILLER_2_83
*359 FILLER_2_85
*360 FILLER_2_97
*361 FILLER_3_109
*362 FILLER_3_111
*363 FILLER_3_121
*364 FILLER_3_3
*365 FILLER_3_51
*366 FILLER_3_55
*367 FILLER_3_57
*368 FILLER_3_69
*369 FILLER_3_81
*370 FILLER_4_32
*371 FILLER_4_53
*372 FILLER_4_65
*373 FILLER_5_3
*374 FILLER_5_57
*375 FILLER_5_7
*376 FILLER_5_86
*377 FILLER_5_9
*378 FILLER_6_100
*379 FILLER_6_27
*380 FILLER_6_3
*381 FILLER_6_49
*382 FILLER_6_56
*383 FILLER_6_78
*384 FILLER_6_82
*385 FILLER_6_94
*386 FILLER_7_111
*387 FILLER_7_122
*388 FILLER_7_124
*389 FILLER_7_34
*390 FILLER_7_50
*391 FILLER_7_54
*392 FILLER_7_57
*393 FILLER_7_6
*394 FILLER_7_61
*395 FILLER_8_122
*396 FILLER_8_124
*397 FILLER_8_23
*398 FILLER_8_27
*399 FILLER_8_29
*400 FILLER_8_56
*401 FILLER_8_60
*402 FILLER_8_82
*403 FILLER_8_85
*404 FILLER_8_94
*405 FILLER_9_102
*406 FILLER_9_113
*407 FILLER_9_115
*408 FILLER_9_124
*409 FILLER_9_15
*410 FILLER_9_3
*411 FILLER_9_57
*412 FILLER_9_69
*413 FILLER_9_73
*414 FILLER_9_75
*415 FILLER_9_84
*416 FILLER_9_92
*417 PHY_EDGE_ROW_0_Left_23
*418 PHY_EDGE_ROW_0_Right_0
*419 PHY_EDGE_ROW_10_Left_33
*420 PHY_EDGE_ROW_10_Right_10
*421 PHY_EDGE_ROW_11_Left_34
*422 PHY_EDGE_ROW_11_Right_11
*423 PHY_EDGE_ROW_12_Left_35
*424 PHY_EDGE_ROW_12_Right_12
*425 PHY_EDGE_ROW_13_Left_36
*426 PHY_EDGE_ROW_13_Right_13
*427 PHY_EDGE_ROW_14_Left_37
*428 PHY_EDGE_ROW_14_Right_14
*429 PHY_EDGE_ROW_15_Left_38
*430 PHY_EDGE_ROW_15_Right_15
*431 PHY_EDGE_ROW_16_Left_39
*432 PHY_EDGE_ROW_16_Right_16
*433 PHY_EDGE_ROW_17_Left_40
*434 PHY_EDGE_ROW_17_Right_17
*435 PHY_EDGE_ROW_18_Left_41
*436 PHY_EDGE_ROW_18_Right_18
*437 PHY_EDGE_ROW_19_Left_42
*438 PHY_EDGE_ROW_19_Right_19
*439 PHY_EDGE_ROW_1_Left_24
*440 PHY_EDGE_ROW_1_Right_1
*441 PHY_EDGE_ROW_20_Left_43
*442 PHY_EDGE_ROW_20_Right_20
*443 PHY_EDGE_ROW_21_Left_44
*444 PHY_EDGE_ROW_21_Right_21
*445 PHY_EDGE_ROW_22_Left_45
*446 PHY_EDGE_ROW_22_Right_22
*447 PHY_EDGE_ROW_2_Left_25
*448 PHY_EDGE_ROW_2_Right_2
*449 PHY_EDGE_ROW_3_Left_26
*450 PHY_EDGE_ROW_3_Right_3
*451 PHY_EDGE_ROW_4_Left_27
*452 PHY_EDGE_ROW_4_Right_4
*453 PHY_EDGE_ROW_5_Left_28
*454 PHY_EDGE_ROW_5_Right_5
*455 PHY_EDGE_ROW_6_Left_29
*456 PHY_EDGE_ROW_6_Right_6
*457 PHY_EDGE_ROW_7_Left_30
*458 PHY_EDGE_ROW_7_Right_7
*459 PHY_EDGE_ROW_8_Left_31
*460 PHY_EDGE_ROW_8_Right_8
*461 PHY_EDGE_ROW_9_Left_32
*462 PHY_EDGE_ROW_9_Right_9
*463 TAP_TAPCELL_ROW_0_46
*464 TAP_TAPCELL_ROW_0_47
*465 TAP_TAPCELL_ROW_0_48
*466 TAP_TAPCELL_ROW_0_49
*467 TAP_TAPCELL_ROW_10_68
*468 TAP_TAPCELL_ROW_10_69
*469 TAP_TAPCELL_ROW_11_70
*470 TAP_TAPCELL_ROW_11_71
*471 TAP_TAPCELL_ROW_12_72
*472 TAP_TAPCELL_ROW_12_73
*473 TAP_TAPCELL_ROW_13_74
*474 TAP_TAPCELL_ROW_13_75
*475 TAP_TAPCELL_ROW_14_76
*476 TAP_TAPCELL_ROW_14_77
*477 TAP_TAPCELL_ROW_15_78
*478 TAP_TAPCELL_ROW_15_79
*479 TAP_TAPCELL_ROW_16_80
*480 TAP_TAPCELL_ROW_16_81
*481 TAP_TAPCELL_ROW_17_82
*482 TAP_TAPCELL_ROW_17_83
*483 TAP_TAPCELL_ROW_18_84
*484 TAP_TAPCELL_ROW_18_85
*485 TAP_TAPCELL_ROW_19_86
*486 TAP_TAPCELL_ROW_19_87
*487 TAP_TAPCELL_ROW_1_50
*488 TAP_TAPCELL_ROW_1_51
*489 TAP_TAPCELL_ROW_20_88
*490 TAP_TAPCELL_ROW_20_89
*491 TAP_TAPCELL_ROW_21_90
*492 TAP_TAPCELL_ROW_21_91
*493 TAP_TAPCELL_ROW_22_92
*494 TAP_TAPCELL_ROW_22_93
*495 TAP_TAPCELL_ROW_22_94
*496 TAP_TAPCELL_ROW_22_95
*497 TAP_TAPCELL_ROW_2_52
*498 TAP_TAPCELL_ROW_2_53
*499 TAP_TAPCELL_ROW_3_54
*500 TAP_TAPCELL_ROW_3_55
*501 TAP_TAPCELL_ROW_4_56
*502 TAP_TAPCELL_ROW_4_57
*503 TAP_TAPCELL_ROW_5_58
*504 TAP_TAPCELL_ROW_5_59
*505 TAP_TAPCELL_ROW_6_60
*506 TAP_TAPCELL_ROW_6_61
*507 TAP_TAPCELL_ROW_7_62
*508 TAP_TAPCELL_ROW_7_63
*509 TAP_TAPCELL_ROW_8_64
*510 TAP_TAPCELL_ROW_8_65
*511 TAP_TAPCELL_ROW_9_66
*512 TAP_TAPCELL_ROW_9_67
*513 _079_
*514 _080_
*515 _081_
*516 _082_
*517 _083_
*518 _084_
*519 _085_
*520 _086_
*521 _087_
*522 _088_
*523 _089_
*524 _090_
*525 _091_
*526 _092_
*527 _093_
*528 _094_
*529 _095_
*530 _096_
*531 _097_
*532 _098_
*533 _099_
*534 _100_
*535 _101_
*536 _102_
*537 _103_
*538 _104_
*539 _105_
*540 _106_
*541 _107_
*542 _108_
*543 _109_
*544 _110_
*545 _111_
*546 _112_
*547 _113_
*548 _114_
*549 _115_
*550 _116_
*551 _117_
*552 _118_
*553 _119_
*554 _120_
*555 _121_
*556 _122_
*557 _123_
*558 _124_
*559 _125_
*560 _126_
*561 _127_
*562 _128_
*563 _129_
*564 _130_
*565 _131_
*566 _132_
*567 _133_
*568 _134_
*569 _135_
*570 _136_
*571 _137_
*572 _138_
*573 _139_
*574 _140_
*575 _141_
*576 _142_
*577 _143_
*578 _144_
*579 _145_
*580 _146_
*581 _147_
*582 _148_
*583 _149_
*584 _150_
*585 _151_
*586 _152_
*587 _153_
*588 _154_
*589 _155_
*590 _156_
*591 _157_
*592 _158_
*593 _159_
*594 _160_
*595 _161_
*596 _162_
*597 _163_
*598 _164_
*599 _165_
*600 _166_
*601 _167_
*602 _168_
*603 _169_
*604 _170_
*605 _171_
*606 _172_
*607 _173_
*608 _174_
*609 _175_
*610 _176_
*611 _177_
*612 _178_
*613 _179_
*614 _180_
*615 _181_
*616 _182_
*617 _183_
*618 _184_
*619 _185_
*620 _186_
*621 _187_
*622 _188_
*623 _189_
*624 _190_
*625 _191_
*626 _192_
*627 _193_
*628 clkbuf_0_clk_i
*629 clkbuf_2_0__f_clk_i
*630 clkbuf_2_1__f_clk_i
*631 clkbuf_2_2__f_clk_i
*632 clkbuf_2_3__f_clk_i
*633 clkload0
*634 clkload1
*635 fanout10
*636 fanout11
*637 fanout12
*638 fanout13
*639 fanout14
*640 fanout15
*641 fanout16
*642 fanout17
*643 fanout7
*644 fanout8
*645 fanout9
*646 hold1
*647 hold10
*648 hold11
*649 hold12
*650 hold13
*651 hold14
*652 hold15
*653 hold16
*654 hold17
*655 hold18
*656 hold19
*657 hold2
*658 hold20
*659 hold21
*660 hold22
*661 hold23
*662 hold24
*663 hold25
*664 hold26
*665 hold27
*666 hold28
*667 hold29
*668 hold3
*669 hold30
*670 hold31
*671 hold32
*672 hold33
*673 hold34
*674 hold35
*675 hold36
*676 hold37
*677 hold38
*678 hold39
*679 hold4
*680 hold40
*681 hold41
*682 hold5
*683 hold6
*684 hold7
*685 hold8
*686 hold9
*687 input1
*688 input2
*689 input3
*690 output4
*691 output5
*692 output6

*PORTS
clk_i I
num_to_send_o[0] O
num_to_send_o[1] O
num_to_send_o[2] O
req_num_i I
rst_i I
wr_i I

*D_NET *3 0.00727067
*CONN
*P clk_i I
*I *628:A I *D sky130_fd_sc_hd__clkbuf_16
*CAP
1 clk_i 0.00313593
2 *628:A 0.00313593
3 *628:A num_to_send_o[2] 0
4 *628:A *535:B 0
5 *628:A *537:A 3.25078e-05
6 *628:A *539:C1 0
7 *628:A *558:A_N 0.000307878
8 *628:A *558:C 0.000187752
9 *628:A *573:A1 0
10 *628:A *577:S 0
11 *628:A *603:D 0.000367403
12 *628:A *610:RESET_B 0
13 *628:A *643:A 0
14 *628:A *97:29 0
15 *628:A *97:82 0
16 *628:A *101:22 0
17 *628:A *164:10 0.000103267
18 *628:A *165:12 0
*RES
1 clk_i *628:A 41.34 
*END

*D_NET *4 0.000698819
*CONN
*P num_to_send_o[0] O
*I *690:X O *D sky130_fd_sc_hd__buf_2
*CAP
1 num_to_send_o[0] 0.000321794
2 *690:X 0.000321794
3 num_to_send_o[0] *613:CLK 5.52302e-05
*RES
1 *690:X num_to_send_o[0] 20.891 
*END

*D_NET *5 0.00100059
*CONN
*P num_to_send_o[1] O
*I *691:X O *D sky130_fd_sc_hd__buf_2
*CAP
1 num_to_send_o[1] 0.000500296
2 *691:X 0.000500296
*RES
1 *691:X num_to_send_o[1] 22.9071 
*END

*D_NET *6 0.000743796
*CONN
*P num_to_send_o[2] O
*I *692:X O *D sky130_fd_sc_hd__buf_2
*CAP
1 num_to_send_o[2] 0.000371898
2 *692:X 0.000371898
3 *628:A num_to_send_o[2] 0
*RES
1 *692:X num_to_send_o[2] 20.891 
*END

*D_NET *7 0.000948063
*CONN
*P req_num_i I
*I *687:A I *D sky130_fd_sc_hd__clkbuf_1
*CAP
1 req_num_i 0.000471006
2 *687:A 0.000471006
3 *687:A *515:A 6.05161e-06
*RES
1 req_num_i *687:A 22.9071 
*END

*D_NET *8 0.000440221
*CONN
*P rst_i I
*I *688:A I *D sky130_fd_sc_hd__buf_1
*CAP
1 rst_i 0.000208762
2 *688:A 0.000208762
3 *688:A *684:A 2.26973e-05
*RES
1 rst_i *688:A 18.1229 
*END

*D_NET *9 0.000578283
*CONN
*P wr_i I
*I *689:A I *D sky130_fd_sc_hd__buf_1
*CAP
1 wr_i 0.000289141
2 *689:A 0.000289141
*RES
1 wr_i *689:A 20.4803 
*END

*D_NET *10 0.00179654
*CONN
*I *623:D I *D sky130_fd_sc_hd__dfrtp_1
*I *559:Y O *D sky130_fd_sc_hd__inv_2
*CAP
1 *623:D 0.000671514
2 *559:Y 0.000671514
3 *623:D *586:B1 0
4 *623:D *587:B 8.25512e-05
5 *623:D *593:RESET_B 0
6 *623:D *623:RESET_B 0.000131765
7 *623:D *686:A 5.84171e-05
8 *623:D *99:37 0.000180777
9 *623:D *116:27 0
*RES
1 *559:Y *623:D 39.6 
*END

*D_NET *11 0.000772178
*CONN
*I *627:D I *D sky130_fd_sc_hd__dfrtp_1
*I *560:X O *D sky130_fd_sc_hd__and2b_1
*CAP
1 *627:D 0.000168104
2 *560:X 0.000168104
3 *627:D *559:A 0.000125724
4 *627:D *90:49 0.000125724
5 *627:D *104:8 0.000184522
*RES
1 *560:X *627:D 31.0107 
*END

*D_NET *12 0.000454792
*CONN
*I *593:D I *D sky130_fd_sc_hd__dfrtp_1
*I *561:X O *D sky130_fd_sc_hd__mux2_1
*CAP
1 *593:D 0.000173087
2 *561:X 0.000173087
3 *593:D *561:A0 0.000108618
4 *593:D *90:86 0
*RES
1 *561:X *593:D 30.2964 
*END

*D_NET *13 0.00106556
*CONN
*I *594:D I *D sky130_fd_sc_hd__dfrtp_1
*I *562:X O *D sky130_fd_sc_hd__mux2_1
*CAP
1 *594:D 0.000271265
2 *562:X 0.000271265
3 *594:D *562:A0 3.79877e-06
4 *594:D *563:A1 0.000176226
5 *594:D *588:A 9.58126e-05
6 *594:D *594:CLK 2.84026e-05
7 *594:D *595:CLK 7.09216e-05
8 *594:D *90:14 0.000120716
9 *594:D *90:22 2.71557e-05
*RES
1 *562:X *594:D 32.975 
*END

*D_NET *14 0.00123435
*CONN
*I *595:D I *D sky130_fd_sc_hd__dfrtp_1
*I *563:X O *D sky130_fd_sc_hd__mux2_1
*CAP
1 *595:D 0.000232616
2 *563:X 0.000232616
3 *595:D *563:A1 0.000290279
4 *595:D *563:S 0.000181745
5 *595:D *90:14 0.000220448
6 *595:D *90:49 7.6644e-05
*RES
1 *563:X *595:D 33.1357 
*END

*D_NET *15 0.000277219
*CONN
*I *648:A I *D sky130_fd_sc_hd__dlygate4sd3_1
*I *564:X O *D sky130_fd_sc_hd__mux2_1
*CAP
1 *648:A 4.62693e-05
2 *564:X 4.62693e-05
3 *648:A *565:S 4.79842e-05
4 *648:A *597:RESET_B 3.34295e-05
5 *648:A *100:24 0.000103267
*RES
1 *564:X *648:A 29.2429 
*END

*D_NET *16 0.000135553
*CONN
*I *683:A I *D sky130_fd_sc_hd__dlygate4sd3_1
*I *565:X O *D sky130_fd_sc_hd__mux2_1
*CAP
1 *683:A 5.33258e-05
2 *565:X 5.33258e-05
3 *683:A *565:A0 2.89016e-05
*RES
1 *565:X *683:A 19.5643 
*END

*D_NET *17 0.00115193
*CONN
*I *685:A I *D sky130_fd_sc_hd__dlygate4sd3_1
*I *566:X O *D sky130_fd_sc_hd__mux2_1
*CAP
1 *685:A 0.000293551
2 *566:X 0.000293551
3 *685:A *545:A2 0.000271345
4 *685:A *566:A0 0.00017378
5 *685:A *105:8 0.000119699
*RES
1 *566:X *685:A 34.2607 
*END

*D_NET *18 0.00121674
*CONN
*I *599:D I *D sky130_fd_sc_hd__dfrtp_1
*I *567:X O *D sky130_fd_sc_hd__mux2_1
*CAP
1 *599:D 0.000475622
2 *567:X 0.000475622
3 *599:D *558:C 0
4 *599:D *567:A0 4.37999e-05
5 *599:D *567:A1 1.3277e-05
6 *599:D *590:A1 6.74815e-05
7 *599:D *89:8 0.000140933
*RES
1 *567:X *599:D 34.2964 
*END

*D_NET *19 0.000309298
*CONN
*I *600:D I *D sky130_fd_sc_hd__dfrtp_1
*I *568:X O *D sky130_fd_sc_hd__mux2_1
*CAP
1 *600:D 4.30364e-05
2 *568:X 4.30364e-05
3 *600:D *600:CLK 7.83659e-05
4 *600:D *601:RESET_B 1.91418e-05
5 *600:D *102:28 0.000125717
*RES
1 *568:X *600:D 29.2429 
*END

*D_NET *20 0.00039743
*CONN
*I *601:D I *D sky130_fd_sc_hd__dfrtp_1
*I *569:X O *D sky130_fd_sc_hd__mux2_1
*CAP
1 *601:D 8.42896e-05
2 *569:X 8.42896e-05
3 *601:D *568:A0 2.89114e-05
4 *601:D *600:CLK 9.91086e-05
5 *601:D *601:RESET_B 0.000100831
*RES
1 *569:X *601:D 29.475 
*END

*D_NET *21 0.000744884
*CONN
*I *661:A I *D sky130_fd_sc_hd__dlygate4sd3_1
*I *570:X O *D sky130_fd_sc_hd__mux2_1
*CAP
1 *661:A 0.000282895
2 *570:X 0.000282895
3 *661:A *558:C 0
4 *661:A *643:A 2.59004e-05
5 *661:A *89:34 0
6 *661:A *98:48 9.90431e-05
7 *661:A *165:23 5.41494e-05
*RES
1 *570:X *661:A 32.7607 
*END

*D_NET *22 0.000499594
*CONN
*I *604:D I *D sky130_fd_sc_hd__dfrtp_1
*I *571:X O *D sky130_fd_sc_hd__mux2_1
*CAP
1 *604:D 0.000124153
2 *571:X 0.000124153
3 *604:D *568:A1 0
4 *604:D *604:CLK 2.89114e-05
5 *604:D *607:RESET_B 3.5707e-05
6 *604:D *166:8 0.000186669
*RES
1 *571:X *604:D 30.7071 
*END

*D_NET *23 0.000626591
*CONN
*I *605:D I *D sky130_fd_sc_hd__dfrtp_1
*I *572:X O *D sky130_fd_sc_hd__mux2_1
*CAP
1 *605:D 0.000146033
2 *572:X 0.000146033
3 *605:D *572:A1 6.74911e-05
4 *605:D *572:S 0.000138881
5 *605:D *150:112 0.000128154
*RES
1 *572:X *605:D 30.6 
*END

*D_NET *24 0.000903818
*CONN
*I *606:D I *D sky130_fd_sc_hd__dfrtp_1
*I *573:X O *D sky130_fd_sc_hd__mux2_1
*CAP
1 *606:D 0.000343388
2 *573:X 0.000343388
3 *606:D *573:S 1.10909e-05
4 *606:D *609:D 0
5 *606:D *609:RESET_B 0.000178516
6 *606:D *149:29 2.74352e-05
*RES
1 *573:X *606:D 32.35 
*END

*D_NET *25 0.000926732
*CONN
*I *655:A I *D sky130_fd_sc_hd__dlygate4sd3_1
*I *574:X O *D sky130_fd_sc_hd__mux2_1
*CAP
1 *655:A 0.000385929
2 *574:X 0.000385929
3 *655:A *574:A0 5.71472e-05
4 *655:A *574:A1 9.77274e-05
5 *655:A *607:D 0
6 *655:A *93:84 0
7 *655:A *121:10 0
*RES
1 *574:X *655:A 33.85 
*END

*D_NET *26 0.000156798
*CONN
*I *608:D I *D sky130_fd_sc_hd__dfrtp_1
*I *575:X O *D sky130_fd_sc_hd__mux2_1
*CAP
1 *608:D 7.83991e-05
2 *575:X 7.83991e-05
3 *608:D *535:B 0
4 *608:D *102:40 0
*RES
1 *575:X *608:D 28.9393 
*END

*D_NET *27 0.000722687
*CONN
*I *609:D I *D sky130_fd_sc_hd__dfrtp_1
*I *576:X O *D sky130_fd_sc_hd__mux2_1
*CAP
1 *609:D 0.000322456
2 *576:X 0.000322456
3 *609:D *101:46 0
4 *609:D *159:14 7.77751e-05
5 *606:D *609:D 0
*RES
1 *576:X *609:D 32.725 
*END

*D_NET *28 0.000638535
*CONN
*I *666:A I *D sky130_fd_sc_hd__dlygate4sd3_1
*I *577:X O *D sky130_fd_sc_hd__mux2_1
*CAP
1 *666:A 0.000286651
2 *577:X 0.000286651
3 *666:A *577:A0 0
4 *666:A *577:A1 2.72859e-05
5 *666:A *610:D 0
6 *666:A *610:RESET_B 3.79467e-05
7 *666:A *665:A 0
*RES
1 *577:X *666:A 32.6179 
*END

*D_NET *29 0.001069
*CONN
*I *651:A I *D sky130_fd_sc_hd__dlygate4sd3_1
*I *578:X O *D sky130_fd_sc_hd__mux2_1
*CAP
1 *651:A 0.000415606
2 *578:X 0.000415606
3 *651:A *578:A0 8.07313e-05
4 *651:A *578:A1 6.42736e-05
5 *651:A *610:RESET_B 9.27779e-05
6 *651:A *92:102 0
*RES
1 *578:X *651:A 34.6714 
*END

*D_NET *30 0.000527927
*CONN
*I *659:A I *D sky130_fd_sc_hd__dlygate4sd3_1
*I *579:X O *D sky130_fd_sc_hd__mux2_1
*CAP
1 *659:A 0.000219298
2 *579:X 0.000219298
3 *659:A *532:B 0
4 *659:A *533:C1 9.25014e-06
5 *659:A *584:S 0
6 *659:A *613:D 8.00806e-05
*RES
1 *579:X *659:A 31.4214 
*END

*D_NET *31 0.000546746
*CONN
*I *614:D I *D sky130_fd_sc_hd__dfrtp_1
*I *580:X O *D sky130_fd_sc_hd__mux2_1
*CAP
1 *614:D 0.000179389
2 *580:X 0.000179389
3 *614:D *580:A1 0.000139913
4 *614:D *583:A1 4.80553e-05
5 *614:D *617:RESET_B 0
*RES
1 *580:X *614:D 30.2964 
*END

*D_NET *32 0.00194448
*CONN
*I *615:D I *D sky130_fd_sc_hd__dfrtp_1
*I *581:X O *D sky130_fd_sc_hd__mux2_1
*CAP
1 *615:D 0.000549141
2 *581:X 0.000549141
3 *615:D *581:A1 9.76689e-05
4 *615:D *583:A1 0
5 *615:D *615:RESET_B 4.96155e-05
6 *615:D *92:31 0.000491738
7 *615:D *101:103 0.000125724
8 *615:D *148:6 7.77652e-05
9 *615:D *161:14 3.69047e-06
*RES
1 *581:X *615:D 38.9393 
*END

*D_NET *33 0.000897636
*CONN
*I *616:D I *D sky130_fd_sc_hd__dfrtp_1
*I *582:X O *D sky130_fd_sc_hd__mux2_1
*CAP
1 *616:D 0.000230234
2 *582:X 0.000230234
3 *616:D *582:A0 5.31541e-05
4 *616:D *92:37 5.57914e-05
5 *616:D *92:41 6.04162e-05
6 *616:D *127:12 0.000150618
7 *616:D *127:23 0.000117189
*RES
1 *582:X *616:D 33.225 
*END

*D_NET *34 0.000324768
*CONN
*I *617:D I *D sky130_fd_sc_hd__dfrtp_1
*I *583:X O *D sky130_fd_sc_hd__mux2_1
*CAP
1 *617:D 0.000134772
2 *583:X 0.000134772
3 *617:D *583:A1 0
4 *617:D *138:40 5.52238e-05
*RES
1 *583:X *617:D 29.7786 
*END

*D_NET *35 0.000587448
*CONN
*I *618:D I *D sky130_fd_sc_hd__dfrtp_1
*I *584:X O *D sky130_fd_sc_hd__mux2_1
*CAP
1 *618:D 0.000180458
2 *584:X 0.000180458
3 *618:D *692:A 0.000188586
4 *618:D *92:37 3.79467e-05
5 *618:D *138:10 0
*RES
1 *584:X *618:D 30.7071 
*END

*D_NET *36 0.000245919
*CONN
*I *620:D I *D sky130_fd_sc_hd__dfrtp_1
*I *585:X O *D sky130_fd_sc_hd__xor2_1
*CAP
1 *620:D 0.000122959
2 *585:X 0.000122959
3 *620:D *561:A1 0
4 *620:D *155:19 0
5 *620:D *155:32 0
*RES
1 *585:X *620:D 29.85 
*END

*D_NET *37 0.00047066
*CONN
*I *621:D I *D sky130_fd_sc_hd__dfrtp_1
*I *588:Y O *D sky130_fd_sc_hd__nor2_1
*CAP
1 *621:D 0.000164694
2 *588:Y 0.000164694
3 *621:D *587:C 1.00375e-05
4 *621:D *589:B 1.74352e-05
5 *621:D *60:8 1.92905e-05
6 *621:D *99:37 9.45092e-05
*RES
1 *588:Y *621:D 30.4214 
*END

*D_NET *38 0.000750752
*CONN
*I *622:D I *D sky130_fd_sc_hd__dfrtp_1
*I *589:X O *D sky130_fd_sc_hd__xor2_1
*CAP
1 *622:D 0.000364879
2 *589:X 0.000364879
3 *622:D *90:22 2.09938e-05
4 *622:D *152:27 0
*RES
1 *589:X *622:D 33.4973 
*END

*D_NET *39 0.000912281
*CONN
*I *624:D I *D sky130_fd_sc_hd__dfrtp_1
*I *590:X O *D sky130_fd_sc_hd__mux2_1
*CAP
1 *624:D 0.000177269
2 *590:X 0.000177269
3 *624:D *633:A 5.33005e-05
4 *624:D *91:10 5.9483e-05
5 *624:D *91:14 1.41706e-05
6 *624:D *91:35 6.58289e-05
7 *624:D *100:56 1.02504e-05
8 *624:D *100:81 0.00035471
*RES
1 *590:X *624:D 32.8143 
*END

*D_NET *40 0.00134963
*CONN
*I *675:A I *D sky130_fd_sc_hd__dlygate4sd3_1
*I *591:X O *D sky130_fd_sc_hd__mux2_1
*CAP
1 *675:A 0.000288294
2 *591:X 0.000288294
3 *675:A *542:A 0
4 *675:A *545:A2 0.000139097
5 *675:A *566:A1 0.000268396
6 *675:A *566:S 0.000365544
7 *675:A *625:D 0
*RES
1 *591:X *675:A 35.0821 
*END

*D_NET *41 0.000119455
*CONN
*I *671:A I *D sky130_fd_sc_hd__dlygate4sd3_1
*I *592:X O *D sky130_fd_sc_hd__mux2_1
*CAP
1 *671:A 4.83569e-05
2 *592:X 4.83569e-05
3 *671:A *641:A 2.27416e-05
*RES
1 *592:X *671:A 19.5643 
*END

*D_NET *42 0.00245861
*CONN
*I *545:A2 I *D sky130_fd_sc_hd__a221o_1
*I *542:Y O *D sky130_fd_sc_hd__nand2_1
*CAP
1 *545:A2 0.000511878
2 *542:Y 0.000511878
3 *545:A2 *542:A 2.89016e-05
4 *545:A2 *566:A1 0.000362524
5 *545:A2 *566:S 0.000317082
6 *545:A2 *598:RESET_B 0
7 *545:A2 *626:CLK 3.17163e-05
8 *545:A2 *91:61 7.60306e-05
9 *545:A2 *91:65 0.000131472
10 *545:A2 *95:8 7.66879e-05
11 *675:A *545:A2 0.000139097
12 *685:A *545:A2 0.000271345
*RES
1 *542:Y *545:A2 41.0375 
*END

*D_NET *43 0.00196479
*CONN
*I *545:B1 I *D sky130_fd_sc_hd__a221o_1
*I *543:Y O *D sky130_fd_sc_hd__nand2_1
*CAP
1 *545:B1 0.000407166
2 *543:Y 0.000407166
3 *545:B1 *543:A 0
4 *545:B1 *543:B 7.91941e-05
5 *545:B1 *545:A1 0.000150625
6 *545:B1 *545:B2 0.000161205
7 *545:B1 *565:A0 0
8 *545:B1 *565:A1 7.83659e-05
9 *545:B1 *597:D 0.000128146
10 *545:B1 *598:D 0
11 *545:B1 *598:RESET_B 0
12 *545:B1 *91:61 2.14378e-05
13 *545:B1 *91:65 0.000208613
14 *545:B1 *175:19 0.000269529
15 *545:B1 *178:19 5.33433e-05
*RES
1 *543:Y *545:B1 39.9214 
*END

*D_NET *44 0.00204478
*CONN
*I *545:B2 I *D sky130_fd_sc_hd__a221o_1
*I *544:X O *D sky130_fd_sc_hd__or2_1
*CAP
1 *545:B2 0.000302254
2 *544:X 0.000302254
3 *545:B2 *545:C1 0.000529514
4 *545:B2 *565:A0 0.000124704
5 *545:B2 *565:A1 7.83659e-05
6 *545:B2 *597:D 0.000129868
7 *545:B2 *91:59 6.26774e-06
8 *545:B2 *95:8 1.28809e-05
9 *545:B2 *175:19 0.000257564
10 *545:B2 *178:19 0.000139907
11 *545:B1 *545:B2 0.000161205
*RES
1 *544:X *545:B2 38.9259 
*END

*D_NET *45 0.00613935
*CONN
*I *557:B I *D sky130_fd_sc_hd__and4_1
*I *545:X O *D sky130_fd_sc_hd__a221o_1
*CAP
1 *557:B 3.92359e-05
2 *545:X 0.00186012
3 *45:10 0.00189935
4 *557:B *557:C 5.52238e-05
5 *45:10 *546:A 0
6 *45:10 *557:D 5.33978e-05
7 *45:10 *558:D 0.000121573
8 *45:10 *567:A0 3.25247e-05
9 *45:10 *567:A1 0.000135793
10 *45:10 *603:RESET_B 0.000150625
11 *45:10 *630:A 7.43578e-06
12 *45:10 *631:A 6.8646e-06
13 *45:10 *647:A 0.000315364
14 *45:10 *664:A 0.000101149
15 *45:10 *89:10 0.000241733
16 *45:10 *89:34 0.000152129
17 *45:10 *91:8 5.74499e-06
18 *45:10 *95:8 0.000396898
19 *45:10 *102:40 0.000564186
20 *45:10 *174:21 0
*RES
1 *545:X *45:10 48.7643 
2 *45:10 *557:B 14.3357 
*END

*D_NET *46 0.0016178
*CONN
*I *551:C1 I *D sky130_fd_sc_hd__a221o_1
*I *546:X O *D sky130_fd_sc_hd__xor2_1
*CAP
1 *551:C1 0.000232119
2 *546:X 0.000232119
3 *551:C1 *531:A3 1.46717e-05
4 *551:C1 *531:C1 0.000197991
5 *551:C1 *551:B2 8.06427e-05
6 *551:C1 *568:A1 0
7 *551:C1 *570:S 5.52238e-05
8 *551:C1 *645:A 0.000312743
9 *551:C1 *98:61 6.8646e-06
10 *551:C1 *102:28 0.000189276
11 *551:C1 *150:6 0.000212159
12 *551:C1 *150:112 3.80904e-05
13 *551:C1 *151:8 4.58976e-05
*RES
1 *546:X *551:C1 36.2964 
*END

*D_NET *47 0.000638147
*CONN
*I *551:A1 I *D sky130_fd_sc_hd__a221o_1
*I *547:Y O *D sky130_fd_sc_hd__nand2_1
*CAP
1 *551:A1 0.000120405
2 *547:Y 0.000120405
3 *551:A1 *531:A3 0.000150625
4 *551:A1 *568:A1 0.000150625
5 *551:A1 *93:31 9.60875e-05
*RES
1 *547:Y *551:A1 30.4929 
*END

*D_NET *48 0.000632661
*CONN
*I *551:A2 I *D sky130_fd_sc_hd__a221o_1
*I *548:X O *D sky130_fd_sc_hd__or2_1
*CAP
1 *551:A2 0.000121911
2 *548:X 0.000121911
3 *551:A2 *548:A 0.000103483
4 *551:A2 *549:A 3.54839e-05
5 *551:A2 *549:B 5.52302e-05
6 *551:A2 *551:B1 0.000120501
7 *551:A2 *557:C 5.51706e-05
8 *551:A2 *157:48 1.89695e-05
*RES
1 *548:X *551:A2 22.3589 
*END

*D_NET *49 0.00049469
*CONN
*I *551:B1 I *D sky130_fd_sc_hd__a221o_1
*I *549:X O *D sky130_fd_sc_hd__or2_1
*CAP
1 *551:B1 5.91295e-05
2 *549:X 5.91295e-05
3 *551:B1 *549:A 0.000225616
4 *551:B1 *157:48 3.03145e-05
5 *551:A2 *551:B1 0.000120501
*RES
1 *549:X *551:B1 20.7786 
*END

*D_NET *50 0.000525903
*CONN
*I *551:B2 I *D sky130_fd_sc_hd__a221o_1
*I *550:Y O *D sky130_fd_sc_hd__nand2_1
*CAP
1 *551:B2 0.000106533
2 *550:Y 0.000106533
3 *551:B2 *531:A3 0.000148911
4 *551:B2 *549:A 1.403e-05
5 *551:B2 *93:31 5.52238e-05
6 *551:B2 *157:48 1.403e-05
7 *551:C1 *551:B2 8.06427e-05
*RES
1 *550:Y *551:B2 30.3679 
*END

*D_NET *51 0.00322442
*CONN
*I *557:C I *D sky130_fd_sc_hd__and4_1
*I *551:X O *D sky130_fd_sc_hd__a221o_1
*CAP
1 *557:C 0.000823069
2 *551:X 0.000823069
3 *557:C *531:A1 1.98839e-05
4 *557:C *537:A 8.87196e-05
5 *557:C *548:A 9.80173e-05
6 *557:C *550:B 2.61337e-05
7 *557:C *557:A 0.000140933
8 *557:C *569:A1 5.33005e-05
9 *557:C *572:A0 0.000315932
10 *557:C *572:S 5.19805e-05
11 *557:C *95:88 0.000170385
12 *557:C *95:90 0.000276211
13 *557:C *97:93 0.000168939
14 *557:C *170:12 5.74562e-05
15 *551:A2 *557:C 5.51706e-05
16 *557:B *557:C 5.52238e-05
*RES
1 *551:X *557:C 44.2071 
*END

*D_NET *52 0.000498452
*CONN
*I *556:C1 I *D sky130_fd_sc_hd__a211o_1
*I *552:X O *D sky130_fd_sc_hd__xor2_1
*CAP
1 *556:C1 0.00017814
2 *552:X 0.00017814
3 *556:C1 *555:B 3.34366e-05
4 *556:C1 *149:63 5.28345e-05
5 *556:C1 *160:12 5.59013e-05
*RES
1 *552:X *556:C1 30.4929 
*END

*D_NET *53 0.000888705
*CONN
*I *556:A1 I *D sky130_fd_sc_hd__a211o_1
*I *553:Y O *D sky130_fd_sc_hd__nand2_1
*CAP
1 *556:A1 0.000296915
2 *553:Y 0.000296915
3 *556:A1 *553:A 9.60875e-05
4 *556:A1 *553:B 4.01332e-05
5 *556:A1 *554:B 3.05605e-05
6 *556:A1 *555:A 2.23592e-05
7 *556:A1 *555:B 5.45307e-05
8 *556:A1 *556:B1 5.12038e-05
*RES
1 *553:Y *556:A1 24.0821 
*END

*D_NET *54 0.000501056
*CONN
*I *556:A2 I *D sky130_fd_sc_hd__a211o_1
*I *554:X O *D sky130_fd_sc_hd__or2_1
*CAP
1 *556:A2 7.21921e-05
2 *554:X 7.21921e-05
3 *556:A2 *554:B 0.000114773
4 *556:A2 *557:D 0.000186669
5 *556:A2 *97:29 5.52302e-05
*RES
1 *554:X *556:A2 21.1893 
*END

*D_NET *55 0.000271556
*CONN
*I *556:B1 I *D sky130_fd_sc_hd__a211o_1
*I *555:X O *D sky130_fd_sc_hd__xor2_1
*CAP
1 *556:B1 5.59141e-05
2 *555:X 5.59141e-05
3 *556:B1 *553:B 9.60875e-05
4 *556:B1 *554:B 1.24368e-05
5 *556:A1 *556:B1 5.12038e-05
*RES
1 *555:X *556:B1 19.975 
*END

*D_NET *56 0.00213806
*CONN
*I *557:D I *D sky130_fd_sc_hd__and4_1
*I *556:X O *D sky130_fd_sc_hd__a211o_1
*CAP
1 *557:D 0.00055493
2 *556:X 0.00055493
3 *557:D *554:B 3.14078e-05
4 *557:D *558:B 0.000229456
5 *557:D *558:C 7.48091e-05
6 *557:D *558:D 0.000113938
7 *557:D *631:A 0.000120645
8 *557:D *632:A 5.52302e-05
9 *557:D *643:A 0
10 *557:D *97:29 4.88637e-05
11 *557:D *102:40 1.12301e-05
12 *557:D *157:48 0.000102557
13 *556:A2 *557:D 0.000186669
14 *45:10 *557:D 5.33978e-05
*RES
1 *556:X *557:D 40.1893 
*END

*D_NET *57 0.000684514
*CONN
*I *558:B I *D sky130_fd_sc_hd__and4b_1
*I *557:X O *D sky130_fd_sc_hd__and4_1
*CAP
1 *558:B 0.000202882
2 *557:X 0.000202882
3 *558:B *631:A 4.92942e-05
4 *558:B *643:A 0
5 *557:D *558:B 0.000229456
*RES
1 *557:X *558:B 30.8143 
*END

*D_NET *58 0.0034546
*CONN
*I *645:A I *D sky130_fd_sc_hd__buf_2
*I *558:X O *D sky130_fd_sc_hd__and4b_1
*CAP
1 *645:A 0.000874095
2 *558:X 0.000874095
3 *645:A *150:112 0.000313458
4 *645:A *157:48 0.00108021
5 *551:C1 *645:A 0.000312743
*RES
1 *558:X *645:A 42.0643 
*END

*D_NET *59 0.00129279
*CONN
*I *653:A I *D sky130_fd_sc_hd__dlygate4sd3_1
*I *586:Y O *D sky130_fd_sc_hd__a21oi_1
*CAP
1 *653:A 0.000493481
2 *586:Y 0.000493481
3 *653:A *561:A1 0
4 *653:A *586:A1 0.000282967
5 *653:A *620:CLK 0
6 *653:A *152:6 2.28598e-05
*RES
1 *586:Y *653:A 37.1714 
*END

*D_NET *60 0.00222328
*CONN
*I *589:B I *D sky130_fd_sc_hd__xor2_1
*I *588:B I *D sky130_fd_sc_hd__nor2_1
*I *587:X O *D sky130_fd_sc_hd__and3_1
*CAP
1 *589:B 0.000527787
2 *588:B 1.27707e-05
3 *587:X 7.29643e-05
4 *60:8 0.000613522
5 *588:B *588:A 5.7661e-06
6 *589:B *563:A1 0.000117903
7 *589:B *587:C 0
8 *589:B *588:A 0.000335035
9 *589:B *589:A 0.000307854
10 *589:B *594:CLK 5.20669e-05
11 *589:B *622:RESET_B 2.29097e-05
12 *589:B *90:22 0.000106371
13 *589:B *99:27 1.84523e-06
14 *589:B *99:37 9.76435e-06
15 *621:D *589:B 1.74352e-05
16 *621:D *60:8 1.92905e-05
*RES
1 *587:X *60:8 10.675 
2 *60:8 *588:B 9.72857 
3 *60:8 *589:B 40.2821 
*END

*D_NET *61 0.00150675
*CONN
*I *534:A2 I *D sky130_fd_sc_hd__o221a_1
*I *533:A2 I *D sky130_fd_sc_hd__a221oi_1
*I *513:Y O *D sky130_fd_sc_hd__inv_2
*CAP
1 *534:A2 8.74222e-05
2 *533:A2 0.000255111
3 *513:Y 0.00010516
4 *61:10 0.000447693
5 *533:A2 *533:B1 3.00439e-05
6 *533:A2 *534:C1 0.000126629
7 *533:A2 *681:A 3.18676e-05
8 *534:A2 *534:B2 5.59013e-05
9 *534:A2 *583:A1 0.000225314
10 *534:A2 *101:57 0
11 *534:A2 *148:18 3.26263e-05
12 *61:10 *513:A 8.58017e-05
13 *61:10 *583:A1 2.31791e-05
14 *61:10 *101:57 0
*RES
1 *513:Y *61:10 15.675 
2 *61:10 *533:A2 18.4607 
3 *61:10 *534:A2 16.6571 
*END

*D_NET *62 0.0016783
*CONN
*I *534:B2 I *D sky130_fd_sc_hd__o221a_1
*I *533:B2 I *D sky130_fd_sc_hd__a221oi_1
*I *514:Y O *D sky130_fd_sc_hd__inv_2
*CAP
1 *534:B2 0.000179023
2 *533:B2 0.000339776
3 *514:Y 0
4 *62:4 0.000518799
5 *533:B2 *533:A1 5.57727e-05
6 *533:B2 *533:C1 1.02504e-05
7 *533:B2 *584:A0 1.74352e-05
8 *533:B2 *584:A1 0.000240999
9 *533:B2 *692:A 1.00073e-05
10 *533:B2 *92:37 0
11 *534:B2 *584:A1 1.55885e-05
12 *534:B2 *96:56 0.000178847
13 *534:B2 *148:18 5.59013e-05
14 *534:A2 *534:B2 5.59013e-05
*RES
1 *514:Y *62:4 9.3 
2 *62:4 *533:B2 23.6571 
3 *62:4 *534:B2 21.2107 
*END

*D_NET *63 0.000574682
*CONN
*I *521:A1 I *D sky130_fd_sc_hd__a221o_1
*I *516:X O *D sky130_fd_sc_hd__or2_1
*CAP
1 *521:A1 0.000113089
2 *516:X 0.000113089
3 *521:A1 *519:B 9.80173e-05
4 *521:A1 *521:A2 0.000125243
5 *521:A1 *531:B1 0.000125243
*RES
1 *516:X *521:A1 30.1893 
*END

*D_NET *64 0.000853954
*CONN
*I *521:A2 I *D sky130_fd_sc_hd__a221o_1
*I *517:Y O *D sky130_fd_sc_hd__nand2_1
*CAP
1 *521:A2 0.000207131
2 *517:Y 0.000207131
3 *521:A2 *519:B 7.46499e-05
4 *521:A2 *531:B1 9.97648e-05
5 *521:A2 *95:60 1.89596e-05
6 *521:A2 *98:63 6.39262e-05
7 *521:A2 *150:66 5.71472e-05
8 *521:A1 *521:A2 0.000125243
*RES
1 *517:Y *521:A2 33.0732 
*END

*D_NET *65 0.000786569
*CONN
*I *521:B1 I *D sky130_fd_sc_hd__a221o_1
*I *518:X O *D sky130_fd_sc_hd__or2_1
*CAP
1 *521:B1 0.000277114
2 *518:X 0.000277114
3 *521:B1 *520:A 2.13481e-06
4 *521:B1 *521:B2 3.18117e-05
5 *521:B1 *521:C1 1.14548e-05
6 *521:B1 *600:CLK 3.69047e-06
7 *521:B1 *95:60 0.00010489
8 *521:B1 *97:118 7.83587e-05
*RES
1 *518:X *521:B1 31.7786 
*END

*D_NET *66 0.00130749
*CONN
*I *521:B2 I *D sky130_fd_sc_hd__a221o_1
*I *519:Y O *D sky130_fd_sc_hd__nand2_1
*CAP
1 *521:B2 0.000525134
2 *519:Y 0.000525134
3 *521:B2 *521:C1 4.3029e-05
4 *521:B2 *600:CLK 3.99614e-06
5 *521:B2 *663:A 1.21859e-05
6 *521:B2 *95:60 0.000145059
7 *521:B2 *98:61 2.11419e-05
8 *521:B1 *521:B2 3.18117e-05
*RES
1 *519:Y *521:B2 37.7948 
*END

*D_NET *67 0.000861188
*CONN
*I *521:C1 I *D sky130_fd_sc_hd__a221o_1
*I *520:X O *D sky130_fd_sc_hd__xor2_1
*CAP
1 *521:C1 0.000205931
2 *520:X 0.000205931
3 *521:C1 *519:B 2.95726e-05
4 *521:C1 *520:A 4.87854e-05
5 *521:C1 *550:A 0.000217545
6 *521:C1 *95:43 2.94103e-05
7 *521:C1 *95:60 6.95291e-05
8 *521:B1 *521:C1 1.14548e-05
9 *521:B2 *521:C1 4.3029e-05
*RES
1 *520:X *521:C1 32.4616 
*END

*D_NET *68 0.00118201
*CONN
*I *531:C1 I *D sky130_fd_sc_hd__o311a_1
*I *521:X O *D sky130_fd_sc_hd__a221o_1
*CAP
1 *531:C1 0.000287787
2 *521:X 0.000287787
3 *531:C1 *531:B1 0.00026367
4 *531:C1 *568:A1 0
5 *531:C1 *95:60 0.000144773
6 *531:C1 *98:61 0
7 *551:C1 *531:C1 0.000197991
*RES
1 *521:X *531:C1 33.0286 
*END

*D_NET *69 0.00174749
*CONN
*I *531:A1 I *D sky130_fd_sc_hd__o311a_1
*I *522:X O *D sky130_fd_sc_hd__xor2_1
*CAP
1 *531:A1 0.000214812
2 *522:X 0.000214812
3 *531:A1 *572:S 0.000184745
4 *531:A1 *93:12 0.00012501
5 *531:A1 *93:63 0.000212627
6 *531:A1 *95:71 0.000267807
7 *531:A1 *95:88 0.000305806
8 *531:A1 *95:90 9.90367e-05
9 *531:A1 *97:82 6.71657e-05
10 *531:A1 *150:112 3.57844e-05
11 *557:C *531:A1 1.98839e-05
*RES
1 *522:X *531:A1 35.8857 
*END

*D_NET *70 0.000739074
*CONN
*I *531:A2 I *D sky130_fd_sc_hd__o311a_1
*I *523:X O *D sky130_fd_sc_hd__xor2_1
*CAP
1 *531:A2 9.55876e-05
2 *523:X 9.55876e-05
3 *531:A2 *558:D 7.17136e-05
4 *531:A2 *603:CLK 0.000265453
5 *531:A2 *98:61 0.000210732
*RES
1 *523:X *531:A2 22.4214 
*END

*D_NET *71 0.00233969
*CONN
*I *531:A3 I *D sky130_fd_sc_hd__o311a_1
*I *524:X O *D sky130_fd_sc_hd__xor2_1
*CAP
1 *531:A3 0.000411696
2 *524:X 0.000411696
3 *531:A3 *531:B1 3.63775e-05
4 *531:A3 *550:A 3.18676e-05
5 *531:A3 *568:A1 0.000541
6 *531:A3 *572:A1 0.000117144
7 *531:A3 *604:RESET_B 1.98839e-05
8 *531:A3 *605:RESET_B 0.000173804
9 *531:A3 *93:31 0.00022266
10 *531:A3 *97:82 5.33005e-05
11 *531:A3 *102:65 6.05161e-06
12 *531:A3 *150:112 0
13 *551:A1 *531:A3 0.000150625
14 *551:B2 *531:A3 0.000148911
15 *551:C1 *531:A3 1.46717e-05
*RES
1 *524:X *531:A3 40.1536 
*END

*D_NET *72 0.000830468
*CONN
*I *530:A1 I *D sky130_fd_sc_hd__a221o_1
*I *525:X O *D sky130_fd_sc_hd__or2_1
*CAP
1 *530:A1 0.000115305
2 *525:X 0.000115305
3 *530:A1 *530:A2 0.000117994
4 *530:A1 *530:C1 3.66478e-05
5 *530:A1 *531:B1 0.00017309
6 *530:A1 *550:A 0.00017309
7 *530:A1 *96:88 9.90367e-05
*RES
1 *525:X *530:A1 31.6179 
*END

*D_NET *73 0.00113605
*CONN
*I *530:A2 I *D sky130_fd_sc_hd__a221o_1
*I *526:Y O *D sky130_fd_sc_hd__nand2_1
*CAP
1 *530:A2 0.000266666
2 *526:Y 0.000266666
3 *530:A2 *525:A 2.95726e-05
4 *530:A2 *525:B 1.15281e-05
5 *530:A2 *530:C1 0.000158858
6 *530:A2 *550:A 0.000150625
7 *530:A2 *635:A 2.89114e-05
8 *530:A2 *95:23 7.92879e-05
9 *530:A2 *95:29 2.59355e-05
10 *530:A1 *530:A2 0.000117994
*RES
1 *526:Y *530:A2 33.2875 
*END

*D_NET *74 0.000679984
*CONN
*I *530:C1 I *D sky130_fd_sc_hd__a221o_1
*I *527:X O *D sky130_fd_sc_hd__xor2_1
*CAP
1 *530:C1 0.000203676
2 *527:X 0.000203676
3 *530:C1 *530:B2 1.28809e-05
4 *530:C1 *96:88 6.4245e-05
5 *530:A1 *530:C1 3.66478e-05
6 *530:A2 *530:C1 0.000158858
*RES
1 *527:X *530:C1 22.85 
*END

*D_NET *75 0.000855166
*CONN
*I *530:B1 I *D sky130_fd_sc_hd__a221o_1
*I *528:X O *D sky130_fd_sc_hd__or2_1
*CAP
1 *530:B1 0.000291949
2 *528:X 0.000291949
3 *530:B1 *530:B2 0.000259741
4 *530:B1 *531:B1 0
5 *530:B1 *98:69 1.15281e-05
*RES
1 *528:X *530:B1 32.1357 
*END

*D_NET *76 0.00110588
*CONN
*I *530:B2 I *D sky130_fd_sc_hd__a221o_1
*I *529:Y O *D sky130_fd_sc_hd__nand2_1
*CAP
1 *530:B2 0.000287433
2 *529:Y 0.000287433
3 *530:B2 *528:B 1.02936e-05
4 *530:B2 *529:A 7.61932e-05
5 *530:B2 *529:B 6.05161e-06
6 *530:B2 *96:88 7.70134e-06
7 *530:B2 *98:69 9.58508e-05
8 *530:B2 *150:27 5.03694e-05
9 *530:B2 *150:33 1.19309e-05
10 *530:B1 *530:B2 0.000259741
11 *530:C1 *530:B2 1.28809e-05
*RES
1 *529:Y *530:B2 34.2116 
*END

*D_NET *77 0.00274787
*CONN
*I *531:B1 I *D sky130_fd_sc_hd__o311a_1
*I *530:X O *D sky130_fd_sc_hd__a221o_1
*CAP
1 *531:B1 0.000692429
2 *530:X 0.000692429
3 *531:B1 *520:A 0.000243778
4 *531:B1 *550:A 0.000406033
5 *531:B1 *96:88 1.50572e-05
6 *531:B1 *98:61 0
7 *531:B1 *98:63 0
8 *531:B1 *98:69 0
9 *531:B1 *150:27 0
10 *531:B1 *150:33 0
11 *521:A1 *531:B1 0.000125243
12 *521:A2 *531:B1 9.97648e-05
13 *530:A1 *531:B1 0.00017309
14 *530:B1 *531:B1 0
15 *531:A3 *531:B1 3.63775e-05
16 *531:C1 *531:B1 0.00026367
*RES
1 *530:X *531:B1 44.3857 
*END

*D_NET *78 0.00219047
*CONN
*I *558:D I *D sky130_fd_sc_hd__and4b_1
*I *531:X O *D sky130_fd_sc_hd__o311a_1
*CAP
1 *558:D 0.000586825
2 *531:X 0.000586825
3 *558:D *603:CLK 0.000139907
4 *558:D *632:A 9.71197e-05
5 *558:D *89:34 6.09476e-05
6 *558:D *98:48 5.53417e-05
7 *558:D *98:61 5.30209e-05
8 *558:D *157:48 0.000303252
9 *531:A2 *558:D 7.17136e-05
10 *557:D *558:D 0.000113938
11 *45:10 *558:D 0.000121573
*RES
1 *531:X *558:D 38.417 
*END

*D_NET *79 0.000367754
*CONN
*I *533:C1 I *D sky130_fd_sc_hd__a221oi_1
*I *532:X O *D sky130_fd_sc_hd__xor2_1
*CAP
1 *533:C1 0.000172714
2 *532:X 0.000172714
3 *533:C1 *532:A 0
4 *533:C1 *532:B 2.8266e-06
5 *533:C1 *584:S 0
6 *533:C1 *92:37 0
7 *533:B2 *533:C1 1.02504e-05
8 *659:A *533:C1 9.25014e-06
*RES
1 *532:X *533:C1 30.6893 
*END

*D_NET *80 0.000941859
*CONN
*I *534:C1 I *D sky130_fd_sc_hd__o221a_1
*I *533:Y O *D sky130_fd_sc_hd__a221oi_1
*CAP
1 *534:C1 0.000130021
2 *533:Y 0.000130021
3 *534:C1 *533:B1 0.000227526
4 *534:C1 *101:57 0.00019384
5 *534:C1 *148:18 0.000133821
6 *533:A2 *534:C1 0.000126629
*RES
1 *533:Y *534:C1 32.3321 
*END

*D_NET *81 0.00337848
*CONN
*I *558:A_N I *D sky130_fd_sc_hd__and4b_1
*I *534:X O *D sky130_fd_sc_hd__o221a_1
*CAP
1 *558:A_N 0.00099703
2 *534:X 0.00099703
3 *558:A_N *537:A 0.000121573
4 *558:A_N *539:A1 0.000328294
5 *558:A_N *578:A0 4.69993e-05
6 *558:A_N *578:S 0.000130419
7 *558:A_N *643:A 0
8 *558:A_N *96:56 5.52238e-05
9 *558:A_N *149:100 0.000394032
10 *628:A *558:A_N 0.000307878
*RES
1 *534:X *558:A_N 42.8857 
*END

*D_NET *82 0.000367837
*CONN
*I *539:B1 I *D sky130_fd_sc_hd__a211o_1
*I *535:X O *D sky130_fd_sc_hd__xor2_1
*CAP
1 *539:B1 5.45081e-05
2 *535:X 5.45081e-05
3 *539:B1 *535:B 0.0001399
4 *539:B1 *539:C1 9.90367e-05
5 *539:B1 *631:A 1.98839e-05
*RES
1 *535:X *539:B1 20.3857 
*END

*D_NET *83 0.00117445
*CONN
*I *539:C1 I *D sky130_fd_sc_hd__a211o_1
*I *536:X O *D sky130_fd_sc_hd__xor2_1
*CAP
1 *539:C1 0.000355476
2 *536:X 0.000355476
3 *539:C1 *535:B 4.59075e-05
4 *539:C1 *631:A 0.000184745
5 *539:C1 *97:29 0
6 *539:C1 *97:33 8.91726e-05
7 *539:C1 *97:82 4.46186e-06
8 *539:C1 *98:48 4.01768e-05
9 *539:B1 *539:C1 9.90367e-05
10 *628:A *539:C1 0
*RES
1 *536:X *539:C1 34.3857 
*END

*D_NET *84 0.00133695
*CONN
*I *539:A1 I *D sky130_fd_sc_hd__a211o_1
*I *537:X O *D sky130_fd_sc_hd__or2_1
*CAP
1 *539:A1 0.000161227
2 *537:X 0.000161227
3 *539:A1 *537:A 0.000146474
4 *539:A1 *539:A2 0.000147474
5 *539:A1 *575:A1 0.000125547
6 *539:A1 *578:A0 0.000254907
7 *539:A1 *643:A 1.17968e-05
8 *558:A_N *539:A1 0.000328294
*RES
1 *537:X *539:A1 33.6714 
*END

*D_NET *85 0.00241358
*CONN
*I *539:A2 I *D sky130_fd_sc_hd__a211o_1
*I *538:Y O *D sky130_fd_sc_hd__nand2_1
*CAP
1 *539:A2 0.000632719
2 *538:Y 0.000632719
3 *539:A2 *575:A1 1.98839e-05
4 *539:A2 *643:A 0.000145753
5 *539:A2 *151:31 0.00034756
6 *539:A2 *151:35 0.000487467
7 *539:A1 *539:A2 0.000147474
*RES
1 *538:Y *539:A2 37.8857 
*END

*D_NET *86 0.000901018
*CONN
*I *557:A I *D sky130_fd_sc_hd__and4_1
*I *539:X O *D sky130_fd_sc_hd__a211o_1
*CAP
1 *557:A 8.67943e-05
2 *539:X 8.67943e-05
3 *557:A *537:A 0.000399835
4 *557:A *631:A 0.000186662
5 *557:C *557:A 0.000140933
*RES
1 *539:X *557:A 22.4214 
*END

*D_NET *87 0.00255212
*CONN
*I *545:C1 I *D sky130_fd_sc_hd__a221o_1
*I *540:X O *D sky130_fd_sc_hd__xor2_1
*CAP
1 *545:C1 0.000719968
2 *540:X 0.000719968
3 *545:C1 *565:A0 0.000151333
4 *545:C1 *597:RESET_B 5.17901e-05
5 *545:C1 *97:128 0.000354158
6 *545:C1 *178:12 2.53943e-05
7 *545:B2 *545:C1 0.000529514
*RES
1 *540:X *545:C1 41.1 
*END

*D_NET *88 0.00110036
*CONN
*I *545:A1 I *D sky130_fd_sc_hd__a221o_1
*I *541:X O *D sky130_fd_sc_hd__or2_1
*CAP
1 *545:A1 0.000339071
2 *541:X 0.000339071
3 *545:A1 *626:CLK 4.90803e-05
4 *545:A1 *91:61 0.000101545
5 *545:A1 *100:14 1.33343e-05
6 *545:A1 *100:24 0.000107637
7 *545:B1 *545:A1 0.000150625
*RES
1 *541:X *545:A1 32.9571 
*END

*D_NET *89 0.00725493
*CONN
*I *631:A I *D sky130_fd_sc_hd__clkbuf_16
*I *632:A I *D sky130_fd_sc_hd__clkbuf_16
*I *630:A I *D sky130_fd_sc_hd__clkbuf_16
*I *629:A I *D sky130_fd_sc_hd__clkbuf_16
*I *628:X O *D sky130_fd_sc_hd__clkbuf_16
*CAP
1 *631:A 0.000529994
2 *632:A 5.42738e-05
3 *630:A 5.62007e-05
4 *629:A 0.000436187
5 *628:X 4.30371e-05
6 *89:34 0.00103427
7 *89:10 0.000797197
8 *89:8 0.000797849
9 *629:A *624:RESET_B 9.84891e-05
10 *629:A *639:A 0.000128886
11 *629:A *99:10 4.88515e-05
12 *629:A *100:81 0
13 *629:A *156:27 0.00051315
14 *629:A *174:8 0
15 *629:A *174:21 0
16 *630:A *664:A 5.71472e-05
17 *630:A *91:8 4.59075e-05
18 *631:A *535:B 2.58821e-05
19 *631:A *537:A 9.31893e-05
20 *631:A *643:A 0
21 *631:A *97:43 0.00014285
22 *631:A *97:82 7.49387e-06
23 *632:A *157:48 1.98839e-05
24 *89:8 *567:A1 2.72859e-05
25 *89:10 *590:A0 0
26 *89:10 *590:A1 0.000536073
27 *89:10 *100:81 0
28 *89:10 *174:21 0
29 *89:34 *558:C 0
30 *89:34 *567:A1 0.000269529
31 *89:34 *590:A1 0.000167684
32 *89:34 *643:A 0
33 *539:B1 *631:A 1.98839e-05
34 *539:C1 *631:A 0.000184745
35 *557:A *631:A 0.000186662
36 *557:D *631:A 0.000120645
37 *557:D *632:A 5.52302e-05
38 *558:B *631:A 4.92942e-05
39 *558:D *632:A 9.71197e-05
40 *558:D *89:34 6.09476e-05
41 *599:D *89:8 0.000140933
42 *661:A *89:34 0
43 *45:10 *630:A 7.43578e-06
44 *45:10 *631:A 6.8646e-06
45 *45:10 *89:10 0.000241733
46 *45:10 *89:34 0.000152129
*RES
1 *628:X *89:8 15.1571 
2 *89:8 *89:10 9.23214 
3 *89:10 *629:A 25.1214 
4 *89:10 *630:A 15.1571 
5 *89:8 *89:34 10.4464 
6 *89:34 *632:A 15.1571 
7 *89:34 *631:A 24.3357 
*END

*D_NET *90 0.00889029
*CONN
*I *619:CLK I *D sky130_fd_sc_hd__dfrtp_1
*I *602:CLK I *D sky130_fd_sc_hd__dfrtp_1
*I *612:CLK I *D sky130_fd_sc_hd__dfrtp_1
*I *593:CLK I *D sky130_fd_sc_hd__dfrtp_1
*I *623:CLK I *D sky130_fd_sc_hd__dfrtp_1
*I *620:CLK I *D sky130_fd_sc_hd__dfrtp_1
*I *627:CLK I *D sky130_fd_sc_hd__dfrtp_1
*I *594:CLK I *D sky130_fd_sc_hd__dfrtp_1
*I *622:CLK I *D sky130_fd_sc_hd__dfrtp_1
*I *621:CLK I *D sky130_fd_sc_hd__dfrtp_1
*I *629:X O *D sky130_fd_sc_hd__clkbuf_16
*CAP
1 *619:CLK 0
2 *602:CLK 0.000294379
3 *612:CLK 0
4 *593:CLK 0
5 *623:CLK 0
6 *620:CLK 0.000357316
7 *627:CLK 2.22847e-05
8 *594:CLK 8.52669e-05
9 *622:CLK 0
10 *621:CLK 1.91961e-05
11 *629:X 0.000122557
12 *90:86 0.000668644
13 *90:80 0.000679992
14 *90:74 0.000511025
15 *90:72 0.000637071
16 *90:66 0.000985183
17 *90:49 0.00117476
18 *90:22 0.0002173
19 *90:14 0.000552594
20 *90:8 0.000759406
21 *594:CLK *588:A 9.77264e-06
22 *620:CLK *586:A1 0
23 *621:CLK *99:37 2.44318e-05
24 *90:8 *156:27 0.000185118
25 *90:14 *563:A1 4.63958e-05
26 *90:14 *116:27 0
27 *90:22 *563:A1 3.40931e-06
28 *90:22 *588:A 9.76123e-05
29 *90:22 *622:RESET_B 0
30 *90:22 *99:37 0.000269655
31 *90:49 *559:A 0.000101096
32 *90:49 *563:A0 0.000104974
33 *90:49 *563:A1 2.39876e-05
34 *90:49 *679:A 2.28762e-05
35 *90:49 *116:27 0
36 *90:66 *679:A 3.79877e-06
37 *90:72 *612:D 0
38 *90:72 *619:D 0
39 *90:72 *98:19 0
40 *90:74 *561:A0 0
41 *90:74 *612:D 0
42 *90:74 *98:19 0
43 *90:80 *561:A0 0
44 *90:80 *638:A 0.00013166
45 *90:86 *561:A0 0
46 *589:B *594:CLK 5.20669e-05
47 *589:B *90:22 0.000106371
48 *593:D *90:86 0
49 *594:D *594:CLK 2.84026e-05
50 *594:D *90:14 0.000120716
51 *594:D *90:22 2.71557e-05
52 *595:D *90:14 0.000220448
53 *595:D *90:49 7.6644e-05
54 *622:D *90:22 2.09938e-05
55 *627:D *90:49 0.000125724
56 *653:A *620:CLK 0
*RES
1 *629:X *90:8 15.5679 
2 *90:8 *90:14 6.25 
3 *90:14 *90:22 9.76786 
4 *90:22 *621:CLK 9.83571 
5 *90:22 *622:CLK 9.3 
6 *90:14 *594:CLK 15.5679 
7 *90:8 *90:49 12.5536 
8 *90:49 *627:CLK 9.72857 
9 *90:49 *90:66 9.75 
10 *90:66 *90:72 8 
11 *90:72 *90:74 2.55357 
12 *90:74 *90:80 11.2857 
13 *90:80 *90:86 10.0179 
14 *90:86 *620:CLK 20.1393 
15 *90:86 *623:CLK 13.8 
16 *90:80 *593:CLK 9.3 
17 *90:74 *612:CLK 13.8 
18 *90:72 *602:CLK 18.4429 
19 *90:66 *619:CLK 9.3 
*END

*D_NET *91 0.0114419
*CONN
*I *626:CLK I *D sky130_fd_sc_hd__dfrtp_1
*I *625:CLK I *D sky130_fd_sc_hd__dfrtp_1
*I *598:CLK I *D sky130_fd_sc_hd__dfrtp_1
*I *597:CLK I *D sky130_fd_sc_hd__dfrtp_1
*I *599:CLK I *D sky130_fd_sc_hd__dfrtp_1
*I *633:A I *D sky130_fd_sc_hd__clkbuf_8
*I *624:CLK I *D sky130_fd_sc_hd__dfrtp_1
*I *596:CLK I *D sky130_fd_sc_hd__dfrtp_1
*I *595:CLK I *D sky130_fd_sc_hd__dfrtp_1
*I *630:X O *D sky130_fd_sc_hd__clkbuf_16
*CAP
1 *626:CLK 0.000496482
2 *625:CLK 0.000192806
3 *598:CLK 3.4396e-05
4 *597:CLK 0
5 *599:CLK 0.000323949
6 *633:A 0.00021254
7 *624:CLK 0
8 *596:CLK 0
9 *595:CLK 0.000464333
10 *630:X 0
11 *91:65 0.000224747
12 *91:61 0.000453586
13 *91:59 0.000971581
14 *91:35 0.000646427
15 *91:14 0.000609149
16 *91:10 0.000253044
17 *91:8 0.000863708
18 *91:4 0.00105021
19 *595:CLK *562:A0 0.000206113
20 *595:CLK *636:A 2.27416e-05
21 *599:CLK *558:C 0.000126439
22 *599:CLK *599:RESET_B 5.92682e-05
23 *599:CLK *641:A 2.28499e-05
24 *599:CLK *97:29 0
25 *599:CLK *100:81 9.7134e-05
26 *625:CLK *541:B 0.000232371
27 *625:CLK *625:RESET_B 4.85631e-05
28 *625:CLK *100:6 0.00023366
29 *625:CLK *100:14 0.000185761
30 *626:CLK *566:A1 6.22052e-05
31 *626:CLK *626:D 7.38848e-05
32 *626:CLK *635:A 6.28241e-05
33 *626:CLK *674:A 2.8266e-06
34 *626:CLK *175:19 6.22052e-05
35 *626:CLK *176:8 0.000140933
36 *633:A *590:A0 0.000142856
37 *633:A *96:88 0.000573176
38 *91:8 *647:A 0.000312215
39 *91:8 *664:A 0.000318101
40 *91:10 *636:A 0
41 *91:14 *636:A 0
42 *91:14 *100:56 0
43 *91:14 *157:12 0
44 *91:35 *636:A 0
45 *91:35 *100:81 0
46 *91:59 *564:A0 9.90431e-05
47 *91:59 *647:A 0.000537165
48 *91:59 *95:8 8.10585e-05
49 *91:65 *598:RESET_B 0
50 *545:A1 *626:CLK 4.90803e-05
51 *545:A1 *91:61 0.000101545
52 *545:A2 *626:CLK 3.17163e-05
53 *545:A2 *91:61 7.60306e-05
54 *545:A2 *91:65 0.000131472
55 *545:B1 *91:61 2.14378e-05
56 *545:B1 *91:65 0.000208613
57 *545:B2 *91:59 6.26774e-06
58 *594:D *595:CLK 7.09216e-05
59 *624:D *633:A 5.33005e-05
60 *624:D *91:10 5.9483e-05
61 *624:D *91:14 1.41706e-05
62 *624:D *91:35 6.58289e-05
63 *630:A *91:8 4.59075e-05
64 *45:10 *91:8 5.74499e-06
*RES
1 *630:X *91:4 9.3 
2 *91:4 *91:8 15.7143 
3 *91:8 *91:10 2.25 
4 *91:10 *91:14 7.05357 
5 *91:14 *595:CLK 18.4607 
6 *91:14 *596:CLK 9.3 
7 *91:10 *624:CLK 13.8 
8 *91:8 *91:35 2.55357 
9 *91:35 *633:A 19.2643 
10 *91:35 *599:CLK 20.8536 
11 *91:4 *91:59 12.4286 
12 *91:59 *91:61 1.94643 
13 *91:61 *91:65 9.48214 
14 *91:65 *597:CLK 9.3 
15 *91:65 *598:CLK 9.83571 
16 *91:61 *625:CLK 20.4964 
17 *91:59 *626:CLK 24.0679 
*END

*D_NET *92 0.0112792
*CONN
*I *610:CLK I *D sky130_fd_sc_hd__dfrtp_1
*I *617:CLK I *D sky130_fd_sc_hd__dfrtp_1
*I *614:CLK I *D sky130_fd_sc_hd__dfrtp_1
*I *615:CLK I *D sky130_fd_sc_hd__dfrtp_1
*I *618:CLK I *D sky130_fd_sc_hd__dfrtp_1
*I *613:CLK I *D sky130_fd_sc_hd__dfrtp_1
*I *606:CLK I *D sky130_fd_sc_hd__dfrtp_1
*I *609:CLK I *D sky130_fd_sc_hd__dfrtp_1
*I *616:CLK I *D sky130_fd_sc_hd__dfrtp_1
*I *611:CLK I *D sky130_fd_sc_hd__dfrtp_1
*I *631:X O *D sky130_fd_sc_hd__clkbuf_16
*CAP
1 *610:CLK 0.000147998
2 *617:CLK 0.000196468
3 *614:CLK 1.91209e-05
4 *615:CLK 3.82418e-05
5 *618:CLK 0
6 *613:CLK 0.000131147
7 *606:CLK 0.000276426
8 *609:CLK 0.000272645
9 *616:CLK 0
10 *611:CLK 0
11 *631:X 0.000290537
12 *92:102 0.000502518
13 *92:48 0.000844344
14 *92:41 0.000407587
15 *92:37 0.000893007
16 *92:35 0.000752794
17 *92:31 0.000718975
18 *92:25 0.00119916
19 *92:19 0.000799807
20 *92:10 0.000329736
21 *606:CLK *616:RESET_B 9.84792e-05
22 *606:CLK *101:36 0.000266656
23 *606:CLK *127:6 0.000126639
24 *609:CLK *680:A 0.000305083
25 *609:CLK *101:46 0
26 *613:CLK *690:A 5.33005e-05
27 *617:CLK *580:A0 0.000226867
28 *617:CLK *580:A1 0.000205342
29 *617:CLK *580:S 9.83442e-05
30 *92:10 *555:B 0.000121573
31 *92:10 *97:43 2.1938e-05
32 *92:10 *160:12 0.000312743
33 *92:10 *161:14 0.00020042
34 *92:19 *160:12 0.00015304
35 *92:19 *161:14 0.00014279
36 *92:25 *161:14 6.02154e-05
37 *92:31 *161:14 1.15281e-05
38 *92:37 *532:A 0
39 *92:37 *127:23 0
40 *92:48 *127:6 6.87574e-05
41 *92:48 *127:12 0.000166407
42 *92:102 *580:A0 3.17148e-05
43 *92:102 *678:A 0
44 *92:102 *160:12 9.25014e-06
45 *92:102 *161:14 7.64529e-05
46 num_to_send_o[0] *613:CLK 5.52302e-05
47 *533:B2 *92:37 0
48 *533:C1 *92:37 0
49 *615:D *92:31 0.000491738
50 *616:D *92:37 5.57914e-05
51 *616:D *92:41 6.04162e-05
52 *618:D *92:37 3.79467e-05
53 *651:A *92:102 0
*RES
1 *631:X *92:10 20.05 
2 *92:10 *611:CLK 13.8 
3 *92:10 *92:19 1.94643 
4 *92:19 *92:25 11.625 
5 *92:25 *92:31 8.89286 
6 *92:31 *92:35 6.14286 
7 *92:35 *92:37 12.5714 
8 *92:37 *92:41 6.75 
9 *92:41 *616:CLK 9.3 
10 *92:41 *92:48 5.875 
11 *92:48 *609:CLK 24.2643 
12 *92:48 *606:CLK 16.4071 
13 *92:37 *613:CLK 15.9786 
14 *92:35 *618:CLK 13.8 
15 *92:31 *615:CLK 10.0321 
16 *92:25 *614:CLK 9.72857 
17 *92:19 *92:102 7.66071 
18 *92:102 *617:CLK 14.3536 
19 *92:102 *610:CLK 11.4786 
*END

*D_NET *93 0.0106159
*CONN
*I *605:CLK I *D sky130_fd_sc_hd__dfrtp_1
*I *634:A I *D sky130_fd_sc_hd__clkinv_2
*I *604:CLK I *D sky130_fd_sc_hd__dfrtp_1
*I *607:CLK I *D sky130_fd_sc_hd__dfrtp_1
*I *608:CLK I *D sky130_fd_sc_hd__dfrtp_1
*I *601:CLK I *D sky130_fd_sc_hd__dfrtp_1
*I *600:CLK I *D sky130_fd_sc_hd__dfrtp_1
*I *603:CLK I *D sky130_fd_sc_hd__dfrtp_1
*I *632:X O *D sky130_fd_sc_hd__clkbuf_16
*CAP
1 *605:CLK 0
2 *634:A 0
3 *604:CLK 0.000171605
4 *607:CLK 0.000367152
5 *608:CLK 0.000308029
6 *601:CLK 0
7 *600:CLK 0.000397995
8 *603:CLK 0.00097543
9 *632:X 0
10 *93:84 0.00076656
11 *93:71 0.000675149
12 *93:67 0.000286805
13 *93:63 0.000321701
14 *93:31 0.000692028
15 *93:12 0.00134149
16 *93:6 0.000246234
17 *600:CLK *520:A 7.43578e-06
18 *600:CLK *547:B 0.000112738
19 *600:CLK *601:RESET_B 9.65075e-05
20 *600:CLK *97:93 0
21 *600:CLK *102:28 2.72967e-05
22 *603:CLK *523:B 0
23 *603:CLK *546:A 7.26935e-05
24 *603:CLK *590:A1 5.75047e-05
25 *603:CLK *603:D 2.59355e-05
26 *603:CLK *603:RESET_B 0.000131765
27 *603:CLK *663:A 5.71472e-05
28 *603:CLK *95:71 0
29 *603:CLK *102:40 0
30 *603:CLK *150:23 0.000104236
31 *603:CLK *151:14 0.000197984
32 *603:CLK *168:12 5.62995e-05
33 *604:CLK *607:RESET_B 2.51837e-05
34 *604:CLK *166:8 1.55885e-05
35 *608:CLK *522:B 1.58163e-05
36 *608:CLK *102:51 0.000148105
37 *93:12 *150:112 0.00012501
38 *93:31 *547:B 9.22103e-06
39 *93:31 *550:A 1.21289e-05
40 *93:31 *550:B 0.000223564
41 *93:63 *97:82 6.5185e-05
42 *93:63 *150:112 0.000389139
43 *93:67 *538:B 6.20656e-05
44 *93:67 *575:A0 0.000111451
45 *93:67 *575:S 0
46 *93:67 *151:31 0.000227526
47 *93:71 *522:B 0.000123288
48 *93:71 *538:A 0
49 *93:71 *97:82 0
50 *93:71 *102:40 0
51 *93:71 *102:51 0
52 *93:84 *607:RESET_B 5.75896e-05
53 *93:84 *102:51 0
54 *93:84 *121:10 0.000176234
55 *521:B1 *600:CLK 3.69047e-06
56 *521:B2 *600:CLK 3.99614e-06
57 *531:A1 *93:12 0.00012501
58 *531:A1 *93:63 0.000212627
59 *531:A2 *603:CLK 0.000265453
60 *531:A3 *93:31 0.00022266
61 *551:A1 *93:31 9.60875e-05
62 *551:B2 *93:31 5.52238e-05
63 *558:D *603:CLK 0.000139907
64 *600:D *600:CLK 7.83659e-05
65 *601:D *600:CLK 9.91086e-05
66 *604:D *604:CLK 2.89114e-05
67 *655:A *93:84 0
*RES
1 *632:X *93:6 13.8 
2 *93:6 *93:12 6.57143 
3 *93:12 *603:CLK 37.8 
4 *93:12 *93:31 6.19643 
5 *93:31 *600:CLK 26.0679 
6 *93:31 *601:CLK 9.3 
7 *93:6 *93:63 10.0179 
8 *93:63 *93:67 4.25 
9 *93:67 *93:71 7.05357 
10 *93:71 *608:CLK 19.675 
11 *93:71 *93:84 9.48214 
12 *93:84 *607:CLK 15.175 
13 *93:84 *604:CLK 12.3 
14 *93:67 *634:A 9.3 
15 *93:63 *605:CLK 9.3 
*END

*D_NET *94 0.000188111
*CONN
*I *515:A I *D sky130_fd_sc_hd__or3_1
*I *687:X O *D sky130_fd_sc_hd__clkbuf_1
*CAP
1 *515:A 7.50957e-05
2 *687:X 7.50957e-05
3 *515:A *515:C 3.18676e-05
4 *687:A *515:A 6.05161e-06
*RES
1 *687:X *515:A 19.975 
*END

*D_NET *95 0.0140043
*CONN
*I *542:A I *D sky130_fd_sc_hd__nand2_1
*I *538:A I *D sky130_fd_sc_hd__nand2_1
*I *537:A I *D sky130_fd_sc_hd__or2_1
*I *522:A I *D sky130_fd_sc_hd__xor2_1
*I *549:A I *D sky130_fd_sc_hd__or2_1
*I *519:A I *D sky130_fd_sc_hd__nand2_1
*I *518:A I *D sky130_fd_sc_hd__or2_1
*I *526:A I *D sky130_fd_sc_hd__nand2_1
*I *525:A I *D sky130_fd_sc_hd__or2_1
*I *541:A I *D sky130_fd_sc_hd__or2_1
*I *635:X O *D sky130_fd_sc_hd__clkbuf_2
*CAP
1 *542:A 0.000434741
2 *538:A 0.000139892
3 *537:A 0.000322362
4 *522:A 0
5 *549:A 0.000531058
6 *519:A 1.70771e-05
7 *518:A 3.35064e-05
8 *526:A 0
9 *525:A 5.49207e-05
10 *541:A 0.00015219
11 *635:X 0
12 *95:90 0.000362157
13 *95:88 0.000270887
14 *95:71 0.000880393
15 *95:60 0.000607285
16 *95:43 0.000515436
17 *95:29 9.14691e-05
18 *95:23 0.000358997
19 *95:8 0.000574589
20 *95:4 0.000684549
21 *518:A *519:B 0.000139913
22 *518:A *520:B 0.000136958
23 *519:A *663:A 9.25014e-06
24 *519:A *98:61 3.17067e-05
25 *519:A *150:23 2.72545e-05
26 *525:A *525:B 5.33005e-05
27 *537:A *535:B 0.000177821
28 *537:A *537:B 0.00014183
29 *537:A *575:A1 9.71197e-05
30 *537:A *577:S 1.37292e-05
31 *537:A *578:A0 0.000186662
32 *537:A *97:82 0.000313076
33 *537:A *164:19 4.18895e-05
34 *538:A *522:B 0
35 *538:A *97:82 0
36 *538:A *151:14 5.59013e-05
37 *538:A *151:31 0.000115474
38 *541:A *564:A0 0
39 *541:A *565:S 0
40 *541:A *97:128 0.000267814
41 *542:A *566:A0 0
42 *542:A *566:S 0
43 *542:A *591:A0 0.000273269
44 *542:A *591:S 0.000175502
45 *542:A *625:D 0
46 *542:A *105:8 0.000173804
47 *542:A *105:19 0.000239236
48 *542:A *150:79 0
49 *549:A *157:48 7.01205e-05
50 *95:8 *647:A 6.05161e-06
51 *95:23 *550:A 3.69865e-05
52 *95:23 *96:88 2.9566e-05
53 *95:23 *97:118 0.000190155
54 *95:23 *97:128 0.000137112
55 *95:29 *525:B 5.7661e-06
56 *95:29 *674:A 0
57 *95:43 *550:A 0.000126487
58 *95:43 *97:118 0.000390739
59 *95:60 *519:B 2.59355e-05
60 *95:60 *520:A 0.000181796
61 *95:60 *550:A 1.37429e-05
62 *95:60 *97:118 7.57965e-05
63 *95:71 *98:61 0.000158435
64 *95:71 *150:23 8.33559e-05
65 *95:71 *150:112 4.98055e-06
66 *95:71 *151:14 0.000140839
67 *95:88 *151:14 3.84385e-05
68 *95:90 *97:82 6.44345e-05
69 *521:A2 *95:60 1.89596e-05
70 *521:B1 *95:60 0.00010489
71 *521:B2 *95:60 0.000145059
72 *521:C1 *95:43 2.94103e-05
73 *521:C1 *95:60 6.95291e-05
74 *530:A2 *525:A 2.95726e-05
75 *530:A2 *95:23 7.92879e-05
76 *530:A2 *95:29 2.59355e-05
77 *531:A1 *95:71 0.000267807
78 *531:A1 *95:88 0.000305806
79 *531:A1 *95:90 9.90367e-05
80 *531:C1 *95:60 0.000144773
81 *539:A1 *537:A 0.000146474
82 *545:A2 *542:A 2.89016e-05
83 *545:A2 *95:8 7.66879e-05
84 *545:B2 *95:8 1.28809e-05
85 *551:A2 *549:A 3.54839e-05
86 *551:B1 *549:A 0.000225616
87 *551:B2 *549:A 1.403e-05
88 *557:A *537:A 0.000399835
89 *557:C *537:A 8.87196e-05
90 *557:C *95:88 0.000170385
91 *557:C *95:90 0.000276211
92 *558:A_N *537:A 0.000121573
93 *603:CLK *95:71 0
94 *628:A *537:A 3.25078e-05
95 *631:A *537:A 9.31893e-05
96 *675:A *542:A 0
97 *45:10 *95:8 0.000396898
98 *91:59 *95:8 8.10585e-05
99 *93:71 *538:A 0
*RES
1 *635:X *95:4 9.3 
2 *95:4 *95:8 9.96429 
3 *95:8 *541:A 17.2643 
4 *95:8 *95:23 5.03571 
5 *95:23 *95:29 5.46429 
6 *95:29 *525:A 10.6571 
7 *95:29 *526:A 9.3 
8 *95:23 *95:43 5.28571 
9 *95:43 *518:A 15.1571 
10 *95:43 *95:60 16.9107 
11 *95:60 *519:A 14.5321 
12 *95:60 *95:71 7.71429 
13 *95:71 *549:A 20.5143 
14 *95:71 *95:88 7.91071 
15 *95:88 *95:90 2.58929 
16 *95:90 *522:A 9.3 
17 *95:90 *537:A 30.9786 
18 *95:88 *538:A 21.1571 
19 *95:4 *542:A 28.7643 
*END

*D_NET *96 0.0148473
*CONN
*I *550:A I *D sky130_fd_sc_hd__nand2_1
*I *635:A I *D sky130_fd_sc_hd__clkbuf_2
*I *514:A I *D sky130_fd_sc_hd__inv_2
*I *584:A1 I *D sky130_fd_sc_hd__mux2_1
*I *555:A I *D sky130_fd_sc_hd__xor2_1
*I *563:A0 I *D sky130_fd_sc_hd__mux2_1
*I *636:X O *D sky130_fd_sc_hd__clkbuf_2
*CAP
1 *550:A 0.000530473
2 *635:A 0.000519107
3 *514:A 0
4 *584:A1 0.000119164
5 *555:A 4.92315e-05
6 *563:A0 0.000175223
7 *636:X 0
8 *96:88 0.00225635
9 *96:56 0.000628989
10 *96:37 0.00185777
11 *96:8 0.00165593
12 *96:4 0.00138876
13 *550:A *520:A 0.000237913
14 *550:A *547:B 1.3701e-05
15 *550:A *550:B 1.32019e-05
16 *550:A *568:A1 0.000104974
17 *550:A *97:93 0
18 *555:A *553:A 5.33005e-05
19 *555:A *553:B 9.58181e-05
20 *563:A0 *559:A 0.00010326
21 *563:A0 *657:A 0.000267731
22 *584:A1 *584:A0 9.3111e-05
23 *584:A1 *692:A 0.00010933
24 *635:A *527:B 1.92789e-05
25 *635:A *566:A1 0.000125724
26 *635:A *626:RESET_B 6.42242e-05
27 *635:A *176:8 2.47724e-05
28 *96:8 *657:A 0.00022459
29 *96:37 *553:A 5.48715e-05
30 *96:37 *576:A0 3.48183e-05
31 *96:37 *576:S 1.92789e-05
32 *96:37 *101:57 0
33 *96:37 *149:14 0.000154838
34 *96:37 *149:63 0
35 *96:37 *157:25 0.000298976
36 *96:37 *159:14 9.06456e-05
37 *96:37 *162:10 0.000344688
38 *96:56 *513:A 0
39 *96:56 *534:A1 3.63033e-05
40 *96:56 *553:A 3.12359e-05
41 *96:56 *583:A1 0
42 *96:56 *692:A 4.56945e-05
43 *96:56 *101:57 0
44 *96:88 *590:S 0.000336994
45 *521:C1 *550:A 0.000217545
46 *530:A1 *550:A 0.00017309
47 *530:A1 *96:88 9.90367e-05
48 *530:A2 *550:A 0.000150625
49 *530:A2 *635:A 2.89114e-05
50 *530:B2 *96:88 7.70134e-06
51 *530:C1 *96:88 6.4245e-05
52 *531:A3 *550:A 3.18676e-05
53 *531:B1 *550:A 0.000406033
54 *531:B1 *96:88 1.50572e-05
55 *533:B2 *584:A1 0.000240999
56 *534:B2 *584:A1 1.55885e-05
57 *534:B2 *96:56 0.000178847
58 *556:A1 *555:A 2.23592e-05
59 *558:A_N *96:56 5.52238e-05
60 *626:CLK *635:A 6.28241e-05
61 *633:A *96:88 0.000573176
62 *90:49 *563:A0 0.000104974
63 *93:31 *550:A 1.21289e-05
64 *95:23 *550:A 3.69865e-05
65 *95:23 *96:88 2.9566e-05
66 *95:43 *550:A 0.000126487
67 *95:60 *550:A 1.37429e-05
*RES
1 *636:X *96:4 9.3 
2 *96:4 *96:8 3.42857 
3 *96:8 *563:A0 22.2286 
4 *96:8 *96:37 36.7679 
5 *96:37 *555:A 15.175 
6 *96:37 *96:56 14.1429 
7 *96:56 *584:A1 13.5857 
8 *96:56 *514:A 9.3 
9 *96:4 *96:88 25.0357 
10 *96:88 *635:A 29.9071 
11 *96:88 *550:A 30.3 
*END

*D_NET *97 0.0231692
*CONN
*I *554:A I *D sky130_fd_sc_hd__or2_1
*I *527:A I *D sky130_fd_sc_hd__xor2_1
*I *543:A I *D sky130_fd_sc_hd__nand2_1
*I *544:A I *D sky130_fd_sc_hd__or2_1
*I *520:A I *D sky130_fd_sc_hd__xor2_1
*I *524:A I *D sky130_fd_sc_hd__xor2_1
*I *535:A I *D sky130_fd_sc_hd__xor2_1
*I *583:A1 I *D sky130_fd_sc_hd__mux2_1
*I *513:A I *D sky130_fd_sc_hd__inv_2
*I *562:A0 I *D sky130_fd_sc_hd__mux2_1
*I *637:X O *D sky130_fd_sc_hd__clkbuf_4
*CAP
1 *554:A 0
2 *527:A 0
3 *543:A 0.000368579
4 *544:A 5.46415e-05
5 *520:A 0.000318477
6 *524:A 0
7 *535:A 0
8 *583:A1 0.000647557
9 *513:A 0.000112044
10 *562:A0 0.000910572
11 *637:X 0
12 *97:128 0.000939629
13 *97:118 0.00103724
14 *97:93 0.00157875
15 *97:82 0.00226923
16 *97:43 0.00157073
17 *97:35 0.000811128
18 *97:33 0.00164459
19 *97:29 0.000799183
20 *97:6 0.00159496
21 *513:A *101:57 0
22 *520:A *519:B 9.41642e-05
23 *543:A *543:B 9.90367e-05
24 *543:A *598:D 4.46186e-06
25 *543:A *178:19 0.000353092
26 *544:A *565:A0 2.61337e-05
27 *544:A *178:12 1.19402e-05
28 *544:A *178:19 5.52238e-05
29 *562:A0 *595:RESET_B 0
30 *562:A0 *636:A 0
31 *562:A0 *99:10 7.6644e-05
32 *562:A0 *157:12 3.75528e-05
33 *562:A0 *157:25 3.34366e-05
34 *583:A1 *581:A0 0
35 *583:A1 *583:S 0
36 *583:A1 *614:RESET_B 9.10827e-05
37 *583:A1 *101:103 0
38 *583:A1 *148:10 6.63476e-05
39 *583:A1 *148:18 1.00375e-05
40 *583:A1 *149:100 0
41 *583:A1 *149:121 0
42 *97:29 *554:B 0.000162625
43 *97:29 *573:A0 0.000270229
44 *97:29 *573:A1 1.08359e-05
45 *97:29 *636:A 0
46 *97:29 *101:10 6.26559e-05
47 *97:29 *101:22 4.98055e-06
48 *97:29 *149:92 1.3457e-05
49 *97:29 *157:25 0.00140638
50 *97:29 *165:12 0
51 *97:82 *535:B 0.000475657
52 *97:82 *572:S 0.000142856
53 *97:82 *604:RESET_B 4.51611e-05
54 *97:82 *102:65 0.000111451
55 *97:82 *150:112 6.76272e-05
56 *97:82 *151:31 3.34672e-05
57 *97:93 *547:A 6.94775e-05
58 *97:93 *550:B 4.43698e-05
59 *97:93 *568:A1 0.00011016
60 *97:93 *569:A1 0
61 *97:93 *604:RESET_B 3.67142e-05
62 *97:93 *102:28 3.25078e-05
63 *97:93 *169:10 0
64 *97:93 *170:10 5.29648e-05
65 *97:93 *170:12 1.37292e-05
66 *97:118 *568:A0 0
67 *97:118 *592:A1 0
68 *97:118 *674:A 7.4826e-05
69 *97:118 *102:28 0.000105689
70 *97:118 *175:19 1.99099e-05
71 *97:118 *176:23 0
72 *97:128 *565:A0 0.000179062
73 *97:128 *565:S 0
74 *97:128 *175:19 7.40743e-05
75 *97:128 *178:12 2.1527e-05
76 *521:B1 *520:A 2.13481e-06
77 *521:B1 *97:118 7.83587e-05
78 *521:C1 *520:A 4.87854e-05
79 *531:A1 *97:82 6.71657e-05
80 *531:A3 *97:82 5.33005e-05
81 *531:B1 *520:A 0.000243778
82 *534:A2 *583:A1 0.000225314
83 *537:A *97:82 0.000313076
84 *538:A *97:82 0
85 *539:C1 *97:29 0
86 *539:C1 *97:33 8.91726e-05
87 *539:C1 *97:82 4.46186e-06
88 *541:A *97:128 0.000267814
89 *545:B1 *543:A 0
90 *545:C1 *97:128 0.000354158
91 *550:A *520:A 0.000237913
92 *550:A *97:93 0
93 *556:A2 *97:29 5.52302e-05
94 *557:C *97:93 0.000168939
95 *557:D *97:29 4.88637e-05
96 *594:D *562:A0 3.79877e-06
97 *595:CLK *562:A0 0.000206113
98 *599:CLK *97:29 0
99 *600:CLK *520:A 7.43578e-06
100 *600:CLK *97:93 0
101 *614:D *583:A1 4.80553e-05
102 *615:D *583:A1 0
103 *617:D *583:A1 0
104 *628:A *97:29 0
105 *628:A *97:82 0
106 *631:A *97:43 0.00014285
107 *631:A *97:82 7.49387e-06
108 *61:10 *513:A 8.58017e-05
109 *61:10 *583:A1 2.31791e-05
110 *92:10 *97:43 2.1938e-05
111 *93:63 *97:82 6.5185e-05
112 *93:71 *97:82 0
113 *95:23 *97:118 0.000190155
114 *95:23 *97:128 0.000137112
115 *95:43 *97:118 0.000390739
116 *95:60 *520:A 0.000181796
117 *95:60 *97:118 7.57965e-05
118 *95:90 *97:82 6.44345e-05
119 *96:56 *513:A 0
120 *96:56 *583:A1 0
*RES
1 *637:X *97:6 13.8 
2 *97:6 *562:A0 26.9607 
3 *97:6 *97:29 24.9286 
4 *97:29 *97:33 6.75 
5 *97:33 *97:35 4.5 
6 *97:35 *97:43 14.9286 
7 *97:43 *513:A 15.9786 
8 *97:43 *583:A1 26.675 
9 *97:35 *535:A 9.3 
10 *97:33 *97:82 37.75 
11 *97:82 *524:A 9.3 
12 *97:82 *97:93 19.2321 
13 *97:93 *520:A 29.0857 
14 *97:93 *97:118 11.9464 
15 *97:118 *97:128 13.0893 
16 *97:128 *544:A 15.0679 
17 *97:128 *543:A 27.7643 
18 *97:118 *527:A 13.8 
19 *97:29 *554:A 9.3 
*END

*D_NET *98 0.0124702
*CONN
*I *532:B I *D sky130_fd_sc_hd__xor2_1
*I *516:A I *D sky130_fd_sc_hd__or2_1
*I *517:A I *D sky130_fd_sc_hd__nand2_1
*I *528:A I *D sky130_fd_sc_hd__or2_1
*I *529:A I *D sky130_fd_sc_hd__nand2_1
*I *523:A I *D sky130_fd_sc_hd__xor2_1
*I *536:A I *D sky130_fd_sc_hd__xor2_1
*I *552:A I *D sky130_fd_sc_hd__xor2_1
*I *582:A1 I *D sky130_fd_sc_hd__mux2_1
*I *561:A0 I *D sky130_fd_sc_hd__mux2_1
*I *638:X O *D sky130_fd_sc_hd__clkbuf_4
*CAP
1 *532:B 0.000134803
2 *516:A 0
3 *517:A 4.72725e-05
4 *528:A 0
5 *529:A 6.93741e-05
6 *523:A 2.23854e-05
7 *536:A 0
8 *552:A 0
9 *582:A1 0
10 *561:A0 0.000364398
11 *638:X 0
12 *98:69 0.000369336
13 *98:63 0.000452647
14 *98:61 0.000630646
15 *98:48 0.00120315
16 *98:37 0.00081764
17 *98:30 0.00113717
18 *98:21 0.000975065
19 *98:19 0.000875142
20 *98:6 0.00110474
21 *517:A *517:B 5.52302e-05
22 *517:A *641:A 3.48705e-05
23 *517:A *150:66 0.000142856
24 *529:A *528:B 5.52238e-05
25 *532:B *532:A 0.000109809
26 *532:B *613:D 7.27028e-05
27 *532:B *127:23 2.58997e-05
28 *561:A0 *593:RESET_B 0
29 *561:A0 *602:D 5.20904e-05
30 *561:A0 *638:A 5.48488e-05
31 *98:19 *582:A0 0.000459691
32 *98:19 *602:D 3.38136e-05
33 *98:19 *613:D 3.56976e-05
34 *98:19 *680:A 0
35 *98:30 *552:B 0.000100564
36 *98:30 *576:A1 0.000298037
37 *98:30 *579:A0 0.000536146
38 *98:30 *579:A1 0.00018796
39 *98:37 *149:8 9.41642e-05
40 *98:48 *643:A 0.00022459
41 *98:48 *149:8 0.000215096
42 *98:61 *519:B 0.000150198
43 *98:61 *663:A 3.93998e-05
44 *98:61 *150:112 0.000148911
45 *98:63 *517:B 1.46624e-05
46 *98:63 *519:B 1.02504e-05
47 *98:63 *663:A 2.8266e-06
48 *98:63 *171:21 6.35798e-05
49 *98:69 *517:B 1.19402e-05
50 *98:69 *150:27 0
51 *519:A *98:61 3.17067e-05
52 *521:A2 *98:63 6.39262e-05
53 *521:B2 *98:61 2.11419e-05
54 *530:B1 *98:69 1.15281e-05
55 *530:B2 *529:A 7.61932e-05
56 *530:B2 *98:69 9.58508e-05
57 *531:A2 *98:61 0.000210732
58 *531:B1 *98:61 0
59 *531:B1 *98:63 0
60 *531:B1 *98:69 0
61 *531:C1 *98:61 0
62 *533:C1 *532:B 2.8266e-06
63 *539:C1 *98:48 4.01768e-05
64 *551:C1 *98:61 6.8646e-06
65 *558:D *98:48 5.53417e-05
66 *558:D *98:61 5.30209e-05
67 *593:D *561:A0 0.000108618
68 *659:A *532:B 0
69 *661:A *98:48 9.90431e-05
70 *90:72 *98:19 0
71 *90:74 *561:A0 0
72 *90:74 *98:19 0
73 *90:80 *561:A0 0
74 *90:86 *561:A0 0
75 *95:71 *98:61 0.000158435
*RES
1 *638:X *98:6 13.8 
2 *98:6 *561:A0 21.2643 
3 *98:6 *98:19 15.6071 
4 *98:19 *98:21 4.5 
5 *98:21 *582:A1 9.3 
6 *98:21 *98:30 14 
7 *98:30 *552:A 9.3 
8 *98:30 *98:37 2.58929 
9 *98:37 *536:A 9.3 
10 *98:37 *98:48 12.1786 
11 *98:48 *523:A 9.72857 
12 *98:48 *98:61 16.4643 
13 *98:61 *98:63 2.85714 
14 *98:63 *98:69 9.75 
15 *98:69 *529:A 11.0857 
16 *98:69 *528:A 9.3 
17 *98:63 *517:A 15.5857 
18 *98:61 *516:A 13.8 
19 *98:19 *532:B 17.4964 
*END

*D_NET *99 0.00748852
*CONN
*I *594:RESET_B I *D sky130_fd_sc_hd__dfrtp_1
*I *622:RESET_B I *D sky130_fd_sc_hd__dfrtp_1
*I *621:RESET_B I *D sky130_fd_sc_hd__dfrtp_1
*I *620:RESET_B I *D sky130_fd_sc_hd__dfrtp_1
*I *619:RESET_B I *D sky130_fd_sc_hd__dfrtp_1
*I *602:RESET_B I *D sky130_fd_sc_hd__dfrtp_1
*I *612:RESET_B I *D sky130_fd_sc_hd__dfrtp_1
*I *593:RESET_B I *D sky130_fd_sc_hd__dfrtp_1
*I *623:RESET_B I *D sky130_fd_sc_hd__dfrtp_1
*I *595:RESET_B I *D sky130_fd_sc_hd__dfrtp_1
*I *639:X O *D sky130_fd_sc_hd__clkbuf_4
*CAP
1 *594:RESET_B 0
2 *622:RESET_B 3.62792e-05
3 *621:RESET_B 0
4 *620:RESET_B 0.000106246
5 *619:RESET_B 0.00015021
6 *602:RESET_B 0.000138932
7 *612:RESET_B 0
8 *593:RESET_B 0.000515011
9 *623:RESET_B 0.000273476
10 *595:RESET_B 4.38832e-05
11 *639:X 0.000178423
12 *99:83 0.000160903
13 *99:64 0.000384824
14 *99:57 0.000400803
15 *99:37 0.000675181
16 *99:27 0.00105912
17 *99:21 0.000628115
18 *99:10 0.000384517
19 *593:RESET_B *561:A1 0.000222885
20 *593:RESET_B *586:B1 0.000224599
21 *593:RESET_B *638:A 1.66373e-05
22 *602:RESET_B *619:D 9.8504e-05
23 *619:RESET_B *612:D 0
24 *619:RESET_B *646:A 0.000177941
25 *619:RESET_B *657:A 0
26 *620:RESET_B *515:B 0.000244635
27 *620:RESET_B *561:A1 0
28 *620:RESET_B *155:32 7.50601e-05
29 *99:10 *157:12 0
30 *99:21 *157:12 0
31 *99:27 *668:A 9.33978e-07
32 *99:37 *587:B 2.58997e-05
33 *99:37 *587:C 8.78684e-05
34 *99:57 *638:A 6.70877e-05
35 *99:57 *116:27 0
36 *99:57 *156:27 5.33334e-05
37 *99:64 *612:D 0
38 *99:64 *657:A 0
39 *99:83 *515:B 0.000104974
40 *99:83 *561:A1 0
41 *99:83 *586:B1 6.5185e-05
42 *99:83 *686:A 1.17968e-05
43 *99:83 *153:10 1.41029e-05
44 *561:A0 *593:RESET_B 0
45 *562:A0 *595:RESET_B 0
46 *562:A0 *99:10 7.6644e-05
47 *589:B *622:RESET_B 2.29097e-05
48 *589:B *99:27 1.84523e-06
49 *589:B *99:37 9.76435e-06
50 *621:CLK *99:37 2.44318e-05
51 *621:D *99:37 9.45092e-05
52 *623:D *593:RESET_B 0
53 *623:D *623:RESET_B 0.000131765
54 *623:D *99:37 0.000180777
55 *629:A *99:10 4.88515e-05
56 *90:22 *622:RESET_B 0
57 *90:22 *99:37 0.000269655
*RES
1 *639:X *99:10 16.6482 
2 *99:10 *595:RESET_B 5.3125 
3 *99:10 *99:21 3.00893 
4 *99:21 *99:27 10.375 
5 *99:27 *99:37 17.875 
6 *99:37 *623:RESET_B 1.29464 
7 *623:RESET_B *593:RESET_B 14.4554 
8 *593:RESET_B *99:57 10.1875 
9 *99:57 *612:RESET_B 4.5 
10 *99:57 *99:64 1.64286 
11 *99:64 *602:RESET_B 7.02679 
12 *99:64 *619:RESET_B 7.96429 
13 *99:37 *99:83 6.44643 
14 *99:83 *620:RESET_B 7.66071 
15 *99:83 *621:RESET_B 4.5 
16 *99:27 *622:RESET_B 0.901786 
17 *99:21 *594:RESET_B 4.5 
*END

*D_NET *100 0.0114269
*CONN
*I *626:RESET_B I *D sky130_fd_sc_hd__dfrtp_1
*I *598:RESET_B I *D sky130_fd_sc_hd__dfrtp_1
*I *625:RESET_B I *D sky130_fd_sc_hd__dfrtp_1
*I *599:RESET_B I *D sky130_fd_sc_hd__dfrtp_1
*I *627:RESET_B I *D sky130_fd_sc_hd__dfrtp_1
*I *624:RESET_B I *D sky130_fd_sc_hd__dfrtp_1
*I *639:A I *D sky130_fd_sc_hd__clkbuf_4
*I *596:RESET_B I *D sky130_fd_sc_hd__dfrtp_1
*I *597:RESET_B I *D sky130_fd_sc_hd__dfrtp_1
*I *640:X O *D sky130_fd_sc_hd__buf_2
*CAP
1 *626:RESET_B 0.000109036
2 *598:RESET_B 0.000369251
3 *625:RESET_B 2.13951e-05
4 *599:RESET_B 0.000229857
5 *627:RESET_B 0.000200578
6 *624:RESET_B 8.06335e-05
7 *639:A 0.000300569
8 *596:RESET_B 4.43173e-05
9 *597:RESET_B 0.000234649
10 *640:X 0.000413301
11 *100:107 0.000478287
12 *100:81 0.000807791
13 *100:58 0.000381203
14 *100:56 0.000515383
15 *100:42 0.000775094
16 *100:24 0.00132301
17 *100:14 0.000770642
18 *100:6 0.000666937
19 *596:RESET_B *596:D 7.70134e-05
20 *597:RESET_B *540:A 0
21 *597:RESET_B *565:S 0
22 *597:RESET_B *178:12 0.000138106
23 *598:RESET_B *566:A0 0
24 *598:RESET_B *566:A1 7.73277e-05
25 *598:RESET_B *566:S 0.00013906
26 *598:RESET_B *598:D 4.1331e-06
27 *599:RESET_B *558:C 5.33882e-05
28 *599:RESET_B *590:A1 0
29 *599:RESET_B *641:A 0.000393174
30 *625:RESET_B *541:B 4.06077e-05
31 *626:RESET_B *566:A1 5.7936e-05
32 *626:RESET_B *566:S 6.74911e-05
33 *626:RESET_B *591:A0 0.000104974
34 *626:RESET_B *150:79 3.32442e-05
35 *627:RESET_B *558:C 0.000185643
36 *100:6 *541:B 1.33883e-05
37 *100:6 *640:A 1.58163e-05
38 *100:24 *540:A 0
39 *100:24 *541:B 0.000177821
40 *100:24 *564:A1 0.000152431
41 *100:24 *564:S 2.44318e-05
42 *100:24 *565:S 0
43 *100:42 *596:D 0.000225033
44 *100:42 *177:8 5.52238e-05
45 *100:81 *590:A0 7.83587e-05
46 *100:81 *590:A1 0
47 *545:A1 *100:14 1.33343e-05
48 *545:A1 *100:24 0.000107637
49 *545:A2 *598:RESET_B 0
50 *545:B1 *598:RESET_B 0
51 *545:C1 *597:RESET_B 5.17901e-05
52 *599:CLK *599:RESET_B 5.92682e-05
53 *599:CLK *100:81 9.7134e-05
54 *624:D *100:56 1.02504e-05
55 *624:D *100:81 0.00035471
56 *625:CLK *625:RESET_B 4.85631e-05
57 *625:CLK *100:6 0.00023366
58 *625:CLK *100:14 0.000185761
59 *629:A *624:RESET_B 9.84891e-05
60 *629:A *639:A 0.000128886
61 *629:A *100:81 0
62 *635:A *626:RESET_B 6.42242e-05
63 *648:A *597:RESET_B 3.34295e-05
64 *648:A *100:24 0.000103267
65 *89:10 *100:81 0
66 *91:14 *100:56 0
67 *91:35 *100:81 0
68 *91:65 *598:RESET_B 0
*RES
1 *640:X *100:6 14.7643 
2 *100:6 *100:14 4.28571 
3 *100:14 *100:24 14.625 
4 *100:24 *597:RESET_B 9.66964 
5 *100:24 *100:42 13.8036 
6 *100:42 *596:RESET_B 1.72321 
7 *100:42 *100:56 6.375 
8 *100:56 *100:58 4.5 
9 *100:58 *639:A 13.5679 
10 *100:58 *624:RESET_B 1.70536 
11 *100:56 *100:81 8.98214 
12 *100:81 *627:RESET_B 8.25893 
13 *100:81 *599:RESET_B 9.90179 
14 *100:14 *625:RESET_B 0.883929 
15 *100:6 *100:107 4.5 
16 *100:107 *598:RESET_B 12.2411 
17 *100:107 *626:RESET_B 8.26786 
*END

*D_NET *101 0.0106306
*CONN
*I *617:RESET_B I *D sky130_fd_sc_hd__dfrtp_1
*I *615:RESET_B I *D sky130_fd_sc_hd__dfrtp_1
*I *611:RESET_B I *D sky130_fd_sc_hd__dfrtp_1
*I *610:RESET_B I *D sky130_fd_sc_hd__dfrtp_1
*I *614:RESET_B I *D sky130_fd_sc_hd__dfrtp_1
*I *618:RESET_B I *D sky130_fd_sc_hd__dfrtp_1
*I *613:RESET_B I *D sky130_fd_sc_hd__dfrtp_1
*I *616:RESET_B I *D sky130_fd_sc_hd__dfrtp_1
*I *606:RESET_B I *D sky130_fd_sc_hd__dfrtp_1
*I *609:RESET_B I *D sky130_fd_sc_hd__dfrtp_1
*I *641:X O *D sky130_fd_sc_hd__clkbuf_4
*CAP
1 *617:RESET_B 0.000147722
2 *615:RESET_B 4.71781e-05
3 *611:RESET_B 1.25902e-05
4 *610:RESET_B 0.000490531
5 *614:RESET_B 0.000125196
6 *618:RESET_B 8.72397e-05
7 *613:RESET_B 0
8 *616:RESET_B 8.32442e-05
9 *606:RESET_B 2.18047e-05
10 *609:RESET_B 0.00018741
11 *641:X 0.000330759
12 *101:103 0.000395009
13 *101:78 0.000883779
14 *101:67 0.00070613
15 *101:59 0.000287516
16 *101:57 0.000870905
17 *101:46 0.000849279
18 *101:36 0.00118787
19 *101:22 0.00104125
20 *101:10 0.000611471
21 *609:RESET_B *573:S 0.000150362
22 *609:RESET_B *162:10 4.82865e-05
23 *610:RESET_B *678:A 0
24 *614:RESET_B *149:100 0
25 *614:RESET_B *149:121 0.000157775
26 *614:RESET_B *161:14 0
27 *617:RESET_B *580:A1 9.23695e-05
28 *617:RESET_B *138:10 0
29 *617:RESET_B *138:40 0
30 *618:RESET_B *148:6 6.05161e-06
31 *101:10 *558:C 0
32 *101:22 *573:A1 0.000102545
33 *101:46 *680:A 0
34 *101:57 *584:A0 4.94362e-05
35 *101:57 *584:S 0
36 *101:57 *138:10 0
37 *101:57 *148:10 4.43698e-05
38 *101:67 *581:A1 0.000137515
39 *101:67 *148:6 7.48091e-05
40 *101:78 *581:A0 5.49544e-05
41 *101:78 *581:A1 7.57394e-05
42 *101:78 *611:D 3.08664e-05
43 *101:78 *149:121 2.93922e-05
44 *101:103 *138:10 0
45 *101:103 *148:10 6.92148e-06
46 *513:A *101:57 0
47 *534:A2 *101:57 0
48 *534:C1 *101:57 0.00019384
49 *583:A1 *614:RESET_B 9.10827e-05
50 *583:A1 *101:103 0
51 *606:CLK *616:RESET_B 9.84792e-05
52 *606:CLK *101:36 0.000266656
53 *606:D *609:RESET_B 0.000178516
54 *609:CLK *101:46 0
55 *609:D *101:46 0
56 *614:D *617:RESET_B 0
57 *615:D *615:RESET_B 4.96155e-05
58 *615:D *101:103 0.000125724
59 *628:A *610:RESET_B 0
60 *628:A *101:22 0
61 *651:A *610:RESET_B 9.27779e-05
62 *666:A *610:RESET_B 3.79467e-05
63 *61:10 *101:57 0
64 *96:37 *101:57 0
65 *96:56 *101:57 0
66 *97:29 *101:10 6.26559e-05
67 *97:29 *101:22 4.98055e-06
*RES
1 *641:X *101:10 18.6393 
2 *101:10 *609:RESET_B 8.66964 
3 *101:10 *101:22 6.14286 
4 *101:22 *606:RESET_B 0.473214 
5 *101:22 *101:36 12.6071 
6 *101:36 *616:RESET_B 1.70536 
7 *101:36 *101:46 7.66071 
8 *101:46 *613:RESET_B 4.5 
9 *101:46 *101:57 12.3214 
10 *101:57 *101:59 4.5 
11 *101:59 *618:RESET_B 1.29464 
12 *101:59 *101:67 3.82143 
13 *101:67 *614:RESET_B 12.4643 
14 *101:67 *101:78 6.28571 
15 *101:78 *610:RESET_B 17.3036 
16 *101:78 *611:RESET_B 0.473214 
17 *101:57 *101:103 4.125 
18 *101:103 *615:RESET_B 5.38393 
19 *101:103 *617:RESET_B 7.02679 
*END

*D_NET *102 0.0129221
*CONN
*I *600:RESET_B I *D sky130_fd_sc_hd__dfrtp_1
*I *601:RESET_B I *D sky130_fd_sc_hd__dfrtp_1
*I *604:RESET_B I *D sky130_fd_sc_hd__dfrtp_1
*I *605:RESET_B I *D sky130_fd_sc_hd__dfrtp_1
*I *607:RESET_B I *D sky130_fd_sc_hd__dfrtp_1
*I *608:RESET_B I *D sky130_fd_sc_hd__dfrtp_1
*I *603:RESET_B I *D sky130_fd_sc_hd__dfrtp_1
*I *642:X O *D sky130_fd_sc_hd__buf_2
*CAP
1 *600:RESET_B 1.67996e-05
2 *601:RESET_B 0.000230518
3 *604:RESET_B 0.000773554
4 *605:RESET_B 0.00016923
5 *607:RESET_B 0.000191386
6 *608:RESET_B 0
7 *603:RESET_B 0.000109043
8 *642:X 0.00052575
9 *102:65 0.00133844
10 *102:51 0.000943573
11 *102:40 0.00096979
12 *102:28 0.00181959
13 *102:16 0.00136134
14 *102:14 0.00057609
15 *601:RESET_B *547:B 0.000137983
16 *601:RESET_B *568:A0 0.000248486
17 *601:RESET_B *569:A1 5.01117e-05
18 *603:RESET_B *546:A 0
19 *603:RESET_B *590:A1 7.02112e-05
20 *603:RESET_B *168:12 2.56601e-05
21 *604:RESET_B *129:12 3.92854e-05
22 *604:RESET_B *169:6 7.77652e-05
23 *604:RESET_B *169:10 0.000295844
24 *605:RESET_B *568:A1 2.80266e-05
25 *605:RESET_B *572:A1 3.34295e-05
26 *605:RESET_B *123:8 7.83659e-05
27 *605:RESET_B *150:112 0
28 *607:RESET_B *121:10 6.75007e-05
29 *607:RESET_B *150:112 0
30 *102:28 *546:B 7.77751e-05
31 *102:28 *569:S 0.000137515
32 *102:28 *570:S 9.92779e-05
33 *102:28 *151:8 7.48301e-06
34 *102:28 *151:79 7.02611e-05
35 *102:40 *522:B 0
36 *102:40 *523:B 7.83366e-05
37 *102:40 *535:B 0
38 *102:40 *546:A 0
39 *102:40 *643:A 0
40 *102:40 *168:12 2.19778e-05
41 *102:51 *522:B 1.48591e-05
42 *102:51 *535:B 0
43 *102:65 *522:B 1.03968e-05
44 *102:65 *656:A 1.1979e-05
45 *531:A3 *604:RESET_B 1.98839e-05
46 *531:A3 *605:RESET_B 0.000173804
47 *531:A3 *102:65 6.05161e-06
48 *551:C1 *102:28 0.000189276
49 *557:D *102:40 1.12301e-05
50 *600:CLK *601:RESET_B 9.65075e-05
51 *600:CLK *102:28 2.72967e-05
52 *600:D *601:RESET_B 1.91418e-05
53 *600:D *102:28 0.000125717
54 *601:D *601:RESET_B 0.000100831
55 *603:CLK *603:RESET_B 0.000131765
56 *603:CLK *102:40 0
57 *604:CLK *607:RESET_B 2.51837e-05
58 *604:D *607:RESET_B 3.5707e-05
59 *608:CLK *102:51 0.000148105
60 *608:D *102:40 0
61 *45:10 *603:RESET_B 0.000150625
62 *45:10 *102:40 0.000564186
63 *93:71 *102:40 0
64 *93:71 *102:51 0
65 *93:84 *607:RESET_B 5.75896e-05
66 *93:84 *102:51 0
67 *97:82 *604:RESET_B 4.51611e-05
68 *97:82 *102:65 0.000111451
69 *97:93 *604:RESET_B 3.67142e-05
70 *97:93 *102:28 3.25078e-05
71 *97:118 *102:28 0.000105689
*RES
1 *642:X *102:14 16.5857 
2 *102:14 *102:16 0.535714 
3 *102:16 *102:28 29.5536 
4 *102:28 *603:RESET_B 7.74107 
5 *102:28 *102:40 12.5714 
6 *102:40 *608:RESET_B 4.5 
7 *102:40 *102:51 9.66071 
8 *102:51 *607:RESET_B 13.2411 
9 *102:51 *102:65 5.05357 
10 *102:65 *605:RESET_B 12.7411 
11 *102:65 *604:RESET_B 21.1696 
12 *102:16 *601:RESET_B 15.6875 
13 *102:14 *600:RESET_B 0.473214 
*END

*D_NET *103 0.00100255
*CONN
*I *612:D I *D sky130_fd_sc_hd__dfrtp_1
*I *646:X O *D sky130_fd_sc_hd__dlygate4sd3_1
*CAP
1 *612:D 0.00040285
2 *646:X 0.00040285
3 *612:D *619:D 0.000153054
4 *612:D *646:A 0
5 *612:D *116:21 4.37999e-05
6 *619:RESET_B *612:D 0
7 *90:72 *612:D 0
8 *90:74 *612:D 0
9 *99:64 *612:D 0
*RES
1 *646:X *612:D 35.1536 
*END

*D_NET *104 0.0021007
*CONN
*I *560:B I *D sky130_fd_sc_hd__and2b_1
*I *619:D I *D sky130_fd_sc_hd__dfrtp_1
*I *657:X O *D sky130_fd_sc_hd__dlygate4sd3_1
*CAP
1 *560:B 0
2 *619:D 0.000361288
3 *657:X 0.000212531
4 *104:8 0.000573819
5 *619:D *560:A_N 4.89643e-05
6 *619:D *646:A 0.000185643
7 *619:D *657:A 6.05161e-06
8 *104:8 *657:A 0.000221364
9 *104:8 *679:A 5.49544e-05
10 *602:RESET_B *619:D 9.8504e-05
11 *612:D *619:D 0.000153054
12 *627:D *104:8 0.000184522
13 *90:72 *619:D 0
*RES
1 *657:X *104:8 14.3714 
2 *104:8 *619:D 26.1214 
3 *104:8 *560:B 9.3 
*END

*D_NET *105 0.00819599
*CONN
*I *642:A I *D sky130_fd_sc_hd__buf_2
*I *641:A I *D sky130_fd_sc_hd__clkbuf_4
*I *640:A I *D sky130_fd_sc_hd__buf_2
*I *688:X O *D sky130_fd_sc_hd__buf_1
*CAP
1 *642:A 0.000269992
2 *641:A 0.00185984
3 *640:A 2.59948e-05
4 *688:X 0.000245171
5 *105:19 0.00255451
6 *105:8 0.00069585
7 *640:A *541:B 2.59355e-05
8 *641:A *517:B 0.000100625
9 *641:A *592:A0 0.000315158
10 *641:A *150:66 0.000188881
11 *641:A *150:79 9.40609e-05
12 *641:A *171:8 1.48545e-05
13 *642:A *591:A1 0
14 *642:A *172:8 0
15 *642:A *173:14 7.83462e-05
16 *105:8 *541:B 7.38748e-05
17 *105:8 *566:A0 0
18 *105:8 *684:A 0.000287938
19 *105:8 *179:21 7.25296e-05
20 *105:19 *591:A1 0
21 *105:19 *626:D 0.000270243
22 *517:A *641:A 3.48705e-05
23 *542:A *105:8 0.000173804
24 *542:A *105:19 0.000239236
25 *599:CLK *641:A 2.28499e-05
26 *599:RESET_B *641:A 0.000393174
27 *671:A *641:A 2.27416e-05
28 *685:A *105:8 0.000119699
29 *100:6 *640:A 1.58163e-05
*RES
1 *688:X *105:8 21.5143 
2 *105:8 *640:A 14.3357 
3 *105:8 *105:19 9.53571 
4 *105:19 *641:A 40.3714 
5 *105:19 *642:A 19.0857 
*END

*D_NET *106 0.00261858
*CONN
*I *563:A1 I *D sky130_fd_sc_hd__mux2_1
*I *589:A I *D sky130_fd_sc_hd__xor2_1
*I *668:X O *D sky130_fd_sc_hd__dlygate4sd3_1
*CAP
1 *563:A1 0.000445459
2 *589:A 0.000198526
3 *668:X 5.11586e-05
4 *106:8 0.000695144
5 *563:A1 *559:A 0.000193943
6 *563:A1 *588:A 6.82922e-05
7 *589:B *563:A1 0.000117903
8 *589:B *589:A 0.000307854
9 *594:D *563:A1 0.000176226
10 *595:D *563:A1 0.000290279
11 *90:14 *563:A1 4.63958e-05
12 *90:22 *563:A1 3.40931e-06
13 *90:49 *563:A1 2.39876e-05
*RES
1 *668:X *106:8 14.3357 
2 *106:8 *589:A 18.3179 
3 *106:8 *563:A1 25.1571 
*END

*D_NET *107 0.000451992
*CONN
*I *560:A_N I *D sky130_fd_sc_hd__and2b_1
*I *679:X O *D sky130_fd_sc_hd__dlygate4sd3_1
*CAP
1 *560:A_N 0.000130647
2 *679:X 0.000130647
3 *560:A_N *657:A 0.000141734
4 *619:D *560:A_N 4.89643e-05
*RES
1 *679:X *560:A_N 21.1893 
*END

*D_NET *108 0.0012456
*CONN
*I *565:A0 I *D sky130_fd_sc_hd__mux2_1
*I *682:X O *D sky130_fd_sc_hd__dlygate4sd3_1
*CAP
1 *565:A0 0.000282256
2 *682:X 0.000282256
3 *565:A0 *565:A1 0.000170955
4 *544:A *565:A0 2.61337e-05
5 *545:B1 *565:A0 0
6 *545:B2 *565:A0 0.000124704
7 *545:C1 *565:A0 0.000151333
8 *683:A *565:A0 2.89016e-05
9 *97:128 *565:A0 0.000179062
*RES
1 *682:X *565:A0 35.8857 
*END

*D_NET *109 0.000512554
*CONN
*I *597:D I *D sky130_fd_sc_hd__dfrtp_1
*I *683:X O *D sky130_fd_sc_hd__dlygate4sd3_1
*CAP
1 *597:D 0.000126803
2 *683:X 0.000126803
3 *597:D *565:A1 9.33978e-07
4 *545:B1 *597:D 0.000128146
5 *545:B2 *597:D 0.000129868
*RES
1 *683:X *597:D 30.1893 
*END

*D_NET *110 0.000836326
*CONN
*I *566:A0 I *D sky130_fd_sc_hd__mux2_1
*I *684:X O *D sky130_fd_sc_hd__dlygate4sd3_1
*CAP
1 *566:A0 0.000331273
2 *684:X 0.000331273
3 *566:A0 *598:D 0
4 *566:A0 *684:A 0
5 *542:A *566:A0 0
6 *598:RESET_B *566:A0 0
7 *685:A *566:A0 0.00017378
8 *105:8 *566:A0 0
*RES
1 *684:X *566:A0 34.4036 
*END

*D_NET *111 0.000545673
*CONN
*I *598:D I *D sky130_fd_sc_hd__dfrtp_1
*I *685:X O *D sky130_fd_sc_hd__dlygate4sd3_1
*CAP
1 *598:D 0.000264821
2 *685:X 0.000264821
3 *598:D *543:B 7.43578e-06
4 *543:A *598:D 4.46186e-06
5 *545:B1 *598:D 0
6 *566:A0 *598:D 0
7 *598:RESET_B *598:D 4.1331e-06
*RES
1 *685:X *598:D 31.1179 
*END

*D_NET *112 0.00217262
*CONN
*I *562:A1 I *D sky130_fd_sc_hd__mux2_1
*I *586:B1 I *D sky130_fd_sc_hd__a21oi_1
*I *686:X O *D sky130_fd_sc_hd__dlygate4sd3_1
*CAP
1 *562:A1 0.000214369
2 *586:B1 0.000465354
3 *686:X 0
4 *112:4 0.000679722
5 *562:A1 *561:S 0.000189345
6 *562:A1 *686:A 9.71197e-05
7 *586:B1 *561:A1 6.1684e-05
8 *586:B1 *586:A1 7.77652e-05
9 *586:B1 *686:A 0
10 *586:B1 *153:10 9.74783e-05
11 *593:RESET_B *586:B1 0.000224599
12 *623:D *586:B1 0
13 *99:83 *586:B1 6.5185e-05
*RES
1 *686:X *112:4 9.3 
2 *112:4 *586:B1 26.925 
3 *112:4 *562:A1 13.9429 
*END

*D_NET *113 0.000536462
*CONN
*I *564:A0 I *D sky130_fd_sc_hd__mux2_1
*I *647:X O *D sky130_fd_sc_hd__dlygate4sd3_1
*CAP
1 *564:A0 0.000190763
2 *647:X 0.000190763
3 *564:A0 *565:S 5.58941e-05
4 *564:A0 *150:33 0
5 *541:A *564:A0 0
6 *91:59 *564:A0 9.90431e-05
*RES
1 *647:X *564:A0 30.4929 
*END

*D_NET *114 0.00092964
*CONN
*I *596:D I *D sky130_fd_sc_hd__dfrtp_1
*I *648:X O *D sky130_fd_sc_hd__dlygate4sd3_1
*CAP
1 *596:D 0.000313797
2 *648:X 0.000313797
3 *596:RESET_B *596:D 7.70134e-05
4 *100:42 *596:D 0.000225033
*RES
1 *648:X *596:D 25.7071 
*END

*D_NET *115 0.000812815
*CONN
*I *585:A I *D sky130_fd_sc_hd__xor2_1
*I *649:X O *D sky130_fd_sc_hd__dlygate4sd3_1
*CAP
1 *585:A 0.000263555
2 *649:X 0.000263555
3 *585:A *585:B 0.000230475
4 *585:A *649:A 5.52302e-05
*RES
1 *649:X *585:A 23.6536 
*END

*D_NET *116 0.00464341
*CONN
*I *563:S I *D sky130_fd_sc_hd__mux2_1
*I *562:S I *D sky130_fd_sc_hd__mux2_1
*I *561:S I *D sky130_fd_sc_hd__mux2_1
*I *602:D I *D sky130_fd_sc_hd__dfrtp_1
*I *689:X O *D sky130_fd_sc_hd__buf_1
*CAP
1 *563:S 0.000329261
2 *562:S 0
3 *561:S 0.00035169
4 *602:D 0.000122953
5 *689:X 4.88933e-05
6 *116:27 0.000660663
7 *116:21 0.00148476
8 *116:6 0.00101838
9 *561:S *561:A1 2.89016e-05
10 *561:S *686:A 9.71197e-05
11 *561:A0 *602:D 5.20904e-05
12 *562:A1 *561:S 0.000189345
13 *595:D *563:S 0.000181745
14 *612:D *116:21 4.37999e-05
15 *623:D *116:27 0
16 *90:14 *116:27 0
17 *90:49 *116:27 0
18 *98:19 *602:D 3.38136e-05
19 *99:57 *116:27 0
*RES
1 *689:X *116:6 9.83571 
2 *116:6 *602:D 21.1571 
3 *116:6 *116:21 10 
4 *116:21 *116:27 13.6786 
5 *116:27 *561:S 15.6214 
6 *116:27 *562:S 9.3 
7 *116:21 *563:S 14.7821 
*END

*D_NET *117 0.00219211
*CONN
*I *575:A1 I *D sky130_fd_sc_hd__mux2_1
*I *578:A0 I *D sky130_fd_sc_hd__mux2_1
*I *650:X O *D sky130_fd_sc_hd__dlygate4sd3_1
*CAP
1 *575:A1 0.000143605
2 *578:A0 0.000131406
3 *650:X 0
4 *117:4 0.00027501
5 *575:A1 *538:B 0.000192489
6 *575:A1 *151:35 0.000444673
7 *575:A1 *164:19 0.000111501
8 *578:A0 *578:A1 5.71472e-05
9 *578:A0 *578:S 2.44318e-05
10 *537:A *575:A1 9.71197e-05
11 *537:A *578:A0 0.000186662
12 *539:A1 *575:A1 0.000125547
13 *539:A1 *578:A0 0.000254907
14 *539:A2 *575:A1 1.98839e-05
15 *558:A_N *578:A0 4.69993e-05
16 *651:A *578:A0 8.07313e-05
*RES
1 *650:X *117:4 9.3 
2 *117:4 *578:A0 14.4964 
3 *117:4 *575:A1 15.5857 
*END

*D_NET *118 0.000294126
*CONN
*I *611:D I *D sky130_fd_sc_hd__dfrtp_1
*I *651:X O *D sky130_fd_sc_hd__dlygate4sd3_1
*CAP
1 *611:D 0.000112351
2 *651:X 0.000112351
3 *611:D *160:12 3.85567e-05
4 *101:78 *611:D 3.08664e-05
*RES
1 *651:X *611:D 29.7786 
*END

*D_NET *119 0.00144203
*CONN
*I *561:A1 I *D sky130_fd_sc_hd__mux2_1
*I *652:X O *D sky130_fd_sc_hd__dlygate4sd3_1
*CAP
1 *561:A1 0.000494755
2 *652:X 0.000494755
3 *561:A1 *586:A1 0
4 *561:A1 *155:32 0.00013905
5 *561:S *561:A1 2.89016e-05
6 *586:B1 *561:A1 6.1684e-05
7 *593:RESET_B *561:A1 0.000222885
8 *620:D *561:A1 0
9 *620:RESET_B *561:A1 0
10 *653:A *561:A1 0
11 *99:83 *561:A1 0
*RES
1 *652:X *561:A1 37.7786 
*END

*D_NET *120 0.00158295
*CONN
*I *588:A I *D sky130_fd_sc_hd__nor2_1
*I *653:X O *D sky130_fd_sc_hd__dlygate4sd3_1
*CAP
1 *588:A 0.00048533
2 *653:X 0.00048533
3 *563:A1 *588:A 6.82922e-05
4 *588:B *588:A 5.7661e-06
5 *589:B *588:A 0.000335035
6 *594:CLK *588:A 9.77264e-06
7 *594:D *588:A 9.58126e-05
8 *90:22 *588:A 9.76123e-05
*RES
1 *653:X *588:A 35.7429 
*END

*D_NET *121 0.00168914
*CONN
*I *571:A1 I *D sky130_fd_sc_hd__mux2_1
*I *574:A0 I *D sky130_fd_sc_hd__mux2_1
*I *654:X O *D sky130_fd_sc_hd__dlygate4sd3_1
*CAP
1 *571:A1 0.000196846
2 *574:A0 0.000126067
3 *654:X 0.000154539
4 *121:10 0.000477453
5 *571:A1 *571:A0 5.71472e-05
6 *571:A1 *571:S 6.05161e-06
7 *571:A1 *574:S 0.000236814
8 *574:A0 *574:A1 5.71472e-05
9 *574:A0 *574:S 7.61932e-05
10 *607:RESET_B *121:10 6.75007e-05
11 *655:A *574:A0 5.71472e-05
12 *655:A *121:10 0
13 *93:84 *121:10 0.000176234
*RES
1 *654:X *121:10 22.0679 
2 *121:10 *574:A0 11.8893 
3 *121:10 *571:A1 13.5321 
*END

*D_NET *122 0.000358071
*CONN
*I *607:D I *D sky130_fd_sc_hd__dfrtp_1
*I *655:X O *D sky130_fd_sc_hd__dlygate4sd3_1
*CAP
1 *607:D 0.000179036
2 *655:X 0.000179036
3 *607:D *665:A 0
4 *655:A *607:D 0
*RES
1 *655:X *607:D 30.3857 
*END

*D_NET *123 0.00247981
*CONN
*I *575:A0 I *D sky130_fd_sc_hd__mux2_1
*I *572:A1 I *D sky130_fd_sc_hd__mux2_1
*I *656:X O *D sky130_fd_sc_hd__dlygate4sd3_1
*CAP
1 *575:A0 0.000681593
2 *572:A1 8.78241e-05
3 *656:X 3.37971e-05
4 *123:8 0.000803214
5 *572:A1 *150:112 4.38418e-05
6 *575:A0 *538:B 0.000398815
7 *123:8 *150:112 2.28428e-05
8 *531:A3 *572:A1 0.000117144
9 *605:D *572:A1 6.74911e-05
10 *605:RESET_B *572:A1 3.34295e-05
11 *605:RESET_B *123:8 7.83659e-05
12 *93:67 *575:A0 0.000111451
*RES
1 *656:X *123:8 14.8357 
2 *123:8 *572:A1 16.9607 
3 *123:8 *575:A0 22.55 
*END

*D_NET *124 0.00190542
*CONN
*I *576:A1 I *D sky130_fd_sc_hd__mux2_1
*I *579:A0 I *D sky130_fd_sc_hd__mux2_1
*I *658:X O *D sky130_fd_sc_hd__dlygate4sd3_1
*CAP
1 *576:A1 0.000143389
2 *579:A0 8.07576e-05
3 *658:X 0
4 *124:4 0.000224147
5 *576:A1 *552:B 4.17433e-05
6 *576:A1 *149:63 0.000148496
7 *576:A1 *159:14 0.000111348
8 *579:A0 *579:A1 5.71472e-05
9 *579:A0 *149:63 0.000215348
10 *579:A0 *149:65 4.88637e-05
11 *98:30 *576:A1 0.000298037
12 *98:30 *579:A0 0.000536146
*RES
1 *658:X *124:4 9.3 
2 *124:4 *579:A0 14.3536 
3 *124:4 *576:A1 22.9429 
*END

*D_NET *125 0.00059199
*CONN
*I *613:D I *D sky130_fd_sc_hd__dfrtp_1
*I *659:X O *D sky130_fd_sc_hd__dlygate4sd3_1
*CAP
1 *613:D 0.000201755
2 *659:X 0.000201755
3 *613:D *584:S 0
4 *532:B *613:D 7.27028e-05
5 *659:A *613:D 8.00806e-05
6 *98:19 *613:D 3.56976e-05
*RES
1 *659:X *613:D 31.9036 
*END

*D_NET *126 0.00225798
*CONN
*I *570:A0 I *D sky130_fd_sc_hd__mux2_1
*I *567:A1 I *D sky130_fd_sc_hd__mux2_1
*I *660:X O *D sky130_fd_sc_hd__dlygate4sd3_1
*CAP
1 *570:A0 0.000155159
2 *567:A1 0.000512599
3 *660:X 0
4 *126:4 0.000667758
5 *567:A1 *567:A0 0.000315165
6 *570:A0 *523:B 3.36529e-05
7 *570:A0 *570:S 7.06156e-05
8 *570:A0 *165:23 5.71472e-05
9 *599:D *567:A1 1.3277e-05
10 *45:10 *567:A1 0.000135793
11 *89:8 *567:A1 2.72859e-05
12 *89:34 *567:A1 0.000269529
*RES
1 *660:X *126:4 9.3 
2 *126:4 *567:A1 27.2286 
3 *126:4 *570:A0 12.7643 
*END

*D_NET *127 0.00435913
*CONN
*I *680:A I *D sky130_fd_sc_hd__dlygate4sd3_1
*I *532:A I *D sky130_fd_sc_hd__xor2_1
*I *579:A1 I *D sky130_fd_sc_hd__mux2_1
*I *690:A I *D sky130_fd_sc_hd__buf_2
*I *616:Q O *D sky130_fd_sc_hd__dfrtp_1
*CAP
1 *680:A 0.000311831
2 *532:A 0.00011266
3 *579:A1 0.000148901
4 *690:A 3.04135e-05
5 *616:Q 0.000241857
6 *127:23 0.000320697
7 *127:12 0.000364478
8 *127:6 0.000828616
9 *579:A1 *582:S 0.000273269
10 *579:A1 *149:65 4.38128e-05
11 *680:A *582:A0 3.67257e-05
12 *127:12 *582:A0 0.000148903
13 *127:23 *582:A0 0.000128161
14 *532:B *532:A 0.000109809
15 *532:B *127:23 2.58997e-05
16 *533:C1 *532:A 0
17 *579:A0 *579:A1 5.71472e-05
18 *606:CLK *127:6 0.000126639
19 *609:CLK *680:A 0.000305083
20 *613:CLK *690:A 5.33005e-05
21 *616:D *127:12 0.000150618
22 *616:D *127:23 0.000117189
23 *92:37 *532:A 0
24 *92:37 *127:23 0
25 *92:48 *127:6 6.87574e-05
26 *92:48 *127:12 0.000166407
27 *98:19 *680:A 0
28 *98:30 *579:A1 0.00018796
29 *101:46 *680:A 0
*RES
1 *616:Q *127:6 12.7107 
2 *127:6 *127:12 9.44643 
3 *127:12 *690:A 14.3357 
4 *127:12 *127:23 2.25 
5 *127:23 *579:A1 18.4429 
6 *127:23 *532:A 16.6571 
7 *127:6 *680:A 25.175 
*END

*D_NET *128 0.00116752
*CONN
*I *603:D I *D sky130_fd_sc_hd__dfrtp_1
*I *661:X O *D sky130_fd_sc_hd__dlygate4sd3_1
*CAP
1 *603:D 0.0001776
2 *661:X 0.0001776
3 *603:D *558:C 0.000365682
4 *603:D *643:A 5.33005e-05
5 *603:CLK *603:D 2.59355e-05
6 *628:A *603:D 0.000367403
*RES
1 *661:X *603:D 33.35 
*END

*D_NET *129 0.0041138
*CONN
*I *568:A1 I *D sky130_fd_sc_hd__mux2_1
*I *571:A0 I *D sky130_fd_sc_hd__mux2_1
*I *662:X O *D sky130_fd_sc_hd__dlygate4sd3_1
*CAP
1 *568:A1 0.000686759
2 *571:A0 0.000210739
3 *662:X 0.000465649
4 *129:12 0.00136315
5 *568:A1 *524:B 0.000163065
6 *568:A1 *547:A 0.00014576
7 *568:A1 *569:S 3.18676e-05
8 *568:A1 *150:112 0
9 *571:A0 *571:S 1.56e-05
10 *531:A3 *568:A1 0.000541
11 *531:C1 *568:A1 0
12 *550:A *568:A1 0.000104974
13 *551:A1 *568:A1 0.000150625
14 *551:C1 *568:A1 0
15 *571:A1 *571:A0 5.71472e-05
16 *604:D *568:A1 0
17 *604:RESET_B *129:12 3.92854e-05
18 *605:RESET_B *568:A1 2.80266e-05
19 *97:93 *568:A1 0.00011016
*RES
1 *662:X *129:12 23.9786 
2 *129:12 *571:A0 11.8893 
3 *129:12 *568:A1 35.1571 
*END

*D_NET *130 0.00276592
*CONN
*I *567:A0 I *D sky130_fd_sc_hd__mux2_1
*I *590:A1 I *D sky130_fd_sc_hd__mux2_1
*I *663:X O *D sky130_fd_sc_hd__dlygate4sd3_1
*CAP
1 *567:A0 0.000165765
2 *590:A1 0.000571973
3 *663:X 0
4 *130:4 0.000737738
5 *590:A1 *558:C 0
6 *567:A1 *567:A0 0.000315165
7 *599:D *567:A0 4.37999e-05
8 *599:D *590:A1 6.74815e-05
9 *599:RESET_B *590:A1 0
10 *603:CLK *590:A1 5.75047e-05
11 *603:RESET_B *590:A1 7.02112e-05
12 *45:10 *567:A0 3.25247e-05
13 *89:10 *590:A1 0.000536073
14 *89:34 *590:A1 0.000167684
15 *100:81 *590:A1 0
*RES
1 *663:X *130:4 9.3 
2 *130:4 *590:A1 30.2286 
3 *130:4 *567:A0 22.6393 
*END

*D_NET *131 0.00050371
*CONN
*I *590:A0 I *D sky130_fd_sc_hd__mux2_1
*I *664:X O *D sky130_fd_sc_hd__dlygate4sd3_1
*CAP
1 *590:A0 0.000141248
2 *664:X 0.000141248
3 *633:A *590:A0 0.000142856
4 *89:10 *590:A0 0
5 *100:81 *590:A0 7.83587e-05
*RES
1 *664:X *590:A0 29.9929 
*END

*D_NET *132 0.000507019
*CONN
*I *577:A0 I *D sky130_fd_sc_hd__mux2_1
*I *665:X O *D sky130_fd_sc_hd__dlygate4sd3_1
*CAP
1 *577:A0 0.000195048
2 *665:X 0.000195048
3 *577:A0 *577:A1 1.72894e-05
4 *577:A0 *665:A 7.39637e-05
5 *577:A0 *163:8 2.56694e-05
6 *666:A *577:A0 0
*RES
1 *665:X *577:A0 31.6 
*END

*D_NET *133 0.00026725
*CONN
*I *610:D I *D sky130_fd_sc_hd__dfrtp_1
*I *666:X O *D sky130_fd_sc_hd__dlygate4sd3_1
*CAP
1 *610:D 0.000113414
2 *666:X 0.000113414
3 *610:D *678:A 4.04221e-05
4 *666:A *610:D 0
*RES
1 *666:X *610:D 29.7786 
*END

*D_NET *134 0.00233208
*CONN
*I *569:A1 I *D sky130_fd_sc_hd__mux2_1
*I *572:A0 I *D sky130_fd_sc_hd__mux2_1
*I *667:X O *D sky130_fd_sc_hd__dlygate4sd3_1
*CAP
1 *569:A1 0.000490659
2 *572:A0 0.000141254
3 *667:X 0
4 *134:4 0.000631913
5 *569:A1 *547:B 0.000299988
6 *569:A1 *550:B 0
7 *569:A1 *569:A0 3.18676e-05
8 *569:A1 *667:A 0.000142856
9 *569:A1 *169:10 0.000117903
10 *569:A1 *170:12 0
11 *572:A0 *572:S 5.62995e-05
12 *557:C *569:A1 5.33005e-05
13 *557:C *572:A0 0.000315932
14 *601:RESET_B *569:A1 5.01117e-05
15 *97:93 *569:A1 0
*RES
1 *667:X *134:4 9.3 
2 *134:4 *572:A0 13.1393 
3 *134:4 *569:A1 28.4429 
*END

*D_NET *135 0.0018863
*CONN
*I *573:A1 I *D sky130_fd_sc_hd__mux2_1
*I *576:A0 I *D sky130_fd_sc_hd__mux2_1
*I *669:X O *D sky130_fd_sc_hd__dlygate4sd3_1
*CAP
1 *573:A1 0.000368989
2 *576:A0 0.00015793
3 *669:X 0
4 *135:4 0.000526919
5 *573:A1 *573:A0 0.000323529
6 *573:A1 *149:14 0.000225995
7 *573:A1 *165:12 3.5707e-05
8 *576:A0 *576:S 5.71472e-05
9 *576:A0 *149:14 4.18895e-05
10 *628:A *573:A1 0
11 *96:37 *576:A0 3.48183e-05
12 *97:29 *573:A1 1.08359e-05
13 *101:22 *573:A1 0.000102545
*RES
1 *669:X *135:4 9.3 
2 *135:4 *576:A0 12.2107 
3 *135:4 *573:A1 26.3 
*END

*D_NET *136 0.000874134
*CONN
*I *592:A0 I *D sky130_fd_sc_hd__mux2_1
*I *670:X O *D sky130_fd_sc_hd__dlygate4sd3_1
*CAP
1 *592:A0 0.00025985
2 *670:X 0.00025985
3 *592:A0 *591:A1 3.92757e-05
4 *592:A0 *150:79 0
5 *641:A *592:A0 0.000315158
*RES
1 *670:X *592:A0 31.6357 
*END

*D_NET *137 0.000820553
*CONN
*I *626:D I *D sky130_fd_sc_hd__dfrtp_1
*I *671:X O *D sky130_fd_sc_hd__dlygate4sd3_1
*CAP
1 *626:D 0.000189978
2 *671:X 0.000189978
3 *626:D *591:A1 9.64695e-05
4 *626:CLK *626:D 7.38848e-05
5 *105:19 *626:D 0.000270243
*RES
1 *671:X *626:D 32.3411 
*END

*D_NET *138 0.00674949
*CONN
*I *580:A1 I *D sky130_fd_sc_hd__mux2_1
*I *691:A I *D sky130_fd_sc_hd__buf_2
*I *583:A0 I *D sky130_fd_sc_hd__mux2_1
*I *534:A1 I *D sky130_fd_sc_hd__o221a_1
*I *533:A1 I *D sky130_fd_sc_hd__a221oi_1
*I *617:Q O *D sky130_fd_sc_hd__dfrtp_1
*CAP
1 *580:A1 0.000541485
2 *691:A 0.000419265
3 *583:A0 0
4 *534:A1 0.000445782
5 *533:A1 0.000180511
6 *617:Q 0.000295917
7 *138:40 0.00090926
8 *138:10 0.00097851
9 *138:8 0.000842213
10 *138:6 0.000837402
11 *533:A1 *584:A0 7.79781e-06
12 *533:A1 *584:S 0.000197269
13 *534:A1 *692:A 0.000400867
14 *580:A1 *580:A0 5.49544e-05
15 *691:A *583:S 5.33334e-05
16 *138:40 *583:S 0
17 *533:B2 *533:A1 5.57727e-05
18 *614:D *580:A1 0.000139913
19 *617:CLK *580:A1 0.000205342
20 *617:D *138:40 5.52238e-05
21 *617:RESET_B *580:A1 9.23695e-05
22 *617:RESET_B *138:10 0
23 *617:RESET_B *138:40 0
24 *618:D *138:10 0
25 *96:56 *534:A1 3.63033e-05
26 *101:57 *138:10 0
27 *101:103 *138:10 0
*RES
1 *617:Q *138:6 12.7107 
2 *138:6 *138:8 4.5 
3 *138:8 *138:10 5.89286 
4 *138:10 *533:A1 17.2643 
5 *138:10 *534:A1 19.9964 
6 *138:8 *138:40 12.8571 
7 *138:40 *583:A0 9.3 
8 *138:40 *691:A 25.1929 
9 *138:6 *580:A1 17.925 
*END

*D_NET *139 0.000423287
*CONN
*I *569:A0 I *D sky130_fd_sc_hd__mux2_1
*I *672:X O *D sky130_fd_sc_hd__dlygate4sd3_1
*CAP
1 *569:A0 0.00014523
2 *672:X 0.00014523
3 *569:A0 *569:S 0.00010096
4 *569:A1 *569:A0 3.18676e-05
*RES
1 *672:X *569:A0 21.6 
*END

*D_NET *140 0.000834034
*CONN
*I *573:A0 I *D sky130_fd_sc_hd__mux2_1
*I *673:X O *D sky130_fd_sc_hd__dlygate4sd3_1
*CAP
1 *573:A0 0.000120138
2 *673:X 0.000120138
3 *573:A1 *573:A0 0.000323529
4 *97:29 *573:A0 0.000270229
*RES
1 *673:X *573:A0 31.6 
*END

*D_NET *141 0.00124562
*CONN
*I *591:A0 I *D sky130_fd_sc_hd__mux2_1
*I *674:X O *D sky130_fd_sc_hd__dlygate4sd3_1
*CAP
1 *591:A0 0.000298565
2 *674:X 0.000298565
3 *591:A0 *566:A1 0
4 *591:A0 *150:79 0.000270243
5 *591:A0 *176:23 0
6 *542:A *591:A0 0.000273269
7 *626:RESET_B *591:A0 0.000104974
*RES
1 *674:X *591:A0 33.6536 
*END

*D_NET *142 0.000816329
*CONN
*I *625:D I *D sky130_fd_sc_hd__dfrtp_1
*I *675:X O *D sky130_fd_sc_hd__dlygate4sd3_1
*CAP
1 *625:D 0.000273005
2 *675:X 0.000273005
3 *625:D *566:A1 0.00027032
4 *542:A *625:D 0
5 *675:A *625:D 0
*RES
1 *675:X *625:D 31.5286 
*END

*D_NET *143 0.00209951
*CONN
*I *568:A0 I *D sky130_fd_sc_hd__mux2_1
*I *676:X O *D sky130_fd_sc_hd__dlygate4sd3_1
*CAP
1 *568:A0 0.000569759
2 *676:X 0.000569759
3 *568:A0 *569:S 0.000353079
4 *568:A0 *173:14 0.000230482
5 *568:A0 *173:16 9.90367e-05
6 *601:D *568:A0 2.89114e-05
7 *601:RESET_B *568:A0 0.000248486
8 *97:118 *568:A0 0
*RES
1 *676:X *568:A0 38.3857 
*END

*D_NET *144 0.000272028
*CONN
*I *581:A0 I *D sky130_fd_sc_hd__mux2_1
*I *677:X O *D sky130_fd_sc_hd__dlygate4sd3_1
*CAP
1 *581:A0 0.000108537
2 *677:X 0.000108537
3 *583:A1 *581:A0 0
4 *101:78 *581:A0 5.49544e-05
*RES
1 *677:X *581:A0 29.1714 
*END

*D_NET *145 0.000762621
*CONN
*I *580:A0 I *D sky130_fd_sc_hd__mux2_1
*I *678:X O *D sky130_fd_sc_hd__dlygate4sd3_1
*CAP
1 *580:A0 0.000224542
2 *678:X 0.000224542
3 *580:A0 *678:A 0
4 *580:A1 *580:A0 5.49544e-05
5 *617:CLK *580:A0 0.000226867
6 *92:102 *580:A0 3.17148e-05
*RES
1 *678:X *580:A0 32.0286 
*END

*D_NET *146 0.00173247
*CONN
*I *582:A0 I *D sky130_fd_sc_hd__mux2_1
*I *680:X O *D sky130_fd_sc_hd__dlygate4sd3_1
*CAP
1 *582:A0 0.000452919
2 *680:X 0.000452919
3 *616:D *582:A0 5.31541e-05
4 *680:A *582:A0 3.67257e-05
5 *98:19 *582:A0 0.000459691
6 *127:12 *582:A0 0.000148903
7 *127:23 *582:A0 0.000128161
*RES
1 *680:X *582:A0 36.9036 
*END

*D_NET *147 0.000718732
*CONN
*I *584:A0 I *D sky130_fd_sc_hd__mux2_1
*I *681:X O *D sky130_fd_sc_hd__dlygate4sd3_1
*CAP
1 *584:A0 0.000130078
2 *681:X 0.000130078
3 *584:A0 *584:S 6.32633e-05
4 *584:A0 *692:A 0.000227532
5 *533:A1 *584:A0 7.79781e-06
6 *533:B2 *584:A0 1.74352e-05
7 *584:A1 *584:A0 9.3111e-05
8 *101:57 *584:A0 4.94362e-05
*RES
1 *681:X *584:A0 31.725 
*END

*D_NET *148 0.00423571
*CONN
*I *581:A1 I *D sky130_fd_sc_hd__mux2_1
*I *692:A I *D sky130_fd_sc_hd__buf_2
*I *534:B1 I *D sky130_fd_sc_hd__o221a_1
*I *681:A I *D sky130_fd_sc_hd__dlygate4sd3_1
*I *533:B1 I *D sky130_fd_sc_hd__a221oi_1
*I *618:Q O *D sky130_fd_sc_hd__dfrtp_1
*CAP
1 *581:A1 0.000128794
2 *692:A 0.000321952
3 *534:B1 0
4 *681:A 4.05885e-05
5 *533:B1 0.000254812
6 *618:Q 3.68629e-05
7 *148:38 0.000321952
8 *148:18 0.000434881
9 *148:10 0.000261032
10 *148:6 0.000287207
11 *581:A1 *149:121 5.65955e-05
12 *533:A2 *533:B1 3.00439e-05
13 *533:A2 *681:A 3.18676e-05
14 *533:B2 *692:A 1.00073e-05
15 *534:A1 *692:A 0.000400867
16 *534:A2 *148:18 3.26263e-05
17 *534:B2 *148:18 5.59013e-05
18 *534:C1 *533:B1 0.000227526
19 *534:C1 *148:18 0.000133821
20 *583:A1 *148:10 6.63476e-05
21 *583:A1 *148:18 1.00375e-05
22 *584:A0 *692:A 0.000227532
23 *584:A1 *692:A 0.00010933
24 *615:D *581:A1 9.76689e-05
25 *615:D *148:6 7.77652e-05
26 *618:D *692:A 0.000188586
27 *618:RESET_B *148:6 6.05161e-06
28 *96:56 *692:A 4.56945e-05
29 *101:57 *148:10 4.43698e-05
30 *101:67 *581:A1 0.000137515
31 *101:67 *148:6 7.48091e-05
32 *101:78 *581:A1 7.57394e-05
33 *101:103 *148:10 6.92148e-06
*RES
1 *618:Q *148:6 10.6571 
2 *148:6 *148:10 7.05357 
3 *148:10 *148:18 7.41071 
4 *148:18 *533:B1 13.8536 
5 *148:18 *681:A 10.2643 
6 *148:10 *148:38 4.5 
7 *148:38 *534:B1 9.3 
8 *148:38 *692:A 18.0857 
9 *148:6 *581:A1 13.1214 
*END

*D_NET *149 0.0134944
*CONN
*I *578:S I *D sky130_fd_sc_hd__mux2_1
*I *583:S I *D sky130_fd_sc_hd__mux2_1
*I *580:S I *D sky130_fd_sc_hd__mux2_1
*I *581:S I *D sky130_fd_sc_hd__mux2_1
*I *579:S I *D sky130_fd_sc_hd__mux2_1
*I *584:S I *D sky130_fd_sc_hd__mux2_1
*I *582:S I *D sky130_fd_sc_hd__mux2_1
*I *573:S I *D sky130_fd_sc_hd__mux2_1
*I *559:A I *D sky130_fd_sc_hd__inv_2
*I *576:S I *D sky130_fd_sc_hd__mux2_1
*I *643:X O *D sky130_fd_sc_hd__clkbuf_4
*CAP
1 *578:S 4.2721e-05
2 *583:S 0.000204514
3 *580:S 4.13533e-05
4 *581:S 0
5 *579:S 0
6 *584:S 0.00036443
7 *582:S 0.00010729
8 *573:S 0.00027533
9 *559:A 0.000898086
10 *576:S 1.29188e-05
11 *643:X 0.000159626
12 *149:121 0.000642664
13 *149:100 0.0006461
14 *149:92 0.000705355
15 *149:65 0.000526362
16 *149:63 0.000522409
17 *149:29 0.00151815
18 *149:23 0.0008125
19 *149:14 0.000152866
20 *149:8 0.000712904
21 *559:A *679:A 0.000123352
22 *559:A *156:27 0.000348162
23 *573:S *162:10 9.77423e-05
24 *578:S *578:A1 9.90431e-05
25 *149:14 *536:B 0.000163568
26 *149:14 *162:10 9.11048e-06
27 *149:63 *552:B 0.000185541
28 *149:63 *159:14 5.49544e-05
29 *149:92 *536:B 5.48781e-05
30 *149:92 *157:25 5.70695e-05
31 *149:100 *555:B 1.6271e-05
32 *149:100 *578:A1 0.000308595
33 *149:100 *161:14 0.00010832
34 *149:121 *161:14 0
35 *533:A1 *584:S 0.000197269
36 *533:C1 *584:S 0
37 *556:C1 *149:63 5.28345e-05
38 *558:A_N *578:S 0.000130419
39 *558:A_N *149:100 0.000394032
40 *563:A0 *559:A 0.00010326
41 *563:A1 *559:A 0.000193943
42 *573:A1 *149:14 0.000225995
43 *576:A0 *576:S 5.71472e-05
44 *576:A0 *149:14 4.18895e-05
45 *576:A1 *149:63 0.000148496
46 *578:A0 *578:S 2.44318e-05
47 *579:A0 *149:63 0.000215348
48 *579:A0 *149:65 4.88637e-05
49 *579:A1 *582:S 0.000273269
50 *579:A1 *149:65 4.38128e-05
51 *581:A1 *149:121 5.65955e-05
52 *583:A1 *583:S 0
53 *583:A1 *149:100 0
54 *583:A1 *149:121 0
55 *584:A0 *584:S 6.32633e-05
56 *606:D *573:S 1.10909e-05
57 *606:D *149:29 2.74352e-05
58 *609:RESET_B *573:S 0.000150362
59 *613:D *584:S 0
60 *614:RESET_B *149:100 0
61 *614:RESET_B *149:121 0.000157775
62 *617:CLK *580:S 9.83442e-05
63 *627:D *559:A 0.000125724
64 *659:A *584:S 0
65 *691:A *583:S 5.33334e-05
66 *90:49 *559:A 0.000101096
67 *96:37 *576:S 1.92789e-05
68 *96:37 *149:14 0.000154838
69 *96:37 *149:63 0
70 *97:29 *149:92 1.3457e-05
71 *98:37 *149:8 9.41642e-05
72 *98:48 *149:8 0.000215096
73 *101:57 *584:S 0
74 *101:78 *149:121 2.93922e-05
75 *138:40 *583:S 0
*RES
1 *643:X *149:8 16.8 
2 *149:8 *149:14 9.33929 
3 *149:14 *576:S 9.83571 
4 *149:14 *149:23 4.5 
5 *149:23 *149:29 5.94643 
6 *149:29 *559:A 32.7107 
7 *149:29 *573:S 18.9964 
8 *149:23 *149:63 15.2857 
9 *149:63 *149:65 1.35714 
10 *149:65 *582:S 11.8893 
11 *149:65 *584:S 25.4071 
12 *149:63 *579:S 9.3 
13 *149:8 *149:92 11.9107 
14 *149:92 *149:100 15.9821 
15 *149:100 *581:S 9.3 
16 *149:100 *149:121 12.2857 
17 *149:121 *580:S 14.7464 
18 *149:121 *583:S 17.7821 
19 *149:92 *578:S 11.0857 
*END

*D_NET *150 0.0143201
*CONN
*I *571:S I *D sky130_fd_sc_hd__mux2_1
*I *574:S I *D sky130_fd_sc_hd__mux2_1
*I *567:S I *D sky130_fd_sc_hd__mux2_1
*I *591:S I *D sky130_fd_sc_hd__mux2_1
*I *566:S I *D sky130_fd_sc_hd__mux2_1
*I *592:S I *D sky130_fd_sc_hd__mux2_1
*I *590:S I *D sky130_fd_sc_hd__mux2_1
*I *564:S I *D sky130_fd_sc_hd__mux2_1
*I *565:S I *D sky130_fd_sc_hd__mux2_1
*I *570:S I *D sky130_fd_sc_hd__mux2_1
*I *644:X O *D sky130_fd_sc_hd__clkbuf_4
*CAP
1 *571:S 2.35597e-05
2 *574:S 0.00024373
3 *567:S 0
4 *591:S 0.000129987
5 *566:S 0.000224055
6 *592:S 2.23854e-05
7 *590:S 0.0002923
8 *564:S 9.36655e-05
9 *565:S 0.000153397
10 *570:S 0.00035023
11 *644:X 0
12 *150:112 0.000795576
13 *150:79 0.00088484
14 *150:66 0.00102877
15 *150:33 0.000619385
16 *150:27 0.000940763
17 *150:25 0.00082575
18 *150:23 0.000256818
19 *150:6 0.000580938
20 *150:4 0.0005762
21 *564:S *564:A1 8.36572e-05
22 *565:S *540:A 0
23 *566:S *566:A1 0.000117621
24 *570:S *523:B 0.00031119
25 *570:S *546:B 7.77751e-05
26 *570:S *151:14 5.52238e-05
27 *570:S *165:23 5.7661e-06
28 *150:6 *151:8 0.000167436
29 *150:6 *151:14 5.52302e-05
30 *150:23 *546:A 0
31 *150:23 *663:A 0.000142797
32 *150:23 *171:21 6.0038e-05
33 *150:25 *517:B 3.17148e-05
34 *150:25 *546:A 0
35 *150:25 *171:21 0.000118903
36 *150:27 *517:B 5.83233e-05
37 *150:27 *546:A 0
38 *150:33 *540:A 0
39 *150:33 *546:A 0
40 *150:33 *564:A1 0.000186662
41 *150:66 *517:B 6.87574e-05
42 *150:66 *171:8 5.33005e-05
43 *150:79 *591:A1 0
44 *150:79 *592:A1 0
45 *150:79 *176:23 0
46 *517:A *150:66 0.000142856
47 *519:A *150:23 2.72545e-05
48 *521:A2 *150:66 5.71472e-05
49 *530:B2 *150:27 5.03694e-05
50 *530:B2 *150:33 1.19309e-05
51 *531:A1 *150:112 3.57844e-05
52 *531:A3 *150:112 0
53 *531:B1 *150:27 0
54 *531:B1 *150:33 0
55 *541:A *565:S 0
56 *542:A *566:S 0
57 *542:A *591:S 0.000175502
58 *542:A *150:79 0
59 *545:A2 *566:S 0.000317082
60 *551:C1 *570:S 5.52238e-05
61 *551:C1 *150:6 0.000212159
62 *551:C1 *150:112 3.80904e-05
63 *564:A0 *565:S 5.58941e-05
64 *564:A0 *150:33 0
65 *568:A1 *150:112 0
66 *570:A0 *570:S 7.06156e-05
67 *571:A0 *571:S 1.56e-05
68 *571:A1 *571:S 6.05161e-06
69 *571:A1 *574:S 0.000236814
70 *572:A1 *150:112 4.38418e-05
71 *574:A0 *574:S 7.61932e-05
72 *591:A0 *150:79 0.000270243
73 *592:A0 *150:79 0
74 *597:RESET_B *565:S 0
75 *598:RESET_B *566:S 0.00013906
76 *603:CLK *150:23 0.000104236
77 *605:D *150:112 0.000128154
78 *605:RESET_B *150:112 0
79 *607:RESET_B *150:112 0
80 *626:RESET_B *566:S 6.74911e-05
81 *626:RESET_B *150:79 3.32442e-05
82 *641:A *150:66 0.000188881
83 *641:A *150:79 9.40609e-05
84 *645:A *150:112 0.000313458
85 *648:A *565:S 4.79842e-05
86 *675:A *566:S 0.000365544
87 *93:12 *150:112 0.00012501
88 *93:63 *150:112 0.000389139
89 *95:71 *150:23 8.33559e-05
90 *95:71 *150:112 4.98055e-06
91 *96:88 *590:S 0.000336994
92 *97:82 *150:112 6.76272e-05
93 *97:128 *565:S 0
94 *98:61 *150:112 0.000148911
95 *98:69 *150:27 0
96 *100:24 *564:S 2.44318e-05
97 *100:24 *565:S 0
98 *102:28 *570:S 9.92779e-05
99 *123:8 *150:112 2.28428e-05
*RES
1 *644:X *150:4 9.3 
2 *150:4 *150:6 2.17857 
3 *150:6 *570:S 17.6929 
4 *150:6 *150:23 9.78571 
5 *150:23 *150:25 1.94643 
6 *150:25 *150:27 5.28571 
7 *150:27 *150:33 10.9464 
8 *150:33 *565:S 21.4607 
9 *150:33 *564:S 11.0857 
10 *150:27 *590:S 20.0857 
11 *150:25 *150:66 13.6607 
12 *150:66 *592:S 9.72857 
13 *150:66 *150:79 15.1071 
14 *150:79 *566:S 21.7821 
15 *150:79 *591:S 16.8 
16 *150:23 *567:S 13.8 
17 *150:4 *150:112 23.3929 
18 *150:112 *574:S 14.7643 
19 *150:112 *571:S 9.83571 
*END

*D_NET *151 0.00906213
*CONN
*I *569:S I *D sky130_fd_sc_hd__mux2_1
*I *568:S I *D sky130_fd_sc_hd__mux2_1
*I *644:A I *D sky130_fd_sc_hd__clkbuf_4
*I *575:S I *D sky130_fd_sc_hd__mux2_1
*I *577:S I *D sky130_fd_sc_hd__mux2_1
*I *643:A I *D sky130_fd_sc_hd__clkbuf_4
*I *572:S I *D sky130_fd_sc_hd__mux2_1
*I *645:X O *D sky130_fd_sc_hd__buf_2
*CAP
1 *569:S 0.000229497
2 *568:S 0
3 *644:A 0
4 *575:S 2.23854e-05
5 *577:S 0.00026058
6 *643:A 0.000493088
7 *572:S 0.000165172
8 *645:X 2.23854e-05
9 *151:79 0.00033705
10 *151:35 0.000832518
11 *151:31 0.000268519
12 *151:14 0.000703625
13 *151:8 0.000543447
14 *151:6 0.000302216
15 *577:S *535:B 0.000365674
16 *577:S *574:A1 3.69047e-06
17 *577:S *577:A1 4.81734e-05
18 *577:S *164:10 0
19 *643:A *535:B 0.000121573
20 *643:A *558:C 8.09393e-05
21 *151:31 *538:B 8.18783e-05
22 *151:35 *538:B 1.56e-05
23 *531:A1 *572:S 0.000184745
24 *537:A *577:S 1.37292e-05
25 *538:A *151:14 5.59013e-05
26 *538:A *151:31 0.000115474
27 *539:A1 *643:A 1.17968e-05
28 *539:A2 *643:A 0.000145753
29 *539:A2 *151:31 0.00034756
30 *539:A2 *151:35 0.000487467
31 *551:C1 *151:8 4.58976e-05
32 *557:C *572:S 5.19805e-05
33 *557:D *643:A 0
34 *558:A_N *643:A 0
35 *558:B *643:A 0
36 *568:A0 *569:S 0.000353079
37 *568:A1 *569:S 3.18676e-05
38 *569:A0 *569:S 0.00010096
39 *570:S *151:14 5.52238e-05
40 *572:A0 *572:S 5.62995e-05
41 *575:A1 *151:35 0.000444673
42 *603:CLK *151:14 0.000197984
43 *603:D *643:A 5.33005e-05
44 *605:D *572:S 0.000138881
45 *628:A *577:S 0
46 *628:A *643:A 0
47 *631:A *643:A 0
48 *661:A *643:A 2.59004e-05
49 *89:34 *643:A 0
50 *93:67 *575:S 0
51 *93:67 *151:31 0.000227526
52 *95:71 *151:14 0.000140839
53 *95:88 *151:14 3.84385e-05
54 *97:82 *572:S 0.000142856
55 *97:82 *151:31 3.34672e-05
56 *98:48 *643:A 0.00022459
57 *102:28 *569:S 0.000137515
58 *102:28 *151:8 7.48301e-06
59 *102:28 *151:79 7.02611e-05
60 *102:40 *643:A 0
61 *150:6 *151:8 0.000167436
62 *150:6 *151:14 5.52302e-05
*RES
1 *645:X *151:6 9.72857 
2 *151:6 *151:8 3 
3 *151:8 *151:14 12.8571 
4 *151:14 *572:S 18.4607 
5 *151:14 *151:31 10.375 
6 *151:31 *151:35 9.14286 
7 *151:35 *643:A 24.05 
8 *151:35 *577:S 19.7464 
9 *151:31 *575:S 9.72857 
10 *151:8 *644:A 9.3 
11 *151:6 *151:79 2.08929 
12 *151:79 *568:S 9.3 
13 *151:79 *569:S 15.175 
*END

*D_NET *152 0.00355347
*CONN
*I *587:B I *D sky130_fd_sc_hd__and3_1
*I *649:A I *D sky130_fd_sc_hd__dlygate4sd3_1
*I *652:A I *D sky130_fd_sc_hd__dlygate4sd3_1
*I *586:A1 I *D sky130_fd_sc_hd__a21oi_1
*I *620:Q O *D sky130_fd_sc_hd__dfrtp_1
*CAP
1 *587:B 0.000187395
2 *649:A 0.000169329
3 *652:A 0
4 *586:A1 0.000526522
5 *620:Q 3.88586e-05
6 *152:27 0.00031903
7 *152:23 0.000337096
8 *152:6 0.00056538
9 *586:A1 *586:A2 7.91941e-05
10 *586:A1 *153:10 9.90367e-05
11 *587:B *515:B 5.29944e-05
12 *587:B *587:C 0.000202842
13 *587:B *686:A 0.000104974
14 *587:B *153:10 0.000177948
15 *152:27 *515:B 0.000145594
16 *561:A1 *586:A1 0
17 *585:A *649:A 5.52302e-05
18 *586:B1 *586:A1 7.77652e-05
19 *620:CLK *586:A1 0
20 *622:D *152:27 0
21 *623:D *587:B 8.25512e-05
22 *653:A *586:A1 0.000282967
23 *653:A *152:6 2.28598e-05
24 *99:37 *587:B 2.58997e-05
*RES
1 *620:Q *152:6 9.83571 
2 *152:6 *586:A1 27.0679 
3 *152:6 *152:23 4.5 
4 *152:23 *152:27 7.96429 
5 *152:27 *652:A 9.3 
6 *152:27 *649:A 12.3 
7 *152:23 *587:B 19.3179 
*END

*D_NET *153 0.00192074
*CONN
*I *686:A I *D sky130_fd_sc_hd__dlygate4sd3_1
*I *587:A I *D sky130_fd_sc_hd__and3_1
*I *621:Q O *D sky130_fd_sc_hd__dfrtp_1
*CAP
1 *686:A 0.000141984
2 *587:A 0
3 *621:Q 0.00021793
4 *153:10 0.000359913
5 *153:10 *515:B 0.000153054
6 *153:10 *586:A2 0.000196747
7 *153:10 *587:C 9.31209e-05
8 *561:S *686:A 9.71197e-05
9 *562:A1 *686:A 9.71197e-05
10 *586:A1 *153:10 9.90367e-05
11 *586:B1 *686:A 0
12 *586:B1 *153:10 9.74783e-05
13 *587:B *686:A 0.000104974
14 *587:B *153:10 0.000177948
15 *623:D *686:A 5.84171e-05
16 *99:83 *686:A 1.17968e-05
17 *99:83 *153:10 1.41029e-05
*RES
1 *621:Q *153:10 21.1036 
2 *153:10 *587:A 13.8 
3 *153:10 *686:A 17.6036 
*END

*D_NET *154 0.000380115
*CONN
*I *668:A I *D sky130_fd_sc_hd__dlygate4sd3_1
*I *622:Q O *D sky130_fd_sc_hd__dfrtp_1
*CAP
1 *668:A 0.000189591
2 *622:Q 0.000189591
3 *99:27 *668:A 9.33978e-07
*RES
1 *622:Q *668:A 30.1893 
*END

*D_NET *155 0.00360871
*CONN
*I *587:C I *D sky130_fd_sc_hd__and3_1
*I *586:A2 I *D sky130_fd_sc_hd__a21oi_1
*I *585:B I *D sky130_fd_sc_hd__xor2_1
*I *515:C I *D sky130_fd_sc_hd__or3_1
*I *515:X O *D sky130_fd_sc_hd__or3_1
*CAP
1 *587:C 0.000304541
2 *586:A2 0.00039538
3 *585:B 8.66551e-05
4 *515:C 0.000158884
5 *515:X 0
6 *155:32 0.000850497
7 *155:19 0.0003132
8 *155:6 0.000234853
9 *515:C *515:B 4.1331e-06
10 *155:19 *515:B 4.57445e-05
11 *155:32 *515:B 6.85604e-05
12 *515:A *515:C 3.18676e-05
13 *561:A1 *155:32 0.00013905
14 *585:A *585:B 0.000230475
15 *586:A1 *586:A2 7.91941e-05
16 *587:B *587:C 0.000202842
17 *589:B *587:C 0
18 *620:D *155:19 0
19 *620:D *155:32 0
20 *620:RESET_B *155:32 7.50601e-05
21 *621:D *587:C 1.00375e-05
22 *99:37 *587:C 8.78684e-05
23 *153:10 *586:A2 0.000196747
24 *153:10 *587:C 9.31209e-05
*RES
1 *515:X *155:6 13.8 
2 *155:6 *515:C 16.6036 
3 *155:6 *155:19 1.64286 
4 *155:19 *585:B 15.9786 
5 *155:19 *155:32 8.875 
6 *155:32 *586:A2 15.8893 
7 *155:32 *587:C 23.6393 
*END

*D_NET *156 0.00848793
*CONN
*I *546:A I *D sky130_fd_sc_hd__xor2_1
*I *540:A I *D sky130_fd_sc_hd__xor2_1
*I *638:A I *D sky130_fd_sc_hd__clkbuf_4
*I *593:Q O *D sky130_fd_sc_hd__dfrtp_1
*CAP
1 *546:A 0.000874563
2 *540:A 0.000235361
3 *638:A 0.000443769
4 *593:Q 0
5 *156:27 0.00267013
6 *156:4 0.00200397
7 *540:A *540:B 0.000247771
8 *540:A *647:A 0.000198698
9 *546:A *647:A 0.000114759
10 *546:A *168:12 0
11 *546:A *174:21 0.000210394
12 *156:27 *564:A1 4.58194e-05
13 *559:A *156:27 0.000348162
14 *561:A0 *638:A 5.48488e-05
15 *565:S *540:A 0
16 *593:RESET_B *638:A 1.66373e-05
17 *597:RESET_B *540:A 0
18 *603:CLK *546:A 7.26935e-05
19 *603:RESET_B *546:A 0
20 *629:A *156:27 0.00051315
21 *45:10 *546:A 0
22 *90:8 *156:27 0.000185118
23 *90:80 *638:A 0.00013166
24 *99:57 *638:A 6.70877e-05
25 *99:57 *156:27 5.33334e-05
26 *100:24 *540:A 0
27 *102:40 *546:A 0
28 *150:23 *546:A 0
29 *150:25 *546:A 0
30 *150:27 *546:A 0
31 *150:33 *540:A 0
32 *150:33 *546:A 0
*RES
1 *593:Q *156:4 9.3 
2 *156:4 *638:A 25.3179 
3 *156:4 *156:27 28.1786 
4 *156:27 *540:A 19.6929 
5 *156:27 *546:A 30.3179 
*END

*D_NET *157 0.0120693
*CONN
*I *548:A I *D sky130_fd_sc_hd__or2_1
*I *547:A I *D sky130_fd_sc_hd__nand2_1
*I *553:A I *D sky130_fd_sc_hd__nand2_1
*I *637:A I *D sky130_fd_sc_hd__clkbuf_4
*I *594:Q O *D sky130_fd_sc_hd__dfrtp_1
*CAP
1 *548:A 0.000344125
2 *547:A 0.000104434
3 *553:A 0.000502942
4 *637:A 6.36651e-05
5 *594:Q 0.00049676
6 *157:48 0.00146746
7 *157:25 0.00200385
8 *157:12 0.00104243
9 *547:A *550:B 5.33005e-05
10 *553:A *553:B 0.000334685
11 *553:A *554:B 0.000299986
12 *157:12 *636:A 0.000195471
13 *157:25 *536:B 0.000224592
14 *157:25 *162:10 0.000389868
15 *157:48 *554:B 0.000279845
16 *157:48 *558:C 0.000140933
17 *549:A *157:48 7.01205e-05
18 *551:A2 *548:A 0.000103483
19 *551:A2 *157:48 1.89695e-05
20 *551:B1 *157:48 3.03145e-05
21 *551:B2 *157:48 1.403e-05
22 *555:A *553:A 5.33005e-05
23 *556:A1 *553:A 9.60875e-05
24 *557:C *548:A 9.80173e-05
25 *557:D *157:48 0.000102557
26 *558:D *157:48 0.000303252
27 *562:A0 *157:12 3.75528e-05
28 *562:A0 *157:25 3.34366e-05
29 *568:A1 *547:A 0.00014576
30 *632:A *157:48 1.98839e-05
31 *645:A *157:48 0.00108021
32 *91:14 *157:12 0
33 *96:37 *553:A 5.48715e-05
34 *96:37 *157:25 0.000298976
35 *96:56 *553:A 3.12359e-05
36 *97:29 *157:25 0.00140638
37 *97:93 *547:A 6.94775e-05
38 *99:10 *157:12 0
39 *99:21 *157:12 0
40 *149:92 *157:25 5.70695e-05
*RES
1 *594:Q *157:12 27.5857 
2 *157:12 *637:A 10.2464 
3 *157:12 *157:25 27.3393 
4 *157:25 *553:A 26.1571 
5 *157:25 *157:48 21.6429 
6 *157:48 *547:A 20.7821 
7 *157:48 *548:A 14.1571 
*END

*D_NET *158 0.000936274
*CONN
*I *636:A I *D sky130_fd_sc_hd__clkbuf_2
*I *595:Q O *D sky130_fd_sc_hd__dfrtp_1
*CAP
1 *636:A 0.00035903
2 *595:Q 0.00035903
3 *562:A0 *636:A 0
4 *595:CLK *636:A 2.27416e-05
5 *91:10 *636:A 0
6 *91:14 *636:A 0
7 *91:35 *636:A 0
8 *97:29 *636:A 0
9 *157:12 *636:A 0.000195471
*RES
1 *595:Q *636:A 34.3321 
*END

*D_NET *159 0.00141601
*CONN
*I *552:B I *D sky130_fd_sc_hd__xor2_1
*I *658:A I *D sky130_fd_sc_hd__dlygate4sd3_1
*I *613:Q O *D sky130_fd_sc_hd__dfrtp_1
*CAP
1 *552:B 7.50354e-05
2 *658:A 0
3 *613:Q 0.000301682
4 *159:14 0.000376718
5 *576:A1 *552:B 4.17433e-05
6 *576:A1 *159:14 0.000111348
7 *609:D *159:14 7.77751e-05
8 *96:37 *159:14 9.06456e-05
9 *98:30 *552:B 0.000100564
10 *149:63 *552:B 0.000185541
11 *149:63 *159:14 5.49544e-05
*RES
1 *613:Q *159:14 24.3893 
2 *159:14 *658:A 9.3 
3 *159:14 *552:B 11.9071 
*END

*D_NET *160 0.00583497
*CONN
*I *577:A1 I *D sky130_fd_sc_hd__mux2_1
*I *678:A I *D sky130_fd_sc_hd__dlygate4sd3_1
*I *554:B I *D sky130_fd_sc_hd__or2_1
*I *553:B I *D sky130_fd_sc_hd__nand2_1
*I *614:Q O *D sky130_fd_sc_hd__dfrtp_1
*CAP
1 *577:A1 0.000475475
2 *678:A 0.00028382
3 *554:B 0.000149888
4 *553:B 0.000192247
5 *614:Q 0
6 *160:34 0.000871973
7 *160:12 0.000834402
8 *160:4 0.000604945
9 *553:B *555:B 9.99853e-05
10 *160:12 *555:B 0.000121212
11 *553:A *553:B 0.000334685
12 *553:A *554:B 0.000299986
13 *555:A *553:B 9.58181e-05
14 *556:A1 *553:B 4.01332e-05
15 *556:A1 *554:B 3.05605e-05
16 *556:A2 *554:B 0.000114773
17 *556:B1 *553:B 9.60875e-05
18 *556:B1 *554:B 1.24368e-05
19 *556:C1 *160:12 5.59013e-05
20 *557:D *554:B 3.14078e-05
21 *577:A0 *577:A1 1.72894e-05
22 *577:S *577:A1 4.81734e-05
23 *580:A0 *678:A 0
24 *610:D *678:A 4.04221e-05
25 *610:RESET_B *678:A 0
26 *611:D *160:12 3.85567e-05
27 *666:A *577:A1 2.72859e-05
28 *92:10 *160:12 0.000312743
29 *92:19 *160:12 0.00015304
30 *92:102 *678:A 0
31 *92:102 *160:12 9.25014e-06
32 *97:29 *554:B 0.000162625
33 *157:48 *554:B 0.000279845
*RES
1 *614:Q *160:4 9.3 
2 *160:4 *160:12 19.4821 
3 *160:12 *553:B 14.675 
4 *160:12 *554:B 15.4964 
5 *160:4 *160:34 1.78571 
6 *160:34 *678:A 23.5857 
7 *160:34 *577:A1 16.8357 
*END

*D_NET *161 0.00394821
*CONN
*I *578:A1 I *D sky130_fd_sc_hd__mux2_1
*I *677:A I *D sky130_fd_sc_hd__dlygate4sd3_1
*I *555:B I *D sky130_fd_sc_hd__xor2_1
*I *615:Q O *D sky130_fd_sc_hd__dfrtp_1
*CAP
1 *578:A1 0.000121733
2 *677:A 0
3 *555:B 0.000285518
4 *615:Q 0.00077711
5 *161:29 0.000121733
6 *161:14 0.00106263
7 *553:B *555:B 9.99853e-05
8 *556:A1 *555:B 5.45307e-05
9 *556:C1 *555:B 3.34366e-05
10 *578:A0 *578:A1 5.71472e-05
11 *578:S *578:A1 9.90431e-05
12 *614:RESET_B *161:14 0
13 *615:D *161:14 3.69047e-06
14 *651:A *578:A1 6.42736e-05
15 *92:10 *555:B 0.000121573
16 *92:10 *161:14 0.00020042
17 *92:19 *161:14 0.00014279
18 *92:25 *161:14 6.02154e-05
19 *92:31 *161:14 1.15281e-05
20 *92:102 *161:14 7.64529e-05
21 *149:100 *555:B 1.6271e-05
22 *149:100 *578:A1 0.000308595
23 *149:100 *161:14 0.00010832
24 *149:121 *161:14 0
25 *160:12 *555:B 0.000121212
*RES
1 *615:Q *161:14 26.6393 
2 *161:14 *555:B 20.2643 
3 *161:14 *161:29 4.5 
4 *161:29 *677:A 9.3 
5 *161:29 *578:A1 13.1214 
*END

*D_NET *162 0.00176401
*CONN
*I *536:B I *D sky130_fd_sc_hd__xor2_1
*I *669:A I *D sky130_fd_sc_hd__dlygate4sd3_1
*I *609:Q O *D sky130_fd_sc_hd__dfrtp_1
*CAP
1 *536:B 6.51878e-05
2 *669:A 0
3 *609:Q 0.000150449
4 *162:10 0.000215637
5 *573:S *162:10 9.77423e-05
6 *609:RESET_B *162:10 4.82865e-05
7 *96:37 *162:10 0.000344688
8 *149:14 *536:B 0.000163568
9 *149:14 *162:10 9.11048e-06
10 *149:92 *536:B 5.48781e-05
11 *157:25 *536:B 0.000224592
12 *157:25 *162:10 0.000389868
*RES
1 *609:Q *162:10 19.7286 
2 *162:10 *669:A 13.8 
3 *162:10 *536:B 16.6571 
*END

*D_NET *163 0.00372698
*CONN
*I *665:A I *D sky130_fd_sc_hd__dlygate4sd3_1
*I *574:A1 I *D sky130_fd_sc_hd__mux2_1
*I *535:B I *D sky130_fd_sc_hd__xor2_1
*I *610:Q O *D sky130_fd_sc_hd__dfrtp_1
*CAP
1 *665:A 0.000220036
2 *574:A1 0.000250841
3 *535:B 0.00051829
4 *610:Q 0
5 *163:8 0.000838145
6 *163:6 0.00028905
7 *537:A *535:B 0.000177821
8 *539:B1 *535:B 0.0001399
9 *539:C1 *535:B 4.59075e-05
10 *574:A0 *574:A1 5.71472e-05
11 *577:A0 *665:A 7.39637e-05
12 *577:A0 *163:8 2.56694e-05
13 *577:S *535:B 0.000365674
14 *577:S *574:A1 3.69047e-06
15 *607:D *665:A 0
16 *608:D *535:B 0
17 *628:A *535:B 0
18 *631:A *535:B 2.58821e-05
19 *643:A *535:B 0.000121573
20 *655:A *574:A1 9.77274e-05
21 *666:A *665:A 0
22 *97:82 *535:B 0.000475657
23 *102:40 *535:B 0
24 *102:51 *535:B 0
*RES
1 *610:Q *163:6 13.8 
2 *163:6 *163:8 1.33929 
3 *163:8 *535:B 26.2821 
4 *163:8 *574:A1 18.8714 
5 *163:6 *665:A 18.3179 
*END

*D_NET *164 0.00221309
*CONN
*I *538:B I *D sky130_fd_sc_hd__nand2_1
*I *650:A I *D sky130_fd_sc_hd__dlygate4sd3_1
*I *537:B I *D sky130_fd_sc_hd__or2_1
*I *611:Q O *D sky130_fd_sc_hd__dfrtp_1
*CAP
1 *538:B 0.000238416
2 *650:A 2.23854e-05
3 *537:B 6.95458e-05
4 *611:Q 5.77746e-05
5 *164:19 0.000404555
6 *164:10 0.000271074
7 *537:A *537:B 0.00014183
8 *537:A *164:19 4.18895e-05
9 *575:A0 *538:B 0.000398815
10 *575:A1 *538:B 0.000192489
11 *575:A1 *164:19 0.000111501
12 *577:S *164:10 0
13 *628:A *164:10 0.000103267
14 *93:67 *538:B 6.20656e-05
15 *151:31 *538:B 8.18783e-05
16 *151:35 *538:B 1.56e-05
*RES
1 *611:Q *164:10 19.6393 
2 *164:10 *537:B 10.6571 
3 *164:10 *164:19 2.58929 
4 *164:19 *650:A 9.72857 
5 *164:19 *538:B 16.425 
*END

*D_NET *165 0.00223118
*CONN
*I *523:B I *D sky130_fd_sc_hd__xor2_1
*I *570:A1 I *D sky130_fd_sc_hd__mux2_1
*I *673:A I *D sky130_fd_sc_hd__dlygate4sd3_1
*I *606:Q O *D sky130_fd_sc_hd__dfrtp_1
*CAP
1 *523:B 0.000363064
2 *570:A1 0
3 *673:A 0
4 *606:Q 0.000156015
5 *165:23 0.000671602
6 *165:12 0.000464552
7 *570:A0 *523:B 3.36529e-05
8 *570:A0 *165:23 5.71472e-05
9 *570:S *523:B 0.00031119
10 *570:S *165:23 5.7661e-06
11 *573:A1 *165:12 3.5707e-05
12 *603:CLK *523:B 0
13 *628:A *165:12 0
14 *661:A *165:23 5.41494e-05
15 *97:29 *165:12 0
16 *102:40 *523:B 7.83366e-05
*RES
1 *606:Q *165:12 21.1929 
2 *165:12 *673:A 9.3 
3 *165:12 *165:23 5.08929 
4 *165:23 *570:A1 9.3 
5 *165:23 *523:B 24.0679 
*END

*D_NET *166 0.002489
*CONN
*I *654:A I *D sky130_fd_sc_hd__dlygate4sd3_1
*I *524:B I *D sky130_fd_sc_hd__xor2_1
*I *607:Q O *D sky130_fd_sc_hd__dfrtp_1
*CAP
1 *654:A 0.000433848
2 *524:B 0.000191594
3 *607:Q 0.000436395
4 *166:8 0.00106184
5 *568:A1 *524:B 0.000163065
6 *604:CLK *166:8 1.55885e-05
7 *604:D *166:8 0.000186669
*RES
1 *607:Q *166:8 19.2643 
2 *166:8 *524:B 17.8714 
3 *166:8 *654:A 21.1929 
*END

*D_NET *167 0.00131708
*CONN
*I *656:A I *D sky130_fd_sc_hd__dlygate4sd3_1
*I *522:B I *D sky130_fd_sc_hd__xor2_1
*I *608:Q O *D sky130_fd_sc_hd__dfrtp_1
*CAP
1 *656:A 0.000106072
2 *522:B 0.0004643
3 *608:Q 0
4 *167:4 0.000570372
5 *538:A *522:B 0
6 *608:CLK *522:B 1.58163e-05
7 *93:71 *522:B 0.000123288
8 *102:40 *522:B 0
9 *102:51 *522:B 1.48591e-05
10 *102:65 *522:B 1.03968e-05
11 *102:65 *656:A 1.1979e-05
*RES
1 *608:Q *167:4 9.3 
2 *167:4 *522:B 24.9607 
3 *167:4 *656:A 10.9786 
*END

*D_NET *168 0.00062603
*CONN
*I *546:B I *D sky130_fd_sc_hd__xor2_1
*I *660:A I *D sky130_fd_sc_hd__dlygate4sd3_1
*I *603:Q O *D sky130_fd_sc_hd__dfrtp_1
*CAP
1 *546:B 3.03372e-05
2 *660:A 0
3 *603:Q 0.000152934
4 *168:12 0.000183271
5 *546:A *168:12 0
6 *570:S *546:B 7.77751e-05
7 *603:CLK *168:12 5.62995e-05
8 *603:RESET_B *168:12 2.56601e-05
9 *102:28 *546:B 7.77751e-05
10 *102:40 *168:12 2.19778e-05
*RES
1 *603:Q *168:12 20.8893 
2 *168:12 *660:A 9.3 
3 *168:12 *546:B 10.6571 
*END

*D_NET *169 0.00358532
*CONN
*I *662:A I *D sky130_fd_sc_hd__dlygate4sd3_1
*I *548:B I *D sky130_fd_sc_hd__or2_1
*I *547:B I *D sky130_fd_sc_hd__nand2_1
*I *604:Q O *D sky130_fd_sc_hd__dfrtp_1
*CAP
1 *662:A 8.13063e-05
2 *548:B 0
3 *547:B 0.000497701
4 *604:Q 8.93441e-05
5 *169:10 0.00107
6 *169:6 0.000742948
7 *547:B *550:B 3.88751e-05
8 *169:10 *170:10 0
9 *550:A *547:B 1.3701e-05
10 *569:A1 *547:B 0.000299988
11 *569:A1 *169:10 0.000117903
12 *600:CLK *547:B 0.000112738
13 *601:RESET_B *547:B 0.000137983
14 *604:RESET_B *169:6 7.77652e-05
15 *604:RESET_B *169:10 0.000295844
16 *93:31 *547:B 9.22103e-06
17 *97:93 *169:10 0
*RES
1 *604:Q *169:6 11.0679 
2 *169:6 *169:10 16.4643 
3 *169:10 *547:B 22.5321 
4 *169:10 *548:B 13.8 
5 *169:6 *662:A 10.6571 
*END

*D_NET *170 0.00223776
*CONN
*I *667:A I *D sky130_fd_sc_hd__dlygate4sd3_1
*I *549:B I *D sky130_fd_sc_hd__or2_1
*I *550:B I *D sky130_fd_sc_hd__nand2_1
*I *605:Q O *D sky130_fd_sc_hd__dfrtp_1
*CAP
1 *667:A 5.14873e-05
2 *549:B 2.52056e-05
3 *550:B 0.000310686
4 *605:Q 0.000242618
5 *170:12 0.000463934
6 *170:10 0.000422147
7 *547:A *550:B 5.33005e-05
8 *547:B *550:B 3.88751e-05
9 *550:A *550:B 1.32019e-05
10 *551:A2 *549:B 5.52302e-05
11 *557:C *550:B 2.61337e-05
12 *557:C *170:12 5.74562e-05
13 *569:A1 *550:B 0
14 *569:A1 *667:A 0.000142856
15 *569:A1 *170:12 0
16 *93:31 *550:B 0.000223564
17 *97:93 *550:B 4.43698e-05
18 *97:93 *170:10 5.29648e-05
19 *97:93 *170:12 1.37292e-05
20 *169:10 *170:10 0
*RES
1 *605:Q *170:10 17.5143 
2 *170:10 *170:12 2.25 
3 *170:12 *550:B 19.9071 
4 *170:12 *549:B 14.3357 
5 *170:10 *667:A 15.1571 
*END

*D_NET *171 0.00187324
*CONN
*I *663:A I *D sky130_fd_sc_hd__dlygate4sd3_1
*I *516:B I *D sky130_fd_sc_hd__or2_1
*I *517:B I *D sky130_fd_sc_hd__nand2_1
*I *599:Q O *D sky130_fd_sc_hd__dfrtp_1
*CAP
1 *663:A 0.000159203
2 *516:B 4.00275e-05
3 *517:B 7.70436e-05
4 *599:Q 0.000144476
5 *171:21 0.000257332
6 *171:8 0.000279621
7 *517:A *517:B 5.52302e-05
8 *519:A *663:A 9.25014e-06
9 *521:B2 *663:A 1.21859e-05
10 *603:CLK *663:A 5.71472e-05
11 *641:A *517:B 0.000100625
12 *641:A *171:8 1.48545e-05
13 *98:61 *663:A 3.93998e-05
14 *98:63 *517:B 1.46624e-05
15 *98:63 *663:A 2.8266e-06
16 *98:63 *171:21 6.35798e-05
17 *98:69 *517:B 1.19402e-05
18 *150:23 *663:A 0.000142797
19 *150:23 *171:21 6.0038e-05
20 *150:25 *517:B 3.17148e-05
21 *150:25 *171:21 0.000118903
22 *150:27 *517:B 5.83233e-05
23 *150:66 *517:B 6.87574e-05
24 *150:66 *171:8 5.33005e-05
*RES
1 *599:Q *171:8 15.5679 
2 *171:8 *517:B 16.6036 
3 *171:8 *171:21 2.25 
4 *171:21 *516:B 14.3357 
5 *171:21 *663:A 17.5143 
*END

*D_NET *172 0.00271872
*CONN
*I *676:A I *D sky130_fd_sc_hd__dlygate4sd3_1
*I *520:B I *D sky130_fd_sc_hd__xor2_1
*I *591:A1 I *D sky130_fd_sc_hd__mux2_1
*I *600:Q O *D sky130_fd_sc_hd__dfrtp_1
*CAP
1 *676:A 2.25162e-05
2 *520:B 0.00038254
3 *591:A1 0.000466287
4 *600:Q 9.51685e-05
5 *172:19 0.000405056
6 *172:8 0.000561455
7 *520:B *519:B 7.17136e-05
8 *520:B *173:14 0.00023978
9 *520:B *173:16 0.000119193
10 *591:A1 *592:A1 0
11 *676:A *173:14 2.89114e-05
12 *172:8 *592:A1 0
13 *172:8 *173:14 5.33978e-05
14 *518:A *520:B 0.000136958
15 *592:A0 *591:A1 3.92757e-05
16 *626:D *591:A1 9.64695e-05
17 *642:A *591:A1 0
18 *642:A *172:8 0
19 *105:19 *591:A1 0
20 *150:79 *591:A1 0
*RES
1 *600:Q *172:8 15.7464 
2 *172:8 *591:A1 22.7286 
3 *172:8 *172:19 4.5 
4 *172:19 *520:B 18.05 
5 *172:19 *676:A 9.83571 
*END

*D_NET *173 0.00391633
*CONN
*I *672:A I *D sky130_fd_sc_hd__dlygate4sd3_1
*I *592:A1 I *D sky130_fd_sc_hd__mux2_1
*I *518:B I *D sky130_fd_sc_hd__or2_1
*I *519:B I *D sky130_fd_sc_hd__nand2_1
*I *601:Q O *D sky130_fd_sc_hd__dfrtp_1
*CAP
1 *672:A 0
2 *592:A1 0.00018422
3 *518:B 0
4 *519:B 0.000415264
5 *601:Q 9.32525e-05
6 *173:16 0.000491603
7 *173:14 0.00067787
8 *173:8 0.000510563
9 *518:A *519:B 0.000139913
10 *520:A *519:B 9.41642e-05
11 *520:B *519:B 7.17136e-05
12 *520:B *173:14 0.00023978
13 *520:B *173:16 0.000119193
14 *521:A1 *519:B 9.80173e-05
15 *521:A2 *519:B 7.46499e-05
16 *521:C1 *519:B 2.95726e-05
17 *568:A0 *173:14 0.000230482
18 *568:A0 *173:16 9.90367e-05
19 *591:A1 *592:A1 0
20 *642:A *173:14 7.83462e-05
21 *676:A *173:14 2.89114e-05
22 *95:60 *519:B 2.59355e-05
23 *97:118 *592:A1 0
24 *98:61 *519:B 0.000150198
25 *98:63 *519:B 1.02504e-05
26 *150:79 *592:A1 0
27 *172:8 *592:A1 0
28 *172:8 *173:14 5.33978e-05
*RES
1 *601:Q *173:8 15.4429 
2 *173:8 *173:14 14.2321 
3 *173:14 *173:16 2.17857 
4 *173:16 *519:B 26.6571 
5 *173:16 *518:B 9.3 
6 *173:14 *592:A1 21.1571 
7 *173:8 *672:A 13.8 
*END

*D_NET *174 0.00286866
*CONN
*I *564:A1 I *D sky130_fd_sc_hd__mux2_1
*I *528:B I *D sky130_fd_sc_hd__or2_1
*I *529:B I *D sky130_fd_sc_hd__nand2_1
*I *664:A I *D sky130_fd_sc_hd__dlygate4sd3_1
*I *624:Q O *D sky130_fd_sc_hd__dfrtp_1
*CAP
1 *564:A1 0.000228423
2 *528:B 7.27632e-05
3 *529:B 3.11064e-05
4 *664:A 5.30595e-05
5 *624:Q 0
6 *174:21 0.000348827
7 *174:8 0.00039826
8 *174:4 0.000328666
9 *174:8 *647:A 0.000171375
10 *174:21 *647:A 9.25014e-06
11 *529:A *528:B 5.52238e-05
12 *530:B2 *528:B 1.02936e-05
13 *530:B2 *529:B 6.05161e-06
14 *546:A *174:21 0.000210394
15 *564:S *564:A1 8.36572e-05
16 *629:A *174:8 0
17 *629:A *174:21 0
18 *630:A *664:A 5.71472e-05
19 *45:10 *664:A 0.000101149
20 *45:10 *174:21 0
21 *89:10 *174:21 0
22 *91:8 *664:A 0.000318101
23 *100:24 *564:A1 0.000152431
24 *150:33 *564:A1 0.000186662
25 *156:27 *564:A1 4.58194e-05
*RES
1 *624:Q *174:4 9.3 
2 *174:4 *174:8 6.75 
3 *174:8 *664:A 16.8 
4 *174:8 *174:21 9.78571 
5 *174:21 *529:B 9.83571 
6 *174:21 *528:B 10.675 
7 *174:4 *564:A1 14.7643 
*END

*D_NET *175 0.00275818
*CONN
*I *674:A I *D sky130_fd_sc_hd__dlygate4sd3_1
*I *527:B I *D sky130_fd_sc_hd__xor2_1
*I *565:A1 I *D sky130_fd_sc_hd__mux2_1
*I *625:Q O *D sky130_fd_sc_hd__dfrtp_1
*CAP
1 *674:A 0.00017426
2 *527:B 2.91823e-05
3 *565:A1 0.000407889
4 *625:Q 0
5 *175:19 0.000375897
6 *175:6 0.000580344
7 *674:A *566:A1 0
8 *674:A *176:23 0
9 *674:A *176:27 8.17713e-05
10 *545:B1 *565:A1 7.83659e-05
11 *545:B1 *175:19 0.000269529
12 *545:B2 *565:A1 7.83659e-05
13 *545:B2 *175:19 0.000257564
14 *565:A0 *565:A1 0.000170955
15 *597:D *565:A1 9.33978e-07
16 *626:CLK *674:A 2.8266e-06
17 *626:CLK *175:19 6.22052e-05
18 *635:A *527:B 1.92789e-05
19 *95:29 *674:A 0
20 *97:118 *674:A 7.4826e-05
21 *97:118 *175:19 1.99099e-05
22 *97:128 *175:19 7.40743e-05
*RES
1 *625:Q *175:6 13.8 
2 *175:6 *565:A1 19.4786 
3 *175:6 *175:19 5.89286 
4 *175:19 *527:B 14.3357 
5 *175:19 *674:A 17.5321 
*END

*D_NET *176 0.00424732
*CONN
*I *670:A I *D sky130_fd_sc_hd__dlygate4sd3_1
*I *525:B I *D sky130_fd_sc_hd__or2_1
*I *526:B I *D sky130_fd_sc_hd__nand2_1
*I *566:A1 I *D sky130_fd_sc_hd__mux2_1
*I *626:Q O *D sky130_fd_sc_hd__dfrtp_1
*CAP
1 *670:A 0.00040971
2 *525:B 0.000102821
3 *526:B 0
4 *566:A1 0.00040217
5 *626:Q 0.000110867
6 *176:27 0.000247255
7 *176:23 0.000677738
8 *176:8 0.000636633
9 *525:A *525:B 5.33005e-05
10 *530:A2 *525:B 1.15281e-05
11 *545:A2 *566:A1 0.000362524
12 *566:S *566:A1 0.000117621
13 *591:A0 *566:A1 0
14 *591:A0 *176:23 0
15 *598:RESET_B *566:A1 7.73277e-05
16 *625:D *566:A1 0.00027032
17 *626:CLK *566:A1 6.22052e-05
18 *626:CLK *176:8 0.000140933
19 *626:RESET_B *566:A1 5.7936e-05
20 *635:A *566:A1 0.000125724
21 *635:A *176:8 2.47724e-05
22 *674:A *566:A1 0
23 *674:A *176:23 0
24 *674:A *176:27 8.17713e-05
25 *675:A *566:A1 0.000268396
26 *95:29 *525:B 5.7661e-06
27 *97:118 *176:23 0
28 *150:79 *176:23 0
*RES
1 *626:Q *176:8 15.9786 
2 *176:8 *566:A1 25.8536 
3 *176:8 *176:23 6.44643 
4 *176:23 *176:27 3.01786 
5 *176:27 *526:B 9.3 
6 *176:27 *525:B 11.0857 
7 *176:23 *670:A 15.5857 
*END

*D_NET *177 0.00291976
*CONN
*I *647:A I *D sky130_fd_sc_hd__dlygate4sd3_1
*I *540:B I *D sky130_fd_sc_hd__xor2_1
*I *596:Q O *D sky130_fd_sc_hd__dfrtp_1
*CAP
1 *647:A 0.000299939
2 *540:B 0.000136766
3 *596:Q 3.92359e-05
4 *177:8 0.000475941
5 *540:A *540:B 0.000247771
6 *540:A *647:A 0.000198698
7 *546:A *647:A 0.000114759
8 *45:10 *647:A 0.000315364
9 *91:8 *647:A 0.000312215
10 *91:59 *647:A 0.000537165
11 *95:8 *647:A 6.05161e-06
12 *100:42 *177:8 5.52238e-05
13 *174:8 *647:A 0.000171375
14 *174:21 *647:A 9.25014e-06
*RES
1 *596:Q *177:8 14.3357 
2 *177:8 *540:B 16.9607 
3 *177:8 *647:A 25.8 
*END

*D_NET *178 0.00214591
*CONN
*I *543:B I *D sky130_fd_sc_hd__nand2_1
*I *682:A I *D sky130_fd_sc_hd__dlygate4sd3_1
*I *544:B I *D sky130_fd_sc_hd__or2_1
*I *597:Q O *D sky130_fd_sc_hd__dfrtp_1
*CAP
1 *543:B 6.86614e-05
2 *682:A 1.63023e-05
3 *544:B 0
4 *597:Q 0.000330276
5 *178:19 0.000250577
6 *178:12 0.000495889
7 *543:A *543:B 9.90367e-05
8 *543:A *178:19 0.000353092
9 *544:A *178:12 1.19402e-05
10 *544:A *178:19 5.52238e-05
11 *545:B1 *543:B 7.91941e-05
12 *545:B1 *178:19 5.33433e-05
13 *545:B2 *178:19 0.000139907
14 *545:C1 *178:12 2.53943e-05
15 *597:RESET_B *178:12 0.000138106
16 *598:D *543:B 7.43578e-06
17 *97:128 *178:12 2.1527e-05
*RES
1 *597:Q *178:12 23.05 
2 *178:12 *544:B 9.3 
3 *178:12 *178:19 4.64286 
4 *178:19 *682:A 9.72857 
5 *178:19 *543:B 11.6214 
*END

*D_NET *179 0.0034624
*CONN
*I *541:B I *D sky130_fd_sc_hd__or2_1
*I *542:B I *D sky130_fd_sc_hd__nand2_1
*I *684:A I *D sky130_fd_sc_hd__dlygate4sd3_1
*I *598:Q O *D sky130_fd_sc_hd__dfrtp_1
*CAP
1 *541:B 0.000919703
2 *542:B 0
3 *684:A 0.000253886
4 *598:Q 0
5 *179:21 0.00100373
6 *179:6 0.000337913
7 *566:A0 *684:A 0
8 *625:CLK *541:B 0.000232371
9 *625:RESET_B *541:B 4.06077e-05
10 *640:A *541:B 2.59355e-05
11 *688:A *684:A 2.26973e-05
12 *100:6 *541:B 1.33883e-05
13 *100:24 *541:B 0.000177821
14 *105:8 *541:B 7.38748e-05
15 *105:8 *684:A 0.000287938
16 *105:8 *179:21 7.25296e-05
*RES
1 *598:Q *179:6 13.8 
2 *179:6 *684:A 20.05 
3 *179:6 *179:21 1.94643 
4 *179:21 *542:B 13.8 
5 *179:21 *541:B 27.2464 
*END

*D_NET *180 0.00133731
*CONN
*I *515:B I *D sky130_fd_sc_hd__or3_1
*I *623:Q O *D sky130_fd_sc_hd__dfrtp_1
*CAP
1 *515:B 0.000258809
2 *623:Q 0.000258809
3 *515:C *515:B 4.1331e-06
4 *587:B *515:B 5.29944e-05
5 *620:RESET_B *515:B 0.000244635
6 *99:83 *515:B 0.000104974
7 *152:27 *515:B 0.000145594
8 *153:10 *515:B 0.000153054
9 *155:19 *515:B 4.57445e-05
10 *155:32 *515:B 6.85604e-05
*RES
1 *623:Q *515:B 35.9214 
*END

*D_NET *181 0.000998453
*CONN
*I *646:A I *D sky130_fd_sc_hd__dlygate4sd3_1
*I *602:Q O *D sky130_fd_sc_hd__dfrtp_1
*CAP
1 *646:A 0.000317434
2 *602:Q 0.000317434
3 *612:D *646:A 0
4 *619:D *646:A 0.000185643
5 *619:RESET_B *646:A 0.000177941
*RES
1 *602:Q *646:A 33.4393 
*END

*D_NET *182 0.00161609
*CONN
*I *657:A I *D sky130_fd_sc_hd__dlygate4sd3_1
*I *612:Q O *D sky130_fd_sc_hd__dfrtp_1
*CAP
1 *657:A 0.00034901
2 *612:Q 0.00034901
3 *657:A *679:A 5.65955e-05
4 *560:A_N *657:A 0.000141734
5 *563:A0 *657:A 0.000267731
6 *619:D *657:A 6.05161e-06
7 *619:RESET_B *657:A 0
8 *96:8 *657:A 0.00022459
9 *99:64 *657:A 0
10 *104:8 *657:A 0.000221364
*RES
1 *612:Q *657:A 36.35 
*END

*D_NET *183 0.000917554
*CONN
*I *679:A I *D sky130_fd_sc_hd__dlygate4sd3_1
*I *619:Q O *D sky130_fd_sc_hd__dfrtp_1
*CAP
1 *679:A 0.000327989
2 *619:Q 0.000327989
3 *559:A *679:A 0.000123352
4 *657:A *679:A 5.65955e-05
5 *90:49 *679:A 2.28762e-05
6 *90:66 *679:A 3.79877e-06
7 *104:8 *679:A 5.49544e-05
*RES
1 *619:Q *679:A 32.3679 
*END

*D_NET *184 0.00266858
*CONN
*I *558:C I *D sky130_fd_sc_hd__and4b_1
*I *627:Q O *D sky130_fd_sc_hd__dfrtp_1
*CAP
1 *558:C 0.000726496
2 *627:Q 0.000726496
3 *557:D *558:C 7.48091e-05
4 *590:A1 *558:C 0
5 *599:CLK *558:C 0.000126439
6 *599:D *558:C 0
7 *599:RESET_B *558:C 5.33882e-05
8 *603:D *558:C 0.000365682
9 *627:RESET_B *558:C 0.000185643
10 *628:A *558:C 0.000187752
11 *643:A *558:C 8.09393e-05
12 *661:A *558:C 0
13 *89:34 *558:C 0
14 *101:10 *558:C 0
15 *157:48 *558:C 0.000140933
*RES
1 *627:Q *558:C 44.5107 
*END
