*SPEF "ieee 1481-1999"
*DESIGN "rng_top"
*DATE "13:29:11 Tuesday February 17, 2026"
*VENDOR "The OpenROAD Project"
*PROGRAM "OpenROAD"
*VERSION "edf00dff99f6c40d67a30c0e22a8191c5d2ed9d6"
*DESIGN_FLOW "NAME_SCOPE LOCAL" "PIN_CAP NONE"
*DIVIDER /
*DELIMITER :
*BUS_DELIMITER []
*T_UNIT 1 NS
*C_UNIT 1 PF
*R_UNIT 1 OHM
*L_UNIT 1 HENRY

*NAME_MAP
*3 clk_i
*4 num_to_send_o[0]
*5 num_to_send_o[1]
*6 num_to_send_o[2]
*7 req_num_i
*8 rst_i
*9 wr_i
*10 _000_
*11 _001_
*12 _002_
*13 _003_
*14 _004_
*15 _005_
*16 _006_
*17 _007_
*18 _008_
*19 _009_
*20 _010_
*21 _011_
*22 _012_
*23 _013_
*24 _014_
*25 _015_
*26 _016_
*27 _017_
*28 _018_
*29 _019_
*30 _020_
*31 _021_
*32 _022_
*33 _023_
*34 _024_
*35 _025_
*36 _026_
*37 _027_
*38 _028_
*39 _029_
*40 _030_
*41 _031_
*42 _032_
*43 _033_
*44 _034_
*45 _035_
*46 _036_
*47 _037_
*48 _038_
*49 _039_
*50 _040_
*51 _041_
*52 _042_
*53 _043_
*54 _044_
*55 _045_
*56 _046_
*57 _047_
*58 _048_
*59 _049_
*60 _050_
*61 _051_
*62 _052_
*63 _053_
*64 _054_
*65 _055_
*66 _056_
*67 _057_
*68 _058_
*69 _059_
*70 _060_
*71 _061_
*72 _062_
*73 _063_
*74 _064_
*75 _065_
*76 _066_
*77 _067_
*78 _068_
*79 _069_
*80 _070_
*81 _071_
*82 _072_
*83 _073_
*84 _074_
*85 _075_
*86 _076_
*87 _077_
*88 _078_
*89 _079_
*90 _080_
*91 _081_
*92 _082_
*93 _083_
*94 _084_
*95 _085_
*96 _086_
*97 _087_
*98 _088_
*99 _089_
*100 _090_
*101 _091_
*102 _092_
*103 _093_
*104 _094_
*105 _095_
*106 _096_
*107 _097_
*108 _098_
*109 _099_
*110 _100_
*111 _101_
*112 _102_
*113 _103_
*114 _104_
*115 _105_
*116 _106_
*117 _107_
*118 _108_
*119 _109_
*120 _110_
*121 _111_
*122 _112_
*123 _113_
*124 _114_
*125 _115_
*126 _116_
*127 _117_
*128 _118_
*129 _119_
*130 _120_
*131 _121_
*132 _122_
*133 _123_
*134 _124_
*135 _125_
*136 _126_
*137 _127_
*138 _128_
*139 _129_
*140 _130_
*141 _131_
*142 _132_
*143 _133_
*144 _134_
*145 _135_
*146 _136_
*147 _137_
*148 _138_
*149 _139_
*150 _140_
*151 _141_
*152 _142_
*153 _143_
*154 _144_
*155 _145_
*156 _146_
*157 _147_
*158 _148_
*159 _149_
*160 _150_
*161 _151_
*162 _152_
*163 _153_
*164 _154_
*165 _155_
*166 _156_
*167 _157_
*168 _158_
*169 _159_
*170 _160_
*171 _161_
*172 _162_
*173 _163_
*174 _164_
*175 _165_
*176 clknet_0_clk_i
*177 clknet_3_0__leaf_clk_i
*178 clknet_3_1__leaf_clk_i
*179 clknet_3_2__leaf_clk_i
*180 clknet_3_3__leaf_clk_i
*181 clknet_3_4__leaf_clk_i
*182 clknet_3_5__leaf_clk_i
*183 clknet_3_6__leaf_clk_i
*184 clknet_3_7__leaf_clk_i
*185 net1
*186 net10
*187 net11
*188 net12
*189 net13
*190 net14
*191 net15
*192 net16
*193 net17
*194 net18
*195 net19
*196 net2
*197 net20
*198 net21
*199 net22
*200 net23
*201 net24
*202 net25
*203 net26
*204 net27
*205 net28
*206 net29
*207 net3
*208 net30
*209 net31
*210 net32
*211 net33
*212 net34
*213 net35
*214 net36
*215 net37
*216 net38
*217 net39
*218 net4
*219 net40
*220 net41
*221 net42
*222 net43
*223 net44
*224 net45
*225 net46
*226 net47
*227 net48
*228 net49
*229 net5
*230 net50
*231 net51
*232 net52
*233 net53
*234 net54
*235 net55
*236 net56
*237 net57
*238 net58
*239 net59
*240 net6
*241 net60
*242 net61
*243 net62
*244 net63
*245 net64
*246 net65
*247 net66
*248 net67
*249 net68
*250 net69
*251 net7
*252 net70
*253 net71
*254 net72
*255 net73
*256 net74
*257 net75
*258 net76
*259 net77
*260 net78
*261 net79
*262 net8
*263 net80
*264 net81
*265 net82
*266 net83
*267 net84
*268 net85
*269 net86
*270 net87
*271 net88
*272 net89
*273 net9
*274 net90
*275 net91
*276 net92
*277 net93
*278 net94
*279 net95
*280 net96
*281 num_i_bar\[0\]
*282 num_i_bar\[1\]
*283 num_i_bar\[2\]
*284 req_num_again
*285 rng_dp\.inst\.next_num_o\[0\]
*286 rng_dp\.inst\.next_num_o\[1\]
*287 rng_dp\.inst\.next_num_o\[2\]
*288 rng_dp\.seed_sel_i\[0\]
*289 rng_dp\.seed_sel_i\[1\]
*290 rng_rd\.mem\[10\]\[0\]
*291 rng_rd\.mem\[10\]\[1\]
*292 rng_rd\.mem\[10\]\[2\]
*293 rng_rd\.mem\[11\]\[0\]
*294 rng_rd\.mem\[11\]\[1\]
*295 rng_rd\.mem\[11\]\[2\]
*296 rng_rd\.mem\[1\]\[0\]
*297 rng_rd\.mem\[1\]\[1\]
*298 rng_rd\.mem\[1\]\[2\]
*299 rng_rd\.mem\[2\]\[0\]
*300 rng_rd\.mem\[2\]\[1\]
*301 rng_rd\.mem\[2\]\[2\]
*302 rng_rd\.mem\[3\]\[0\]
*303 rng_rd\.mem\[3\]\[1\]
*304 rng_rd\.mem\[3\]\[2\]
*305 rng_rd\.mem\[4\]\[0\]
*306 rng_rd\.mem\[4\]\[1\]
*307 rng_rd\.mem\[4\]\[2\]
*308 rng_rd\.mem\[5\]\[0\]
*309 rng_rd\.mem\[5\]\[1\]
*310 rng_rd\.mem\[5\]\[2\]
*311 rng_rd\.mem\[6\]\[0\]
*312 rng_rd\.mem\[6\]\[1\]
*313 rng_rd\.mem\[6\]\[2\]
*314 rng_rd\.mem\[7\]\[0\]
*315 rng_rd\.mem\[7\]\[1\]
*316 rng_rd\.mem\[7\]\[2\]
*317 rng_rd\.mem\[8\]\[0\]
*318 rng_rd\.mem\[8\]\[1\]
*319 rng_rd\.mem\[8\]\[2\]
*320 rng_rd\.mem\[9\]\[0\]
*321 rng_rd\.mem\[9\]\[1\]
*322 rng_rd\.mem\[9\]\[2\]
*323 rng_rd\.vld\[0\]
*324 rng_rd\.vld\[10\]
*325 rng_rd\.vld\[11\]
*326 rng_rd\.vld\[1\]
*327 rng_rd\.vld\[2\]
*328 rng_rd\.vld\[3\]
*329 rng_rd\.vld\[4\]
*330 rng_rd\.vld\[5\]
*331 rng_rd\.vld\[6\]
*332 rng_rd\.vld\[7\]
*333 rng_rd\.vld\[8\]
*334 rng_rd\.vld\[9\]
*335 rng_rd\.wr_ff1
*336 rng_rd\.wr_ff2
*337 rng_rd\.wr_ff2_d
*338 rng_rd\.wr_pulse
*339 FILLER_0_105
*340 FILLER_0_107
*341 FILLER_0_111
*342 FILLER_0_113
*343 FILLER_0_125
*344 FILLER_0_137
*345 FILLER_0_139
*346 FILLER_0_141
*347 FILLER_0_15
*348 FILLER_0_153
*349 FILLER_0_165
*350 FILLER_0_167
*351 FILLER_0_169
*352 FILLER_0_181
*353 FILLER_0_193
*354 FILLER_0_195
*355 FILLER_0_197
*356 FILLER_0_209
*357 FILLER_0_221
*358 FILLER_0_27
*359 FILLER_0_29
*360 FILLER_0_3
*361 FILLER_0_41
*362 FILLER_0_53
*363 FILLER_0_55
*364 FILLER_0_57
*365 FILLER_0_69
*366 FILLER_0_81
*367 FILLER_0_83
*368 FILLER_0_85
*369 FILLER_0_97
*370 FILLER_10_104
*371 FILLER_10_111
*372 FILLER_10_154
*373 FILLER_10_175
*374 FILLER_10_193
*375 FILLER_10_195
*376 FILLER_10_209
*377 FILLER_10_221
*378 FILLER_10_24
*379 FILLER_10_29
*380 FILLER_10_3
*381 FILLER_10_50
*382 FILLER_10_52
*383 FILLER_10_85
*384 FILLER_11_103
*385 FILLER_11_111
*386 FILLER_11_123
*387 FILLER_11_128
*388 FILLER_11_136
*389 FILLER_11_183
*390 FILLER_11_204
*391 FILLER_11_216
*392 FILLER_11_220
*393 FILLER_11_222
*394 FILLER_11_29
*395 FILLER_11_3
*396 FILLER_11_47
*397 FILLER_11_5
*398 FILLER_11_55
*399 FILLER_11_66
*400 FILLER_11_70
*401 FILLER_11_91
*402 FILLER_12_118
*403 FILLER_12_130
*404 FILLER_12_138
*405 FILLER_12_141
*406 FILLER_12_161
*407 FILLER_12_193
*408 FILLER_12_195
*409 FILLER_12_210
*410 FILLER_12_222
*411 FILLER_12_45
*412 FILLER_12_49
*413 FILLER_12_7
*414 FILLER_12_82
*415 FILLER_13_104
*416 FILLER_13_110
*417 FILLER_13_113
*418 FILLER_13_135
*419 FILLER_13_147
*420 FILLER_13_149
*421 FILLER_13_159
*422 FILLER_13_167
*423 FILLER_13_169
*424 FILLER_13_173
*425 FILLER_13_184
*426 FILLER_13_19
*427 FILLER_13_205
*428 FILLER_13_217
*429 FILLER_13_221
*430 FILLER_13_23
*431 FILLER_13_41
*432 FILLER_13_48
*433 FILLER_13_7
*434 FILLER_13_9
*435 FILLER_14_107
*436 FILLER_14_133
*437 FILLER_14_137
*438 FILLER_14_139
*439 FILLER_14_141
*440 FILLER_14_193
*441 FILLER_14_195
*442 FILLER_14_197
*443 FILLER_14_209
*444 FILLER_14_221
*445 FILLER_14_26
*446 FILLER_14_29
*447 FILLER_14_39
*448 FILLER_14_48
*449 FILLER_14_56
*450 FILLER_14_65
*451 FILLER_14_67
*452 FILLER_14_85
*453 FILLER_14_89
*454 FILLER_15_11
*455 FILLER_15_119
*456 FILLER_15_128
*457 FILLER_15_13
*458 FILLER_15_130
*459 FILLER_15_167
*460 FILLER_15_197
*461 FILLER_15_207
*462 FILLER_15_219
*463 FILLER_15_23
*464 FILLER_15_25
*465 FILLER_15_46
*466 FILLER_15_57
*467 FILLER_15_7
*468 FILLER_15_70
*469 FILLER_15_92
*470 FILLER_15_96
*471 FILLER_15_98
*472 FILLER_16_101
*473 FILLER_16_111
*474 FILLER_16_123
*475 FILLER_16_135
*476 FILLER_16_139
*477 FILLER_16_150
*478 FILLER_16_195
*479 FILLER_16_197
*480 FILLER_16_209
*481 FILLER_16_221
*482 FILLER_16_3
*483 FILLER_16_37
*484 FILLER_16_47
*485 FILLER_16_7
*486 FILLER_16_74
*487 FILLER_17_105
*488 FILLER_17_130
*489 FILLER_17_132
*490 FILLER_17_141
*491 FILLER_17_149
*492 FILLER_17_15
*493 FILLER_17_169
*494 FILLER_17_173
*495 FILLER_17_209
*496 FILLER_17_221
*497 FILLER_17_27
*498 FILLER_17_3
*499 FILLER_17_35
*500 FILLER_17_66
*501 FILLER_17_74
*502 FILLER_17_95
*503 FILLER_18_115
*504 FILLER_18_119
*505 FILLER_18_141
*506 FILLER_18_161
*507 FILLER_18_172
*508 FILLER_18_180
*509 FILLER_18_182
*510 FILLER_18_192
*511 FILLER_18_197
*512 FILLER_18_206
*513 FILLER_18_218
*514 FILLER_18_222
*515 FILLER_18_26
*516 FILLER_18_29
*517 FILLER_18_3
*518 FILLER_18_5
*519 FILLER_18_59
*520 FILLER_18_71
*521 FILLER_18_91
*522 FILLER_19_104
*523 FILLER_19_111
*524 FILLER_19_113
*525 FILLER_19_117
*526 FILLER_19_209
*527 FILLER_19_221
*528 FILLER_19_3
*529 FILLER_19_37
*530 FILLER_19_50
*531 FILLER_19_54
*532 FILLER_19_57
*533 FILLER_19_61
*534 FILLER_19_71
*535 FILLER_19_75
*536 FILLER_19_90
*537 FILLER_19_94
*538 FILLER_1_110
*539 FILLER_1_113
*540 FILLER_1_125
*541 FILLER_1_137
*542 FILLER_1_149
*543 FILLER_1_161
*544 FILLER_1_165
*545 FILLER_1_167
*546 FILLER_1_169
*547 FILLER_1_181
*548 FILLER_1_193
*549 FILLER_1_205
*550 FILLER_1_217
*551 FILLER_1_221
*552 FILLER_1_25
*553 FILLER_1_3
*554 FILLER_1_37
*555 FILLER_1_42
*556 FILLER_1_53
*557 FILLER_1_55
*558 FILLER_1_80
*559 FILLER_20_108
*560 FILLER_20_120
*561 FILLER_20_126
*562 FILLER_20_138
*563 FILLER_20_141
*564 FILLER_20_145
*565 FILLER_20_147
*566 FILLER_20_15
*567 FILLER_20_167
*568 FILLER_20_169
*569 FILLER_20_187
*570 FILLER_20_195
*571 FILLER_20_197
*572 FILLER_20_209
*573 FILLER_20_221
*574 FILLER_20_26
*575 FILLER_20_29
*576 FILLER_20_3
*577 FILLER_20_80
*578 FILLER_20_85
*579 FILLER_20_89
*580 FILLER_21_108
*581 FILLER_21_113
*582 FILLER_21_115
*583 FILLER_21_125
*584 FILLER_21_127
*585 FILLER_21_136
*586 FILLER_21_147
*587 FILLER_21_15
*588 FILLER_21_151
*589 FILLER_21_162
*590 FILLER_21_166
*591 FILLER_21_189
*592 FILLER_21_201
*593 FILLER_21_213
*594 FILLER_21_221
*595 FILLER_21_23
*596 FILLER_21_3
*597 FILLER_21_33
*598 FILLER_21_45
*599 FILLER_21_47
*600 FILLER_21_57
*601 FILLER_21_59
*602 FILLER_22_136
*603 FILLER_22_15
*604 FILLER_22_189
*605 FILLER_22_193
*606 FILLER_22_195
*607 FILLER_22_197
*608 FILLER_22_209
*609 FILLER_22_221
*610 FILLER_22_27
*611 FILLER_22_29
*612 FILLER_22_3
*613 FILLER_22_41
*614 FILLER_22_45
*615 FILLER_22_47
*616 FILLER_22_65
*617 FILLER_22_74
*618 FILLER_22_82
*619 FILLER_22_94
*620 FILLER_23_105
*621 FILLER_23_109
*622 FILLER_23_111
*623 FILLER_23_130
*624 FILLER_23_142
*625 FILLER_23_144
*626 FILLER_23_15
*627 FILLER_23_161
*628 FILLER_23_165
*629 FILLER_23_167
*630 FILLER_23_177
*631 FILLER_23_189
*632 FILLER_23_201
*633 FILLER_23_213
*634 FILLER_23_221
*635 FILLER_23_27
*636 FILLER_23_3
*637 FILLER_23_39
*638 FILLER_23_51
*639 FILLER_23_55
*640 FILLER_23_57
*641 FILLER_23_69
*642 FILLER_24_109
*643 FILLER_24_125
*644 FILLER_24_137
*645 FILLER_24_139
*646 FILLER_24_141
*647 FILLER_24_15
*648 FILLER_24_153
*649 FILLER_24_165
*650 FILLER_24_177
*651 FILLER_24_189
*652 FILLER_24_193
*653 FILLER_24_195
*654 FILLER_24_197
*655 FILLER_24_209
*656 FILLER_24_221
*657 FILLER_24_27
*658 FILLER_24_29
*659 FILLER_24_3
*660 FILLER_24_41
*661 FILLER_24_53
*662 FILLER_24_65
*663 FILLER_24_77
*664 FILLER_24_81
*665 FILLER_24_83
*666 FILLER_24_85
*667 FILLER_24_97
*668 FILLER_25_105
*669 FILLER_25_109
*670 FILLER_25_111
*671 FILLER_25_113
*672 FILLER_25_125
*673 FILLER_25_137
*674 FILLER_25_149
*675 FILLER_25_15
*676 FILLER_25_161
*677 FILLER_25_165
*678 FILLER_25_167
*679 FILLER_25_169
*680 FILLER_25_181
*681 FILLER_25_193
*682 FILLER_25_205
*683 FILLER_25_217
*684 FILLER_25_221
*685 FILLER_25_27
*686 FILLER_25_3
*687 FILLER_25_39
*688 FILLER_25_51
*689 FILLER_25_55
*690 FILLER_25_57
*691 FILLER_25_69
*692 FILLER_25_81
*693 FILLER_25_93
*694 FILLER_26_109
*695 FILLER_26_121
*696 FILLER_26_133
*697 FILLER_26_137
*698 FILLER_26_139
*699 FILLER_26_141
*700 FILLER_26_15
*701 FILLER_26_153
*702 FILLER_26_165
*703 FILLER_26_177
*704 FILLER_26_189
*705 FILLER_26_193
*706 FILLER_26_195
*707 FILLER_26_197
*708 FILLER_26_209
*709 FILLER_26_221
*710 FILLER_26_27
*711 FILLER_26_29
*712 FILLER_26_3
*713 FILLER_26_41
*714 FILLER_26_53
*715 FILLER_26_65
*716 FILLER_26_77
*717 FILLER_26_81
*718 FILLER_26_83
*719 FILLER_26_85
*720 FILLER_26_97
*721 FILLER_27_105
*722 FILLER_27_109
*723 FILLER_27_111
*724 FILLER_27_113
*725 FILLER_27_125
*726 FILLER_27_137
*727 FILLER_27_149
*728 FILLER_27_15
*729 FILLER_27_161
*730 FILLER_27_165
*731 FILLER_27_167
*732 FILLER_27_169
*733 FILLER_27_181
*734 FILLER_27_193
*735 FILLER_27_205
*736 FILLER_27_217
*737 FILLER_27_221
*738 FILLER_27_27
*739 FILLER_27_3
*740 FILLER_27_39
*741 FILLER_27_51
*742 FILLER_27_55
*743 FILLER_27_57
*744 FILLER_27_69
*745 FILLER_27_81
*746 FILLER_27_93
*747 FILLER_28_109
*748 FILLER_28_121
*749 FILLER_28_133
*750 FILLER_28_137
*751 FILLER_28_139
*752 FILLER_28_141
*753 FILLER_28_15
*754 FILLER_28_153
*755 FILLER_28_165
*756 FILLER_28_177
*757 FILLER_28_189
*758 FILLER_28_193
*759 FILLER_28_195
*760 FILLER_28_197
*761 FILLER_28_209
*762 FILLER_28_221
*763 FILLER_28_27
*764 FILLER_28_29
*765 FILLER_28_3
*766 FILLER_28_41
*767 FILLER_28_53
*768 FILLER_28_65
*769 FILLER_28_77
*770 FILLER_28_81
*771 FILLER_28_83
*772 FILLER_28_85
*773 FILLER_28_97
*774 FILLER_29_105
*775 FILLER_29_109
*776 FILLER_29_111
*777 FILLER_29_113
*778 FILLER_29_125
*779 FILLER_29_137
*780 FILLER_29_149
*781 FILLER_29_15
*782 FILLER_29_161
*783 FILLER_29_165
*784 FILLER_29_167
*785 FILLER_29_169
*786 FILLER_29_181
*787 FILLER_29_193
*788 FILLER_29_205
*789 FILLER_29_217
*790 FILLER_29_221
*791 FILLER_29_27
*792 FILLER_29_3
*793 FILLER_29_39
*794 FILLER_29_51
*795 FILLER_29_55
*796 FILLER_29_57
*797 FILLER_29_69
*798 FILLER_29_81
*799 FILLER_29_93
*800 FILLER_2_112
*801 FILLER_2_124
*802 FILLER_2_136
*803 FILLER_2_141
*804 FILLER_2_153
*805 FILLER_2_165
*806 FILLER_2_177
*807 FILLER_2_189
*808 FILLER_2_193
*809 FILLER_2_195
*810 FILLER_2_197
*811 FILLER_2_209
*812 FILLER_2_221
*813 FILLER_2_27
*814 FILLER_2_52
*815 FILLER_2_54
*816 FILLER_2_62
*817 FILLER_30_109
*818 FILLER_30_121
*819 FILLER_30_133
*820 FILLER_30_137
*821 FILLER_30_139
*822 FILLER_30_141
*823 FILLER_30_15
*824 FILLER_30_153
*825 FILLER_30_165
*826 FILLER_30_177
*827 FILLER_30_189
*828 FILLER_30_193
*829 FILLER_30_195
*830 FILLER_30_197
*831 FILLER_30_209
*832 FILLER_30_221
*833 FILLER_30_27
*834 FILLER_30_29
*835 FILLER_30_3
*836 FILLER_30_41
*837 FILLER_30_53
*838 FILLER_30_65
*839 FILLER_30_77
*840 FILLER_30_81
*841 FILLER_30_83
*842 FILLER_30_85
*843 FILLER_30_97
*844 FILLER_31_105
*845 FILLER_31_109
*846 FILLER_31_111
*847 FILLER_31_113
*848 FILLER_31_125
*849 FILLER_31_137
*850 FILLER_31_149
*851 FILLER_31_15
*852 FILLER_31_161
*853 FILLER_31_165
*854 FILLER_31_167
*855 FILLER_31_169
*856 FILLER_31_181
*857 FILLER_31_193
*858 FILLER_31_205
*859 FILLER_31_217
*860 FILLER_31_221
*861 FILLER_31_27
*862 FILLER_31_3
*863 FILLER_31_39
*864 FILLER_31_51
*865 FILLER_31_55
*866 FILLER_31_57
*867 FILLER_31_69
*868 FILLER_31_81
*869 FILLER_31_93
*870 FILLER_32_109
*871 FILLER_32_121
*872 FILLER_32_133
*873 FILLER_32_137
*874 FILLER_32_139
*875 FILLER_32_141
*876 FILLER_32_15
*877 FILLER_32_153
*878 FILLER_32_165
*879 FILLER_32_177
*880 FILLER_32_189
*881 FILLER_32_193
*882 FILLER_32_195
*883 FILLER_32_197
*884 FILLER_32_209
*885 FILLER_32_221
*886 FILLER_32_27
*887 FILLER_32_29
*888 FILLER_32_3
*889 FILLER_32_41
*890 FILLER_32_53
*891 FILLER_32_65
*892 FILLER_32_77
*893 FILLER_32_81
*894 FILLER_32_83
*895 FILLER_32_85
*896 FILLER_32_97
*897 FILLER_33_109
*898 FILLER_33_111
*899 FILLER_33_113
*900 FILLER_33_125
*901 FILLER_33_137
*902 FILLER_33_139
*903 FILLER_33_141
*904 FILLER_33_15
*905 FILLER_33_153
*906 FILLER_33_165
*907 FILLER_33_167
*908 FILLER_33_169
*909 FILLER_33_181
*910 FILLER_33_193
*911 FILLER_33_195
*912 FILLER_33_197
*913 FILLER_33_209
*914 FILLER_33_221
*915 FILLER_33_27
*916 FILLER_33_29
*917 FILLER_33_3
*918 FILLER_33_41
*919 FILLER_33_53
*920 FILLER_33_55
*921 FILLER_33_57
*922 FILLER_33_69
*923 FILLER_33_81
*924 FILLER_33_83
*925 FILLER_33_85
*926 FILLER_33_97
*927 FILLER_3_101
*928 FILLER_3_109
*929 FILLER_3_11
*930 FILLER_3_111
*931 FILLER_3_113
*932 FILLER_3_125
*933 FILLER_3_137
*934 FILLER_3_149
*935 FILLER_3_161
*936 FILLER_3_165
*937 FILLER_3_167
*938 FILLER_3_169
*939 FILLER_3_181
*940 FILLER_3_193
*941 FILLER_3_205
*942 FILLER_3_217
*943 FILLER_3_221
*944 FILLER_3_24
*945 FILLER_3_3
*946 FILLER_3_40
*947 FILLER_3_42
*948 FILLER_3_55
*949 FILLER_3_73
*950 FILLER_3_77
*951 FILLER_3_86
*952 FILLER_3_94
*953 FILLER_4_129
*954 FILLER_4_137
*955 FILLER_4_139
*956 FILLER_4_141
*957 FILLER_4_15
*958 FILLER_4_159
*959 FILLER_4_171
*960 FILLER_4_183
*961 FILLER_4_195
*962 FILLER_4_197
*963 FILLER_4_209
*964 FILLER_4_221
*965 FILLER_4_3
*966 FILLER_4_41
*967 FILLER_4_45
*968 FILLER_4_49
*969 FILLER_4_57
*970 FILLER_4_64
*971 FILLER_4_77
*972 FILLER_4_81
*973 FILLER_4_83
*974 FILLER_4_85
*975 FILLER_4_97
*976 FILLER_5_15
*977 FILLER_5_166
*978 FILLER_5_169
*979 FILLER_5_173
*980 FILLER_5_175
*981 FILLER_5_196
*982 FILLER_5_208
*983 FILLER_5_220
*984 FILLER_5_222
*985 FILLER_5_3
*986 FILLER_5_37
*987 FILLER_5_45
*988 FILLER_5_55
*989 FILLER_5_65
*990 FILLER_5_67
*991 FILLER_5_91
*992 FILLER_6_150
*993 FILLER_6_152
*994 FILLER_6_193
*995 FILLER_6_195
*996 FILLER_6_205
*997 FILLER_6_217
*998 FILLER_6_221
*999 FILLER_6_3
*1000 FILLER_6_33
*1001 FILLER_6_45
*1002 FILLER_6_7
*1003 FILLER_6_78
*1004 FILLER_6_82
*1005 FILLER_6_85
*1006 FILLER_7_102
*1007 FILLER_7_15
*1008 FILLER_7_155
*1009 FILLER_7_178
*1010 FILLER_7_182
*1011 FILLER_7_212
*1012 FILLER_7_3
*1013 FILLER_7_41
*1014 FILLER_7_53
*1015 FILLER_7_55
*1016 FILLER_7_61
*1017 FILLER_8_124
*1018 FILLER_8_131
*1019 FILLER_8_139
*1020 FILLER_8_144
*1021 FILLER_8_146
*1022 FILLER_8_161
*1023 FILLER_8_190
*1024 FILLER_8_194
*1025 FILLER_8_220
*1026 FILLER_8_222
*1027 FILLER_8_23
*1028 FILLER_8_27
*1029 FILLER_8_49
*1030 FILLER_8_53
*1031 FILLER_8_62
*1032 FILLER_8_64
*1033 FILLER_8_71
*1034 FILLER_8_81
*1035 FILLER_8_83
*1036 FILLER_8_99
*1037 FILLER_9_10
*1038 FILLER_9_141
*1039 FILLER_9_208
*1040 FILLER_9_21
*1041 FILLER_9_220
*1042 FILLER_9_222
*1043 FILLER_9_54
*1044 FILLER_9_6
*1045 PHY_EDGE_ROW_0_Left_34
*1046 PHY_EDGE_ROW_0_Right_0
*1047 PHY_EDGE_ROW_10_Left_44
*1048 PHY_EDGE_ROW_10_Right_10
*1049 PHY_EDGE_ROW_11_Left_45
*1050 PHY_EDGE_ROW_11_Right_11
*1051 PHY_EDGE_ROW_12_Left_46
*1052 PHY_EDGE_ROW_12_Right_12
*1053 PHY_EDGE_ROW_13_Left_47
*1054 PHY_EDGE_ROW_13_Right_13
*1055 PHY_EDGE_ROW_14_Left_48
*1056 PHY_EDGE_ROW_14_Right_14
*1057 PHY_EDGE_ROW_15_Left_49
*1058 PHY_EDGE_ROW_15_Right_15
*1059 PHY_EDGE_ROW_16_Left_50
*1060 PHY_EDGE_ROW_16_Right_16
*1061 PHY_EDGE_ROW_17_Left_51
*1062 PHY_EDGE_ROW_17_Right_17
*1063 PHY_EDGE_ROW_18_Left_52
*1064 PHY_EDGE_ROW_18_Right_18
*1065 PHY_EDGE_ROW_19_Left_53
*1066 PHY_EDGE_ROW_19_Right_19
*1067 PHY_EDGE_ROW_1_Left_35
*1068 PHY_EDGE_ROW_1_Right_1
*1069 PHY_EDGE_ROW_20_Left_54
*1070 PHY_EDGE_ROW_20_Right_20
*1071 PHY_EDGE_ROW_21_Left_55
*1072 PHY_EDGE_ROW_21_Right_21
*1073 PHY_EDGE_ROW_22_Left_56
*1074 PHY_EDGE_ROW_22_Right_22
*1075 PHY_EDGE_ROW_23_Left_57
*1076 PHY_EDGE_ROW_23_Right_23
*1077 PHY_EDGE_ROW_24_Left_58
*1078 PHY_EDGE_ROW_24_Right_24
*1079 PHY_EDGE_ROW_25_Left_59
*1080 PHY_EDGE_ROW_25_Right_25
*1081 PHY_EDGE_ROW_26_Left_60
*1082 PHY_EDGE_ROW_26_Right_26
*1083 PHY_EDGE_ROW_27_Left_61
*1084 PHY_EDGE_ROW_27_Right_27
*1085 PHY_EDGE_ROW_28_Left_62
*1086 PHY_EDGE_ROW_28_Right_28
*1087 PHY_EDGE_ROW_29_Left_63
*1088 PHY_EDGE_ROW_29_Right_29
*1089 PHY_EDGE_ROW_2_Left_36
*1090 PHY_EDGE_ROW_2_Right_2
*1091 PHY_EDGE_ROW_30_Left_64
*1092 PHY_EDGE_ROW_30_Right_30
*1093 PHY_EDGE_ROW_31_Left_65
*1094 PHY_EDGE_ROW_31_Right_31
*1095 PHY_EDGE_ROW_32_Left_66
*1096 PHY_EDGE_ROW_32_Right_32
*1097 PHY_EDGE_ROW_33_Left_67
*1098 PHY_EDGE_ROW_33_Right_33
*1099 PHY_EDGE_ROW_3_Left_37
*1100 PHY_EDGE_ROW_3_Right_3
*1101 PHY_EDGE_ROW_4_Left_38
*1102 PHY_EDGE_ROW_4_Right_4
*1103 PHY_EDGE_ROW_5_Left_39
*1104 PHY_EDGE_ROW_5_Right_5
*1105 PHY_EDGE_ROW_6_Left_40
*1106 PHY_EDGE_ROW_6_Right_6
*1107 PHY_EDGE_ROW_7_Left_41
*1108 PHY_EDGE_ROW_7_Right_7
*1109 PHY_EDGE_ROW_8_Left_42
*1110 PHY_EDGE_ROW_8_Right_8
*1111 PHY_EDGE_ROW_9_Left_43
*1112 PHY_EDGE_ROW_9_Right_9
*1113 TAP_TAPCELL_ROW_0_68
*1114 TAP_TAPCELL_ROW_0_69
*1115 TAP_TAPCELL_ROW_0_70
*1116 TAP_TAPCELL_ROW_0_71
*1117 TAP_TAPCELL_ROW_0_72
*1118 TAP_TAPCELL_ROW_0_73
*1119 TAP_TAPCELL_ROW_0_74
*1120 TAP_TAPCELL_ROW_10_106
*1121 TAP_TAPCELL_ROW_10_107
*1122 TAP_TAPCELL_ROW_10_108
*1123 TAP_TAPCELL_ROW_10_109
*1124 TAP_TAPCELL_ROW_11_110
*1125 TAP_TAPCELL_ROW_11_111
*1126 TAP_TAPCELL_ROW_11_112
*1127 TAP_TAPCELL_ROW_12_113
*1128 TAP_TAPCELL_ROW_12_114
*1129 TAP_TAPCELL_ROW_12_115
*1130 TAP_TAPCELL_ROW_12_116
*1131 TAP_TAPCELL_ROW_13_117
*1132 TAP_TAPCELL_ROW_13_118
*1133 TAP_TAPCELL_ROW_13_119
*1134 TAP_TAPCELL_ROW_14_120
*1135 TAP_TAPCELL_ROW_14_121
*1136 TAP_TAPCELL_ROW_14_122
*1137 TAP_TAPCELL_ROW_14_123
*1138 TAP_TAPCELL_ROW_15_124
*1139 TAP_TAPCELL_ROW_15_125
*1140 TAP_TAPCELL_ROW_15_126
*1141 TAP_TAPCELL_ROW_16_127
*1142 TAP_TAPCELL_ROW_16_128
*1143 TAP_TAPCELL_ROW_16_129
*1144 TAP_TAPCELL_ROW_16_130
*1145 TAP_TAPCELL_ROW_17_131
*1146 TAP_TAPCELL_ROW_17_132
*1147 TAP_TAPCELL_ROW_17_133
*1148 TAP_TAPCELL_ROW_18_134
*1149 TAP_TAPCELL_ROW_18_135
*1150 TAP_TAPCELL_ROW_18_136
*1151 TAP_TAPCELL_ROW_18_137
*1152 TAP_TAPCELL_ROW_19_138
*1153 TAP_TAPCELL_ROW_19_139
*1154 TAP_TAPCELL_ROW_19_140
*1155 TAP_TAPCELL_ROW_1_75
*1156 TAP_TAPCELL_ROW_1_76
*1157 TAP_TAPCELL_ROW_1_77
*1158 TAP_TAPCELL_ROW_20_141
*1159 TAP_TAPCELL_ROW_20_142
*1160 TAP_TAPCELL_ROW_20_143
*1161 TAP_TAPCELL_ROW_20_144
*1162 TAP_TAPCELL_ROW_21_145
*1163 TAP_TAPCELL_ROW_21_146
*1164 TAP_TAPCELL_ROW_21_147
*1165 TAP_TAPCELL_ROW_22_148
*1166 TAP_TAPCELL_ROW_22_149
*1167 TAP_TAPCELL_ROW_22_150
*1168 TAP_TAPCELL_ROW_22_151
*1169 TAP_TAPCELL_ROW_23_152
*1170 TAP_TAPCELL_ROW_23_153
*1171 TAP_TAPCELL_ROW_23_154
*1172 TAP_TAPCELL_ROW_24_155
*1173 TAP_TAPCELL_ROW_24_156
*1174 TAP_TAPCELL_ROW_24_157
*1175 TAP_TAPCELL_ROW_24_158
*1176 TAP_TAPCELL_ROW_25_159
*1177 TAP_TAPCELL_ROW_25_160
*1178 TAP_TAPCELL_ROW_25_161
*1179 TAP_TAPCELL_ROW_26_162
*1180 TAP_TAPCELL_ROW_26_163
*1181 TAP_TAPCELL_ROW_26_164
*1182 TAP_TAPCELL_ROW_26_165
*1183 TAP_TAPCELL_ROW_27_166
*1184 TAP_TAPCELL_ROW_27_167
*1185 TAP_TAPCELL_ROW_27_168
*1186 TAP_TAPCELL_ROW_28_169
*1187 TAP_TAPCELL_ROW_28_170
*1188 TAP_TAPCELL_ROW_28_171
*1189 TAP_TAPCELL_ROW_28_172
*1190 TAP_TAPCELL_ROW_29_173
*1191 TAP_TAPCELL_ROW_29_174
*1192 TAP_TAPCELL_ROW_29_175
*1193 TAP_TAPCELL_ROW_2_78
*1194 TAP_TAPCELL_ROW_2_79
*1195 TAP_TAPCELL_ROW_2_80
*1196 TAP_TAPCELL_ROW_2_81
*1197 TAP_TAPCELL_ROW_30_176
*1198 TAP_TAPCELL_ROW_30_177
*1199 TAP_TAPCELL_ROW_30_178
*1200 TAP_TAPCELL_ROW_30_179
*1201 TAP_TAPCELL_ROW_31_180
*1202 TAP_TAPCELL_ROW_31_181
*1203 TAP_TAPCELL_ROW_31_182
*1204 TAP_TAPCELL_ROW_32_183
*1205 TAP_TAPCELL_ROW_32_184
*1206 TAP_TAPCELL_ROW_32_185
*1207 TAP_TAPCELL_ROW_32_186
*1208 TAP_TAPCELL_ROW_33_187
*1209 TAP_TAPCELL_ROW_33_188
*1210 TAP_TAPCELL_ROW_33_189
*1211 TAP_TAPCELL_ROW_33_190
*1212 TAP_TAPCELL_ROW_33_191
*1213 TAP_TAPCELL_ROW_33_192
*1214 TAP_TAPCELL_ROW_33_193
*1215 TAP_TAPCELL_ROW_3_82
*1216 TAP_TAPCELL_ROW_3_83
*1217 TAP_TAPCELL_ROW_3_84
*1218 TAP_TAPCELL_ROW_4_85
*1219 TAP_TAPCELL_ROW_4_86
*1220 TAP_TAPCELL_ROW_4_87
*1221 TAP_TAPCELL_ROW_4_88
*1222 TAP_TAPCELL_ROW_5_89
*1223 TAP_TAPCELL_ROW_5_90
*1224 TAP_TAPCELL_ROW_5_91
*1225 TAP_TAPCELL_ROW_6_92
*1226 TAP_TAPCELL_ROW_6_93
*1227 TAP_TAPCELL_ROW_6_94
*1228 TAP_TAPCELL_ROW_6_95
*1229 TAP_TAPCELL_ROW_7_96
*1230 TAP_TAPCELL_ROW_7_97
*1231 TAP_TAPCELL_ROW_7_98
*1232 TAP_TAPCELL_ROW_8_100
*1233 TAP_TAPCELL_ROW_8_101
*1234 TAP_TAPCELL_ROW_8_102
*1235 TAP_TAPCELL_ROW_8_99
*1236 TAP_TAPCELL_ROW_9_103
*1237 TAP_TAPCELL_ROW_9_104
*1238 TAP_TAPCELL_ROW_9_105
*1239 _166_
*1240 _167_
*1241 _168_
*1242 _169_
*1243 _170_
*1244 _171_
*1245 _172_
*1246 _173_
*1247 _174_
*1248 _175_
*1249 _176_
*1250 _177_
*1251 _178_
*1252 _179_
*1253 _180_
*1254 _181_
*1255 _182_
*1256 _183_
*1257 _184_
*1258 _185_
*1259 _186_
*1260 _187_
*1261 _188_
*1262 _189_
*1263 _190_
*1264 _191_
*1265 _192_
*1266 _193_
*1267 _194_
*1268 _195_
*1269 _196_
*1270 _197_
*1271 _198_
*1272 _199_
*1273 _200_
*1274 _201_
*1275 _202_
*1276 _203_
*1277 _204_
*1278 _205_
*1279 _206_
*1280 _207_
*1281 _208_
*1282 _209_
*1283 _210_
*1284 _211_
*1285 _212_
*1286 _213_
*1287 _214_
*1288 _215_
*1289 _216_
*1290 _217_
*1291 _218_
*1292 _219_
*1293 _220_
*1294 _221_
*1295 _222_
*1296 _223_
*1297 _224_
*1298 _225_
*1299 _226_
*1300 _227_
*1301 _228_
*1302 _229_
*1303 _230_
*1304 _231_
*1305 _232_
*1306 _233_
*1307 _234_
*1308 _235_
*1309 _236_
*1310 _237_
*1311 _238_
*1312 _239_
*1313 _240_
*1314 _241_
*1315 _242_
*1316 _243_
*1317 _244_
*1318 _245_
*1319 _246_
*1320 _247_
*1321 _248_
*1322 _249_
*1323 _250_
*1324 _251_
*1325 _252_
*1326 _253_
*1327 _254_
*1328 _255_
*1329 _256_
*1330 _257_
*1331 _258_
*1332 _259_
*1333 _260_
*1334 _261_
*1335 _262_
*1336 _263_
*1337 _264_
*1338 _265_
*1339 _266_
*1340 _267_
*1341 _268_
*1342 _269_
*1343 _270_
*1344 _271_
*1345 _272_
*1346 _273_
*1347 _274_
*1348 _275_
*1349 _276_
*1350 _277_
*1351 _278_
*1352 _279_
*1353 _280_
*1354 _281_
*1355 _282_
*1356 _283_
*1357 _284_
*1358 _285_
*1359 _286_
*1360 _287_
*1361 _288_
*1362 _289_
*1363 _290_
*1364 _291_
*1365 _292_
*1366 _293_
*1367 _294_
*1368 _295_
*1369 _296_
*1370 _297_
*1371 _298_
*1372 _299_
*1373 _300_
*1374 _301_
*1375 _302_
*1376 _303_
*1377 _304_
*1378 _305_
*1379 _306_
*1380 _307_
*1381 _308_
*1382 _309_
*1383 _310_
*1384 _311_
*1385 _312_
*1386 _313_
*1387 _314_
*1388 _315_
*1389 _316_
*1390 _317_
*1391 _318_
*1392 _319_
*1393 _320_
*1394 _321_
*1395 _322_
*1396 _323_
*1397 _324_
*1398 _325_
*1399 _326_
*1400 _327_
*1401 _328_
*1402 _329_
*1403 _330_
*1404 _331_
*1405 _332_
*1406 _333_
*1407 _334_
*1408 _335_
*1409 _336_
*1410 _337_
*1411 _338_
*1412 _339_
*1413 _340_
*1414 _341_
*1415 _342_
*1416 _343_
*1417 _344_
*1418 _345_
*1419 _346_
*1420 _347_
*1421 _348_
*1422 _349_
*1423 _350_
*1424 _351_
*1425 _352_
*1426 _353_
*1427 _354_
*1428 _355_
*1429 _356_
*1430 _357_
*1431 _358_
*1432 _359_
*1433 _360_
*1434 _361_
*1435 _362_
*1436 _363_
*1437 _364_
*1438 _365_
*1439 _366_
*1440 _367_
*1441 _368_
*1442 _369_
*1443 _370_
*1444 _371_
*1445 _372_
*1446 _373_
*1447 _374_
*1448 _375_
*1449 _376_
*1450 _377_
*1451 _378_
*1452 _379_
*1453 _380_
*1454 _381_
*1455 _382_
*1456 _383_
*1457 _384_
*1458 _385_
*1459 _386_
*1460 _387_
*1461 _388_
*1462 _389_
*1463 _390_
*1464 _391_
*1465 _392_
*1466 clkbuf_0_clk_i
*1467 clkbuf_3_0__f_clk_i
*1468 clkbuf_3_1__f_clk_i
*1469 clkbuf_3_2__f_clk_i
*1470 clkbuf_3_3__f_clk_i
*1471 clkbuf_3_4__f_clk_i
*1472 clkbuf_3_5__f_clk_i
*1473 clkbuf_3_6__f_clk_i
*1474 clkbuf_3_7__f_clk_i
*1475 clkload0
*1476 clkload1
*1477 clkload2
*1478 clkload3
*1479 clkload4
*1480 clkload5
*1481 clkload6
*1482 fanout10
*1483 fanout11
*1484 fanout12
*1485 fanout13
*1486 fanout14
*1487 fanout15
*1488 fanout16
*1489 fanout17
*1490 fanout18
*1491 fanout19
*1492 fanout20
*1493 fanout21
*1494 fanout22
*1495 fanout23
*1496 fanout24
*1497 fanout25
*1498 fanout26
*1499 fanout27
*1500 fanout7
*1501 fanout8
*1502 fanout9
*1503 hold1
*1504 hold10
*1505 hold11
*1506 hold12
*1507 hold13
*1508 hold14
*1509 hold15
*1510 hold16
*1511 hold17
*1512 hold18
*1513 hold19
*1514 hold2
*1515 hold20
*1516 hold21
*1517 hold22
*1518 hold23
*1519 hold24
*1520 hold25
*1521 hold26
*1522 hold27
*1523 hold28
*1524 hold29
*1525 hold3
*1526 hold30
*1527 hold31
*1528 hold32
*1529 hold33
*1530 hold34
*1531 hold35
*1532 hold36
*1533 hold37
*1534 hold38
*1535 hold39
*1536 hold4
*1537 hold40
*1538 hold41
*1539 hold42
*1540 hold43
*1541 hold44
*1542 hold45
*1543 hold46
*1544 hold47
*1545 hold48
*1546 hold49
*1547 hold5
*1548 hold50
*1549 hold51
*1550 hold52
*1551 hold53
*1552 hold54
*1553 hold55
*1554 hold56
*1555 hold57
*1556 hold58
*1557 hold59
*1558 hold6
*1559 hold60
*1560 hold61
*1561 hold62
*1562 hold63
*1563 hold64
*1564 hold65
*1565 hold66
*1566 hold67
*1567 hold68
*1568 hold69
*1569 hold7
*1570 hold8
*1571 hold9
*1572 input1
*1573 input2
*1574 input3
*1575 output4
*1576 output5
*1577 output6

*PORTS
clk_i I
num_to_send_o[0] O
num_to_send_o[1] O
num_to_send_o[2] O
req_num_i I
rst_i I
wr_i I

*D_NET *3 0.0111054
*CONN
*P clk_i I
*I *1466:A I *D sky130_fd_sc_hd__clkbuf_16
*CAP
1 clk_i 0.00206168
2 *1466:A 0.00161038
3 *3:15 0.00367205
4 *1466:A num_to_send_o[2] 0.000279327
5 *1466:A *1282:A 8.52883e-05
6 *1466:A *1296:A 0.000231325
7 *1466:A *1297:B 0.000205372
8 *1466:A *1370:A0 0.000200615
9 *1466:A *1370:A1 0.000424978
10 *1466:A *1373:A1 0.000239813
11 *1466:A *1381:A1 0.000611593
12 *1466:A *1381:S 0.000147176
13 *1466:A *1441:CLK 8.65905e-05
14 *1466:A *1441:D 4.85494e-05
15 *1466:A *1576:A 5.30673e-05
16 *1466:A *198:10 4.66108e-05
17 *1466:A *229:19 0.000316024
18 *1466:A *229:36 0.000197571
19 *1466:A *245:12 4.99619e-05
20 *1466:A *262:28 0.000225283
21 *1466:A *301:16 0.000312182
22 *3:15 num_to_send_o[0] 0
23 *3:15 num_to_send_o[1] 0
24 *3:15 num_to_send_o[2] 0
*RES
1 clk_i *3:15 35.4064 
2 *3:15 *1466:A 40.03 
*END

*D_NET *4 0.000661059
*CONN
*P num_to_send_o[0] O
*I *1575:X O *D sky130_fd_sc_hd__buf_2
*CAP
1 num_to_send_o[0] 0.000312085
2 *1575:X 0.000312085
3 num_to_send_o[0] num_to_send_o[1] 2.24901e-05
4 num_to_send_o[0] *1437:CLK 1.4399e-05
5 *3:15 num_to_send_o[0] 0
*RES
1 *1575:X num_to_send_o[0] 7.1793 
*END

*D_NET *5 0.000598347
*CONN
*P num_to_send_o[1] O
*I *1576:X O *D sky130_fd_sc_hd__buf_2
*CAP
1 num_to_send_o[1] 0.000263691
2 *1576:X 0.000263691
3 num_to_send_o[1] num_to_send_o[2] 4.8475e-05
4 num_to_send_o[0] num_to_send_o[1] 2.24901e-05
5 *3:15 num_to_send_o[1] 0
*RES
1 *1576:X num_to_send_o[1] 7.1793 
*END

*D_NET *6 0.00077014
*CONN
*P num_to_send_o[2] O
*I *1577:X O *D sky130_fd_sc_hd__buf_2
*CAP
1 num_to_send_o[2] 0.000221169
2 *1577:X 0.000221169
3 num_to_send_o[1] num_to_send_o[2] 4.8475e-05
4 *1466:A num_to_send_o[2] 0.000279327
5 *3:15 num_to_send_o[2] 0
*RES
1 *1577:X num_to_send_o[2] 7.1793 
*END

*D_NET *7 0.000877785
*CONN
*P req_num_i I
*I *1572:A I *D sky130_fd_sc_hd__clkbuf_1
*CAP
1 req_num_i 0.000438892
2 *1572:A 0.000438892
*RES
1 req_num_i *1572:A 11.04 
*END

*D_NET *8 0.000416421
*CONN
*P rst_i I
*I *1573:A I *D sky130_fd_sc_hd__clkbuf_1
*CAP
1 rst_i 0.00020821
2 *1573:A 0.00020821
3 *1573:A *1511:A 0
*RES
1 rst_i *1573:A 5.10177 
*END

*D_NET *9 0.000863063
*CONN
*P wr_i I
*I *1574:A I *D sky130_fd_sc_hd__clkbuf_1
*CAP
1 wr_i 0.000324522
2 *1574:A 0.000324522
3 *1574:A *1429:D 4.05358e-05
4 *1574:A *1442:CLK 0.000173484
*RES
1 wr_i *1574:A 7.14003 
*END

*D_NET *10 0.00160637
*CONN
*I *1465:D I *D sky130_fd_sc_hd__dfrtp_1
*I *1321:X O *D sky130_fd_sc_hd__and2b_1
*CAP
1 *1465:D 0.00033367
2 *1321:X 0.00033367
3 *1465:D *1321:A_N 7.22354e-05
4 *1465:D *1321:B 4.99619e-05
5 *1465:D *1435:RESET_B 0.00010596
6 *1465:D *1465:CLK 8.77898e-05
7 *1465:D *1491:A 7.44453e-05
8 *1465:D *193:102 8.53856e-06
9 *1465:D *197:51 0.000288552
10 *1465:D *198:32 0.000202102
11 *1465:D *281:33 0
12 *1465:D *301:10 4.94404e-05
*RES
1 *1321:X *1465:D 16.0238 
*END

*D_NET *11 0.0019826
*CONN
*I *1323:B I *D sky130_fd_sc_hd__nand2_1
*I *1322:B I *D sky130_fd_sc_hd__or2_1
*I *1412:D I *D sky130_fd_sc_hd__dfrtp_2
*I *1249:Y O *D sky130_fd_sc_hd__inv_2
*CAP
1 *1323:B 0
2 *1322:B 1.02919e-05
3 *1412:D 0.000502934
4 *1249:Y 0
5 *11:29 0.000231835
6 *11:6 0.000724477
7 *1322:B *1322:A 4.82863e-05
8 *1322:B *1324:B 2.16833e-05
9 *1412:D *1412:RESET_B 2.65337e-05
10 *1412:D *288:10 3.45588e-05
11 *11:29 *1322:A 2.28628e-05
12 *11:29 *1324:B 4.66108e-05
13 *11:29 *1351:A 0.00010686
14 *11:29 *1352:A2 7.25721e-05
15 *11:29 *1412:RESET_B 0
16 *11:29 *148:21 1.46828e-05
17 *11:29 *197:93 0
18 *11:29 *288:10 0
19 *11:29 *289:10 3.60648e-05
20 *11:29 *289:21 4.66108e-05
21 *11:29 *289:28 3.57349e-05
22 *11:29 *289:34 0
*RES
1 *1249:Y *11:6 3.6 
2 *11:6 *1412:D 11.55 
3 *11:6 *11:29 6.71 
4 *11:29 *1322:B 2.05 
5 *11:29 *1323:B 1.6 
*END

*D_NET *12 0.000789164
*CONN
*I *1413:D I *D sky130_fd_sc_hd__dfrtp_2
*I *1324:Y O *D sky130_fd_sc_hd__nand2_1
*CAP
1 *1413:D 0.000381235
2 *1324:Y 0.000381235
3 *1413:D *147:29 2.66935e-05
4 *1413:D *197:93 0
*RES
1 *1324:Y *1413:D 12.465 
*END

*D_NET *13 0.000878631
*CONN
*I *1516:A I *D sky130_fd_sc_hd__dlygate4sd3_1
*I *1326:X O *D sky130_fd_sc_hd__mux2_1
*CAP
1 *1516:A 0.000148452
2 *1326:X 0.000148452
3 *1516:A *1245:A 2.98447e-05
4 *1516:A *1326:A1 4.82919e-05
5 *1516:A *1394:A1 0.000123225
6 *1516:A *1478:A 2.75229e-05
7 *1516:A *181:14 2.36616e-05
8 *1516:A *181:18 2.10034e-05
9 *1516:A *201:62 1.92979e-05
10 *1516:A *201:78 0.000128483
11 *1516:A *324:6 8.65961e-05
12 *1516:A *324:19 7.38004e-05
*RES
1 *1326:X *1516:A 11.775 
*END

*D_NET *14 0.0011977
*CONN
*I *1407:D I *D sky130_fd_sc_hd__dfrtp_1
*I *1327:X O *D sky130_fd_sc_hd__mux2_1
*CAP
1 *1407:D 0.000287073
2 *1327:X 0.000287073
3 *1407:D *176:28 0.000116158
4 *1407:D *197:51 0.000389572
5 *1407:D *281:33 0.000117825
*RES
1 *1327:X *1407:D 12.135 
*END

*D_NET *15 0.000779066
*CONN
*I *1521:A I *D sky130_fd_sc_hd__dlygate4sd3_1
*I *1328:X O *D sky130_fd_sc_hd__mux2_1
*CAP
1 *1521:A 0.000256158
2 *1328:X 0.000256158
3 *1521:A *1284:A 3.00381e-05
4 *1521:A *1286:B2 2.36616e-05
5 *1521:A *1492:A 0
6 *1521:A *197:12 0.000119277
7 *1521:A *197:24 9.37731e-05
8 *1521:A *281:23 0
*RES
1 *1328:X *1521:A 11.76 
*END

*D_NET *16 0.000599196
*CONN
*I *1409:D I *D sky130_fd_sc_hd__dfrtp_4
*I *1341:X O *D sky130_fd_sc_hd__o32a_1
*CAP
1 *1409:D 0.000221294
2 *1341:X 0.000221294
3 *1409:D *1341:A2 0.00012657
4 *1409:D *1341:A3 3.00381e-05
5 *1409:D *1459:CLK 0
6 *1409:D *146:78 0
*RES
1 *1341:X *1409:D 10.41 
*END

*D_NET *17 0.000482125
*CONN
*I *1410:D I *D sky130_fd_sc_hd__dfrtp_1
*I *1348:X O *D sky130_fd_sc_hd__o2bb2a_1
*CAP
1 *1410:D 0.000157241
2 *1348:X 0.000157241
3 *1410:D *1347:A3 4.99619e-05
4 *1410:D *1348:A2_N 9.50342e-06
5 *1410:D *1348:B2 3.26822e-05
6 *1410:D *1410:CLK 7.10578e-05
7 *1410:D *146:88 4.43871e-06
*RES
1 *1348:X *1410:D 9.915 
*END

*D_NET *18 0.000607387
*CONN
*I *1411:D I *D sky130_fd_sc_hd__dfrtp_1
*I *1355:X O *D sky130_fd_sc_hd__o2bb2a_1
*CAP
1 *1411:D 0.00028144
2 *1355:X 0.00028144
3 *1411:D *1355:A2_N 9.50342e-06
4 *1411:D *1355:B2 0
5 *1411:D *197:93 3.50033e-05
*RES
1 *1355:X *1411:D 11.7 
*END

*D_NET *19 0.000110911
*CONN
*I *1537:A I *D sky130_fd_sc_hd__dlygate4sd3_1
*I *1356:X O *D sky130_fd_sc_hd__mux2_1
*CAP
1 *1537:A 4.49012e-05
2 *1356:X 4.49012e-05
3 *1537:A *1356:A0 2.11084e-05
*RES
1 *1356:X *1537:A 4.01 
*END

*D_NET *20 0.000296825
*CONN
*I *1415:D I *D sky130_fd_sc_hd__dfrtp_1
*I *1357:X O *D sky130_fd_sc_hd__mux2_1
*CAP
1 *1415:D 9.8911e-05
2 *1357:X 9.8911e-05
3 *1415:D *1357:A1 0
4 *1415:D *1363:A0 2.49755e-05
5 *1415:D *184:88 7.4027e-05
*RES
1 *1357:X *1415:D 8.79375 
*END

*D_NET *21 0.00149642
*CONN
*I *1523:A I *D sky130_fd_sc_hd__dlygate4sd3_1
*I *1358:X O *D sky130_fd_sc_hd__mux2_1
*CAP
1 *1523:A 0.000150409
2 *1358:X 0.000150409
3 *1523:A *1241:A 0.000201407
4 *1523:A *1264:A 1.12578e-05
5 *1523:A *1266:B2 0.000113797
6 *1523:A *1455:CLK 0.000158066
7 *1523:A *187:52 0.000504484
8 *1523:A *192:106 5.16418e-05
9 *1523:A *192:117 2.05583e-05
10 *1523:A *316:38 0.00013439
*RES
1 *1358:X *1523:A 14.19 
*END

*D_NET *22 0.00196996
*CONN
*I *1556:A I *D sky130_fd_sc_hd__dlygate4sd3_1
*I *1359:X O *D sky130_fd_sc_hd__mux2_1
*CAP
1 *1556:A 0.000372973
2 *1359:X 0.000372973
3 *1556:A *1359:A1 0.000128008
4 *1556:A *1452:CLK 4.82919e-05
5 *1556:A *1452:RESET_B 1.95248e-05
6 *1556:A *1511:A 0.000279787
7 *1556:A *201:20 9.53803e-05
8 *1556:A *201:32 6.97118e-05
9 *1556:A *334:8 0.000583307
*RES
1 *1359:X *1556:A 15.05 
*END

*D_NET *23 0.00031683
*CONN
*I *1418:D I *D sky130_fd_sc_hd__dfrtp_1
*I *1360:X O *D sky130_fd_sc_hd__mux2_1
*CAP
1 *1418:D 0.000158415
2 *1360:X 0.000158415
*RES
1 *1360:X *1418:D 5.39 
*END

*D_NET *24 0.0011282
*CONN
*I *1419:D I *D sky130_fd_sc_hd__dfrtp_1
*I *1361:X O *D sky130_fd_sc_hd__mux2_1
*CAP
1 *1419:D 0.000363158
2 *1361:X 0.000363158
3 *1419:D *1361:A1 0.000401879
*RES
1 *1361:X *1419:D 12.825 
*END

*D_NET *25 0.00110105
*CONN
*I *1554:A I *D sky130_fd_sc_hd__dlygate4sd3_1
*I *1362:X O *D sky130_fd_sc_hd__mux2_1
*CAP
1 *1554:A 0.000314991
2 *1362:X 0.000314991
3 *1554:A *1362:S 0.000118081
4 *1554:A *1390:A1 0
5 *1554:A *1420:RESET_B 4.54719e-05
6 *1554:A *186:74 0.000123225
7 *1554:A *186:98 0.000113606
8 *1554:A *202:53 7.06865e-05
*RES
1 *1362:X *1554:A 12.795 
*END

*D_NET *26 0.00100753
*CONN
*I *1542:A I *D sky130_fd_sc_hd__dlygate4sd3_1
*I *1363:X O *D sky130_fd_sc_hd__mux2_1
*CAP
1 *1542:A 0.000305112
2 *1363:X 0.000305112
3 *1542:A *1389:A0 0
4 *1542:A *1390:A1 0.000272551
5 *1542:A *1508:A 0.000124752
*RES
1 *1363:X *1542:A 13.485 
*END

*D_NET *27 0.000710579
*CONN
*I *1422:D I *D sky130_fd_sc_hd__dfrtp_1
*I *1364:X O *D sky130_fd_sc_hd__mux2_1
*CAP
1 *1422:D 0.000131604
2 *1364:X 0.000131604
3 *1422:D *1312:A2_N 0
4 *1422:D *1316:C1 0
5 *1422:D *1482:A 0.000142427
6 *1422:D *1524:A 0.000165698
7 *1422:D *195:56 0.000139245
*RES
1 *1364:X *1422:D 11.355 
*END

*D_NET *28 0.000350711
*CONN
*I *1423:D I *D sky130_fd_sc_hd__dfrtp_1
*I *1365:X O *D sky130_fd_sc_hd__mux2_1
*CAP
1 *1423:D 0.000126957
2 *1365:X 0.000126957
3 *1423:D *1257:B1 0
4 *1423:D *1425:RESET_B 0
5 *1423:D *176:86 8.8266e-05
6 *1423:D *183:16 8.53113e-06
*RES
1 *1365:X *1423:D 9.12 
*END

*D_NET *29 0.00079599
*CONN
*I *1544:A I *D sky130_fd_sc_hd__dlygate4sd3_1
*I *1366:X O *D sky130_fd_sc_hd__mux2_1
*CAP
1 *1544:A 0.000315558
2 *1366:X 0.000315558
3 *1544:A *1389:A1 0.000164874
4 *1544:A *1519:A 0
*RES
1 *1366:X *1544:A 12.105 
*END

*D_NET *30 0.000461992
*CONN
*I *1425:D I *D sky130_fd_sc_hd__dfrtp_1
*I *1367:X O *D sky130_fd_sc_hd__mux2_1
*CAP
1 *1425:D 9.67513e-05
2 *1367:X 9.67513e-05
3 *1425:D *1278:D 9.30717e-05
4 *1425:D *1367:A1 8.23457e-05
5 *1425:D *190:46 9.30717e-05
*RES
1 *1367:X *1425:D 9.12 
*END

*D_NET *31 0.00106128
*CONN
*I *1565:A I *D sky130_fd_sc_hd__dlygate4sd3_1
*I *1368:X O *D sky130_fd_sc_hd__mux2_1
*CAP
1 *1565:A 0.000317333
2 *1368:X 0.000317333
3 *1565:A *1260:A1 0
4 *1565:A *1368:A0 8.40213e-05
5 *1565:A *1564:A 4.41463e-05
6 *1565:A *188:59 0.000298442
7 *1565:A *305:10 0
*RES
1 *1368:X *1565:A 12.795 
*END

*D_NET *32 0.000536632
*CONN
*I *1527:A I *D sky130_fd_sc_hd__dlygate4sd3_1
*I *1369:X O *D sky130_fd_sc_hd__mux2_1
*CAP
1 *1527:A 0.000140299
2 *1369:X 0.000140299
3 *1527:A *1427:D 4.99619e-05
4 *1527:A *188:59 8.65905e-05
5 *1527:A *194:89 0.000119482
*RES
1 *1369:X *1527:A 6.08 
*END

*D_NET *33 0.000443238
*CONN
*I *1428:D I *D sky130_fd_sc_hd__dfrtp_1
*I *1370:X O *D sky130_fd_sc_hd__mux2_1
*CAP
1 *1428:D 0.000119407
2 *1370:X 0.000119407
3 *1428:D *1296:A 8.8266e-05
4 *1428:D *200:12 0.000116158
*RES
1 *1370:X *1428:D 9.375 
*END

*D_NET *34 0.00123241
*CONN
*I *1546:A I *D sky130_fd_sc_hd__dlygate4sd3_1
*I *1371:X O *D sky130_fd_sc_hd__mux2_1
*CAP
1 *1546:A 0.000150251
2 *1371:X 0.000150251
3 *1546:A *1260:C1 4.80285e-05
4 *1546:A *1545:A 0.000135652
5 *1546:A *189:61 0.000617721
6 *1546:A *190:81 4.22429e-05
7 *1546:A *257:6 8.8266e-05
*RES
1 *1371:X *1546:A 9.185 
*END

*D_NET *35 0.000706701
*CONN
*I *1431:D I *D sky130_fd_sc_hd__dfrtp_1
*I *1372:X O *D sky130_fd_sc_hd__mux2_1
*CAP
1 *1431:D 0.000297373
2 *1372:X 0.000297373
3 *1431:D *1431:CLK 3.96032e-05
4 *1431:D *1512:A 7.23533e-05
5 *1431:D *200:64 0
*RES
1 *1372:X *1431:D 10.9838 
*END

*D_NET *36 0.000149825
*CONN
*I *1534:A I *D sky130_fd_sc_hd__dlygate4sd3_1
*I *1373:X O *D sky130_fd_sc_hd__mux2_1
*CAP
1 *1534:A 2.30536e-05
2 *1373:X 2.30536e-05
3 *1534:A *1296:A 5.94962e-05
4 *1534:A *262:28 4.42213e-05
*RES
1 *1373:X *1534:A 4.01 
*END

*D_NET *37 0.000815131
*CONN
*I *1433:D I *D sky130_fd_sc_hd__dfrtp_1
*I *1374:X O *D sky130_fd_sc_hd__mux2_1
*CAP
1 *1433:D 0.000208631
2 *1374:X 0.000208631
3 *1433:D *1433:CLK 4.40725e-05
4 *1433:D *1551:A 0.000116151
5 *1433:D *179:19 2.97004e-06
6 *1433:D *251:29 0.000234674
*RES
1 *1374:X *1433:D 10.755 
*END

*D_NET *38 0.000771579
*CONN
*I *1434:D I *D sky130_fd_sc_hd__dfrtp_1
*I *1375:X O *D sky130_fd_sc_hd__mux2_1
*CAP
1 *1434:D 0.000316773
2 *1375:X 0.000316773
3 *1434:D *1434:RESET_B 0.000122797
4 *1434:D *179:23 1.52352e-05
5 *1434:D *251:31 0
6 *1434:D *251:87 0
*RES
1 *1375:X *1434:D 11.955 
*END

*D_NET *39 0.000816378
*CONN
*I *1540:A I *D sky130_fd_sc_hd__dlygate4sd3_1
*I *1376:X O *D sky130_fd_sc_hd__mux2_1
*CAP
1 *1540:A 0.000213303
2 *1376:X 0.000213303
3 *1540:A *1297:B 0.000116165
4 *1540:A *1376:A0 2.30292e-05
5 *1540:A *262:28 0
6 *1540:A *298:21 0.000197269
7 *1540:A *301:16 5.33085e-05
*RES
1 *1376:X *1540:A 10.755 
*END

*D_NET *40 0.000430244
*CONN
*I *1436:D I *D sky130_fd_sc_hd__dfrtp_1
*I *1377:X O *D sky130_fd_sc_hd__mux2_1
*CAP
1 *1436:D 0.000151837
2 *1377:X 0.000151837
3 *1436:D *1437:CLK 0.00012657
4 *1436:D *179:46 0
5 *1436:D *199:64 0
*RES
1 *1377:X *1436:D 9.465 
*END

*D_NET *41 0.000279364
*CONN
*I *1437:D I *D sky130_fd_sc_hd__dfrtp_1
*I *1378:X O *D sky130_fd_sc_hd__mux2_1
*CAP
1 *1437:D 0.000112168
2 *1378:X 0.000112168
3 *1437:D *1299:C1 2.75145e-05
4 *1437:D *1375:A1 0
5 *1437:D *1377:A0 2.75145e-05
6 *1437:D *1378:A0 0
7 *1437:D *218:19 0
*RES
1 *1378:X *1437:D 9.03 
*END

*D_NET *42 0.00090334
*CONN
*I *1550:A I *D sky130_fd_sc_hd__dlygate4sd3_1
*I *1379:X O *D sky130_fd_sc_hd__mux2_1
*CAP
1 *1550:A 0.000313685
2 *1379:X 0.000313685
3 *1550:A *1379:A0 0.00027597
4 *1550:A *262:42 0
*RES
1 *1379:X *1550:A 12.66 
*END

*D_NET *43 0.000425435
*CONN
*I *1440:D I *D sky130_fd_sc_hd__dfrtp_1
*I *1380:X O *D sky130_fd_sc_hd__mux2_1
*CAP
1 *1440:D 0.000212718
2 *1380:X 0.000212718
*RES
1 *1380:X *1440:D 9.81 
*END

*D_NET *44 0.000412705
*CONN
*I *1441:D I *D sky130_fd_sc_hd__dfrtp_1
*I *1381:X O *D sky130_fd_sc_hd__mux2_1
*CAP
1 *1441:D 0.000156806
2 *1381:X 0.000156806
3 *1441:D *1441:CLK 5.05437e-05
4 *1466:A *1441:D 4.85494e-05
*RES
1 *1381:X *1441:D 5.39 
*END

*D_NET *45 0.000632249
*CONN
*I *1442:D I *D sky130_fd_sc_hd__dfrtp_1
*I *1382:X O *D sky130_fd_sc_hd__mux2_1
*CAP
1 *1442:D 0.000186803
2 *1382:X 0.000186803
3 *1442:D *1279:A 0.000258644
4 *1442:D *1442:CLK 0
*RES
1 *1382:X *1442:D 10.155 
*END

*D_NET *46 0.000634093
*CONN
*I *1443:D I *D sky130_fd_sc_hd__dfrtp_1
*I *1383:X O *D sky130_fd_sc_hd__or2_1
*CAP
1 *1443:D 0.000257231
2 *1383:X 0.000257231
3 *1443:D *1444:CLK 0.000119631
4 *1443:D *179:44 0
*RES
1 *1383:X *1443:D 10.92 
*END

*D_NET *47 0.000513684
*CONN
*I *1444:D I *D sky130_fd_sc_hd__dfrtp_1
*I *1384:X O *D sky130_fd_sc_hd__mux2_1
*CAP
1 *1444:D 0.000215283
2 *1384:X 0.000215283
3 *1444:D *1383:B 8.31173e-05
*RES
1 *1384:X *1444:D 10.155 
*END

*D_NET *48 0.000781076
*CONN
*I *1445:D I *D sky130_fd_sc_hd__dfrtp_1
*I *1385:X O *D sky130_fd_sc_hd__mux2_1
*CAP
1 *1445:D 0.000233266
2 *1385:X 0.000233266
3 *1445:D *1385:A1 0.00027559
4 *1445:D *1445:CLK 3.89528e-05
*RES
1 *1385:X *1445:D 10.845 
*END

*D_NET *49 0.000118089
*CONN
*I *1513:A I *D sky130_fd_sc_hd__dlygate4sd3_1
*I *1386:X O *D sky130_fd_sc_hd__mux2_1
*CAP
1 *1513:A 4.40253e-05
2 *1386:X 4.40253e-05
3 *1513:A *1386:S 3.00381e-05
*RES
1 *1386:X *1513:A 4.01 
*END

*D_NET *50 0.000502255
*CONN
*I *1447:D I *D sky130_fd_sc_hd__dfrtp_1
*I *1387:X O *D sky130_fd_sc_hd__mux2_1
*CAP
1 *1447:D 0.000119607
2 *1387:X 0.000119607
3 *1447:D *1447:CLK 0.000146325
4 *1447:D *1447:RESET_B 0.000116716
*RES
1 *1387:X *1447:D 10.41 
*END

*D_NET *51 0.000843731
*CONN
*I *1448:D I *D sky130_fd_sc_hd__dfrtp_1
*I *1388:X O *D sky130_fd_sc_hd__mux2_1
*CAP
1 *1448:D 0.000408599
2 *1388:X 0.000408599
3 *1448:D *1388:S 0
4 *1448:D *1448:RESET_B 2.65337e-05
*RES
1 *1388:X *1448:D 13.515 
*END

*D_NET *52 0.000707618
*CONN
*I *1509:A I *D sky130_fd_sc_hd__dlygate4sd3_1
*I *1389:X O *D sky130_fd_sc_hd__mux2_1
*CAP
1 *1509:A 0.000308935
2 *1389:X 0.000308935
3 *1509:A *1255:A 0
4 *1509:A *1389:A0 0
5 *1509:A *1449:CLK 0
6 *1509:A *1449:D 8.97486e-05
*RES
1 *1389:X *1509:A 12.45 
*END

*D_NET *53 0.000314304
*CONN
*I *1450:D I *D sky130_fd_sc_hd__dfrtp_1
*I *1390:X O *D sky130_fd_sc_hd__mux2_1
*CAP
1 *1450:D 9.97955e-05
2 *1390:X 9.97955e-05
3 *1450:D *1357:S 0
4 *1450:D *186:74 4.99619e-05
5 *1450:D *194:110 6.47516e-05
*RES
1 *1390:X *1450:D 9.03 
*END

*D_NET *54 0.000637014
*CONN
*I *1504:A I *D sky130_fd_sc_hd__dlygate4sd3_1
*I *1391:X O *D sky130_fd_sc_hd__mux2_1
*CAP
1 *1504:A 0.000104568
2 *1391:X 0.000104568
3 *1504:A *1306:A 0.000160635
4 *1504:A *1391:S 0.000267243
*RES
1 *1391:X *1504:A 6.08 
*END

*D_NET *55 0.00110433
*CONN
*I *1452:D I *D sky130_fd_sc_hd__dfrtp_1
*I *1392:X O *D sky130_fd_sc_hd__mux2_1
*CAP
1 *1452:D 0.000294839
2 *1392:X 0.000294839
3 *1452:D *1359:A1 7.06865e-05
4 *1452:D *1462:D 4.65565e-05
5 *1452:D *182:70 0
6 *1452:D *201:32 9.50342e-06
7 *1452:D *203:22 0.000387902
*RES
1 *1392:X *1452:D 11.88 
*END

*D_NET *56 0.000487901
*CONN
*I *1506:A I *D sky130_fd_sc_hd__dlygate4sd3_1
*I *1393:X O *D sky130_fd_sc_hd__mux2_1
*CAP
1 *1506:A 0.000110618
2 *1393:X 0.000110618
3 *1506:A *1294:C1 2.4997e-05
4 *1506:A *1393:A1 4.05358e-05
5 *1506:A *1472:A 9.02259e-05
6 *1506:A *292:33 6.28765e-05
7 *1506:A *334:8 4.80285e-05
*RES
1 *1393:X *1506:A 10.065 
*END

*D_NET *57 0.000563964
*CONN
*I *1570:A I *D sky130_fd_sc_hd__dlygate4sd3_1
*I *1394:X O *D sky130_fd_sc_hd__mux2_1
*CAP
1 *1570:A 0.00025581
2 *1394:X 0.00025581
3 *1570:A *1454:D 4.82863e-05
4 *1570:A *197:24 4.05674e-06
*RES
1 *1394:X *1570:A 6.335 
*END

*D_NET *58 0.000587606
*CONN
*I *1455:D I *D sky130_fd_sc_hd__dfrtp_1
*I *1395:X O *D sky130_fd_sc_hd__mux2_1
*CAP
1 *1455:D 0.000116605
2 *1395:X 0.000116605
3 *1455:D *1265:B2 0
4 *1455:D *1267:C 8.44437e-05
5 *1455:D *1391:A1 0.000269952
*RES
1 *1395:X *1455:D 10.365 
*END

*D_NET *59 0.000271725
*CONN
*I *1456:D I *D sky130_fd_sc_hd__dfrtp_1
*I *1396:X O *D sky130_fd_sc_hd__mux2_1
*CAP
1 *1456:D 0.000125308
2 *1396:X 0.000125308
3 *1456:D *1395:S 2.11084e-05
4 *1456:D *1456:RESET_B 0
5 *1456:D *315:23 0
*RES
1 *1396:X *1456:D 9.03 
*END

*D_NET *60 0.000832608
*CONN
*I *1530:A I *D sky130_fd_sc_hd__dlygate4sd3_1
*I *1397:X O *D sky130_fd_sc_hd__mux2_1
*CAP
1 *1530:A 0.000335148
2 *1397:X 0.000335148
3 *1530:A *1391:S 0
4 *1530:A *1397:A1 0.000162311
5 *1530:A *1457:CLK 0
6 *1530:A *182:26 0
*RES
1 *1397:X *1530:A 12.105 
*END

*D_NET *61 0.000631441
*CONN
*I *1459:D I *D sky130_fd_sc_hd__dfrtp_4
*I *1398:Y O *D sky130_fd_sc_hd__xnor2_1
*CAP
1 *1459:D 0.000233539
2 *1398:Y 0.000233539
3 *1459:D *1459:CLK 7.60965e-05
4 *1459:D *74:6 8.8266e-05
*RES
1 *1398:Y *1459:D 7.46 
*END

*D_NET *62 0.00147374
*CONN
*I *1460:D I *D sky130_fd_sc_hd__dfrtp_4
*I *1401:Y O *D sky130_fd_sc_hd__nor2_1
*CAP
1 *1460:D 0.000710646
2 *1401:Y 0.000710646
3 *1460:D *1460:CLK 0
4 *1460:D *146:46 2.47313e-05
5 *1460:D *181:37 0
6 *1460:D *197:12 2.77183e-05
7 *1460:D *198:44 0
8 *1460:D *198:50 0
*RES
1 *1401:Y *1460:D 16.605 
*END

*D_NET *63 0.00139932
*CONN
*I *1461:D I *D sky130_fd_sc_hd__dfrtp_2
*I *1402:Y O *D sky130_fd_sc_hd__xnor2_1
*CAP
1 *1461:D 0.000555528
2 *1402:Y 0.000555528
3 *1461:D *1400:A2 0.00016888
4 *1461:D *1461:RESET_B 5.20923e-05
5 *1461:D *146:23 6.72868e-05
*RES
1 *1402:Y *1461:D 11.045 
*END

*D_NET *64 0.00122974
*CONN
*I *1462:D I *D sky130_fd_sc_hd__dfrtp_1
*I *1403:X O *D sky130_fd_sc_hd__mux2_1
*CAP
1 *1462:D 0.000464753
2 *1403:X 0.000464753
3 *1462:D *1359:A1 6.86736e-05
4 *1462:D *1462:CLK 0
5 *1462:D *1463:D 2.67022e-05
6 *1462:D *182:76 0
7 *1462:D *201:32 0.000158297
8 *1462:D *267:12 0
9 *1452:D *1462:D 4.65565e-05
*RES
1 *1403:X *1462:D 15.585 
*END

*D_NET *65 0.000126759
*CONN
*I *1559:A I *D sky130_fd_sc_hd__dlygate4sd3_1
*I *1404:X O *D sky130_fd_sc_hd__mux2_1
*CAP
1 *1559:A 4.96179e-05
2 *1404:X 4.96179e-05
3 *1559:A *1557:A 2.75229e-05
*RES
1 *1404:X *1559:A 4.01 
*END

*D_NET *66 0.000489185
*CONN
*I *1464:D I *D sky130_fd_sc_hd__dfrtp_1
*I *1405:X O *D sky130_fd_sc_hd__mux2_1
*CAP
1 *1464:D 0.000108802
2 *1405:X 0.000108802
3 *1464:D *1243:A 4.99619e-05
4 *1464:D *1361:A1 0
5 *1464:D *1419:CLK 4.18603e-06
6 *1464:D *1472:A 2.96426e-05
7 *1464:D *182:26 5.33874e-05
8 *1464:D *201:44 9.50342e-06
9 *1464:D *334:8 0.0001249
*RES
1 *1405:X *1464:D 9.975 
*END

*D_NET *67 0.00345145
*CONN
*I *1487:A I *D sky130_fd_sc_hd__clkbuf_2
*I *1486:A I *D sky130_fd_sc_hd__buf_2
*I *1239:Y O *D sky130_fd_sc_hd__inv_2
*CAP
1 *1487:A 0.000165758
2 *1486:A 0.000248482
3 *1239:Y 0.000419666
4 *67:14 0.000833907
5 *1486:A *190:46 8.65961e-05
6 *1486:A *195:44 6.52366e-05
7 *1486:A *195:56 0.000207969
8 *1487:A *1244:A 9.93194e-05
9 *1487:A *1276:A1 6.96175e-05
10 *1487:A *1277:C1 6.96175e-05
11 *1487:A *1296:D 4.66108e-05
12 *1487:A *1308:A 4.66108e-05
13 *1487:A *191:10 0.000282747
14 *1487:A *191:32 6.45236e-05
15 *1487:A *291:31 4.15215e-05
16 *67:14 *1418:CLK 0
17 *67:14 *192:81 0.00042877
18 *67:14 *195:56 0.000230429
19 *67:14 *201:78 4.40725e-05
*RES
1 *1239:Y *67:14 13.055 
2 *67:14 *1486:A 5.89 
3 *67:14 *1487:A 11 
*END

*D_NET *68 0.000947241
*CONN
*I *1266:A1 I *D sky130_fd_sc_hd__o221a_1
*I *1240:Y O *D sky130_fd_sc_hd__inv_2
*CAP
1 *1266:A1 0.000108416
2 *1240:Y 0.000108416
3 *1266:A1 *1265:B1 4.82919e-05
4 *1266:A1 *1266:A2 1.85674e-05
5 *1266:A1 *1266:C1 0.000381859
6 *1266:A1 *1267:C 4.77857e-05
7 *1266:A1 *1291:A 8.23457e-05
8 *1266:A1 *1291:C_N 8.65961e-05
9 *1266:A1 *1296:C 2.66586e-05
10 *1266:A1 *1391:A1 3.83041e-05
*RES
1 *1240:Y *1266:A1 7.46 
*END

*D_NET *69 0.00308967
*CONN
*I *1309:B2 I *D sky130_fd_sc_hd__a22o_1
*I *1310:A1 I *D sky130_fd_sc_hd__o221a_1
*I *1485:A I *D sky130_fd_sc_hd__buf_2
*I *1241:Y O *D sky130_fd_sc_hd__inv_2
*CAP
1 *1309:B2 0.00018983
2 *1310:A1 0
3 *1485:A 0.000469126
4 *1241:Y 0
5 *69:29 0.000340093
6 *69:4 0.000619389
7 *1309:B2 *1311:A_N 9.5433e-05
8 *1309:B2 *1311:B 8.34426e-05
9 *1309:B2 *1404:A1 1.43521e-05
10 *1309:B2 *1455:CLK 4.82919e-05
11 *1309:B2 *187:52 2.59981e-05
12 *1309:B2 *192:106 0
13 *1309:B2 *192:117 2.97004e-06
14 *1309:B2 *318:22 0.00010645
15 *1485:A *1360:A1 0.000162311
16 *1485:A *1397:A1 2.05056e-05
17 *1485:A *1404:S 0.000308724
18 *1485:A *182:20 5.79855e-05
19 *1485:A *182:26 6.57653e-06
20 *1485:A *273:31 0.000239699
21 *1485:A *273:38 0.000120655
22 *69:29 *1404:A1 6.292e-05
23 *69:29 *1404:S 0.000114912
24 *69:29 *192:106 0
*RES
1 *1241:Y *69:4 1.6 
2 *69:4 *1485:A 13.79 
3 *69:4 *69:29 5.03 
4 *69:29 *1310:A1 3.6 
5 *69:29 *1309:B2 8.235 
*END

*D_NET *70 0.00797449
*CONN
*I *1287:A1 I *D sky130_fd_sc_hd__a211o_1
*I *1305:A1 I *D sky130_fd_sc_hd__o211a_1
*I *1303:A1_N I *D sky130_fd_sc_hd__o2bb2a_1
*I *1312:A1_N I *D sky130_fd_sc_hd__o2bb2a_1
*I *1316:A1 I *D sky130_fd_sc_hd__o211a_1
*I *1285:B2 I *D sky130_fd_sc_hd__o22ai_1
*I *1242:Y O *D sky130_fd_sc_hd__inv_2
*CAP
1 *1287:A1 0.000134612
2 *1305:A1 1.11992e-05
3 *1303:A1_N 8.30817e-05
4 *1312:A1_N 0.000134715
5 *1316:A1 0
6 *1285:B2 8.22227e-05
7 *1242:Y 0.000431248
8 *70:65 0.000286449
9 *70:39 0.000718995
10 *70:31 0.000999183
11 *70:27 0.000587574
12 *70:10 0.000743698
13 *1285:B2 *1285:A1 1.71013e-05
14 *1285:B2 *1287:A2 8.71001e-05
15 *1285:B2 *1327:A0 4.19797e-05
16 *1287:A1 *1287:A2 0.000174971
17 *1287:A1 *1568:A 4.66108e-05
18 *1303:A1_N *1278:C 1.69467e-05
19 *1303:A1_N *1305:A2 0.000264057
20 *1303:A1_N *1305:B1 4.92935e-05
21 *1303:A1_N *190:58 1.07301e-05
22 *1303:A1_N *304:25 0
23 *1305:A1 *1305:A2 9.53428e-06
24 *1312:A1_N *1312:B1 4.82863e-05
25 *1312:A1_N *1312:B2 3.86607e-05
26 *1312:A1_N *1367:S 0
27 *1312:A1_N *1422:CLK 0.000241056
28 *1312:A1_N *1425:RESET_B 0.000178314
29 *1312:A1_N *1482:A 0.000115897
30 *1312:A1_N *191:32 3.31204e-05
31 *70:10 *1242:A 0.000505744
32 *70:10 *262:10 1.33293e-05
33 *70:27 *1242:A 2.75229e-05
34 *70:27 *1287:A2 0.000278233
35 *70:27 *1318:C 3.49632e-05
36 *70:31 *1318:C 0.000241164
37 *70:31 *105:12 3.97673e-05
38 *70:31 *144:8 0.000245206
39 *70:31 *176:10 0.000165222
40 *70:31 *176:86 0.000156879
41 *70:39 *1317:D 0.000225482
42 *70:39 *1425:RESET_B 0.000113797
43 *70:39 *191:32 6.28843e-05
44 *70:65 *1278:C 6.07575e-06
45 *70:65 *1305:A2 3.64998e-06
46 *70:65 *1370:A0 6.26945e-05
47 *70:65 *1538:A 0.000122337
48 *70:65 *105:12 3.26822e-05
49 *70:65 *176:86 5.02217e-05
*RES
1 *1242:Y *70:10 8.035 
2 *70:10 *1285:B2 7.49 
3 *70:10 *70:27 4.365 
4 *70:27 *70:31 8.99 
5 *70:31 *70:39 11.695 
6 *70:39 *1316:A1 3.6 
7 *70:39 *1312:A1_N 8.29125 
8 *70:31 *70:65 5.645 
9 *70:65 *1303:A1_N 4.25875 
10 *70:65 *1305:A1 1.96 
11 *70:27 *1287:A1 4.6 
*END

*D_NET *71 0.00150592
*CONN
*I *1294:A2 I *D sky130_fd_sc_hd__o221a_1
*I *1293:A2 I *D sky130_fd_sc_hd__a22o_1
*I *1243:Y O *D sky130_fd_sc_hd__inv_2
*CAP
1 *1294:A2 7.70063e-05
2 *1293:A2 0
3 *1243:Y 0.000235252
4 *71:16 0.000312258
5 *1294:A2 *1293:A1 0.000287319
6 *1294:A2 *1294:B1 0.000120436
7 *1294:A2 *1295:C_N 9.27255e-06
8 *1294:A2 *189:18 2.75145e-05
9 *71:16 *1293:A1 1.19928e-05
10 *71:16 *1293:B1 9.72742e-06
11 *71:16 *1294:B1 6.01505e-05
12 *71:16 *1405:A1 0
13 *71:16 *1472:A 8.8266e-05
14 *71:16 *182:26 0.000266726
15 *71:16 *192:87 0
16 *71:16 *244:10 0
*RES
1 *1243:Y *71:16 10.625 
2 *71:16 *1293:A2 1.6 
3 *71:16 *1294:A2 4.9525 
*END

*D_NET *72 0.000673196
*CONN
*I *1277:A2 I *D sky130_fd_sc_hd__o211a_1
*I *1244:Y O *D sky130_fd_sc_hd__inv_2
*CAP
1 *1277:A2 0.000113593
2 *1244:Y 0.000113593
3 *1277:A2 *1244:A 0.000175412
4 *1277:A2 *190:46 0.000156907
5 *1277:A2 *291:31 0.000113691
*RES
1 *1244:Y *1277:A2 10.62 
*END

*D_NET *73 0.0029178
*CONN
*I *1286:C1 I *D sky130_fd_sc_hd__a221o_1
*I *1245:Y O *D sky130_fd_sc_hd__inv_2
*CAP
1 *1286:C1 0.0010278
2 *1245:Y 0.0010278
3 *1286:C1 *1286:B2 0.00010501
4 *1286:C1 *1328:A0 0.000278576
5 *1286:C1 *1328:S 0.000180541
6 *1286:C1 *1406:D 6.27529e-05
7 *1286:C1 *1492:A 3.47754e-05
8 *1286:C1 *1505:A 8.67385e-05
9 *1286:C1 *197:24 0
10 *1286:C1 *295:8 0.000113797
*RES
1 *1245:Y *1286:C1 22.35 
*END

*D_NET *74 0.00111705
*CONN
*I *1337:A1 I *D sky130_fd_sc_hd__a211o_1
*I *1334:A I *D sky130_fd_sc_hd__nor2_1
*I *1398:A I *D sky130_fd_sc_hd__xnor2_1
*I *1246:Y O *D sky130_fd_sc_hd__inv_2
*CAP
1 *1337:A1 7.00478e-05
2 *1334:A 4.59205e-05
3 *1398:A 0
4 *1246:Y 0.00011184
5 *74:15 0.000226366
6 *74:6 0.000222237
7 *1334:A *1334:B 0
8 *1334:A *155:10 2.93678e-05
9 *1337:A1 *1398:B 5.12462e-05
10 *1337:A1 *155:10 7.81954e-05
11 *74:6 *1334:B 4.98756e-05
12 *74:15 *1334:B 0.000143693
13 *1459:D *74:6 8.8266e-05
*RES
1 *1246:Y *74:6 3.775 
2 *74:6 *1398:A 1.6 
3 *74:6 *74:15 2.19 
4 *74:15 *1334:A 2.41 
5 *74:15 *1337:A1 7.235 
*END

*D_NET *75 0.00423738
*CONN
*I *1402:A I *D sky130_fd_sc_hd__xnor2_1
*I *1329:A I *D sky130_fd_sc_hd__nor2_1
*I *1343:A1 I *D sky130_fd_sc_hd__a22o_1
*I *1334:B I *D sky130_fd_sc_hd__nor2_1
*I *1247:Y O *D sky130_fd_sc_hd__inv_2
*CAP
1 *1402:A 9.40092e-05
2 *1329:A 9.49149e-05
3 *1343:A1 0
4 *1334:B 0.000330639
5 *1247:Y 0
6 *75:31 0.000166433
7 *75:10 0.00085039
8 *75:4 0.000542242
9 *1329:A *1342:B 9.29751e-06
10 *1329:A *286:66 7.63204e-05
11 *1334:B *1246:A 0
12 *1334:B *1342:A 1.24708e-05
13 *1334:B *1342:B 1.7396e-05
14 *1334:B *1398:B 0.000139238
15 *1334:B *158:10 8.30853e-06
16 *1402:A *1400:A2 0.000146996
17 *1402:A *287:12 0.00029068
18 *75:10 *1338:B1 0.000497681
19 *75:10 *1347:B1 4.82919e-05
20 *75:10 *147:29 0.000387902
21 *75:10 *152:12 4.82919e-05
22 *75:10 *287:12 5.78262e-05
23 *75:10 *287:20 1.33293e-05
24 *75:31 *1342:B 5.85158e-05
25 *75:31 *1343:B1 7.01359e-05
26 *75:31 *158:10 8.25041e-05
27 *1334:A *1334:B 0
28 *74:6 *1334:B 4.98756e-05
29 *74:15 *1334:B 0.000143693
*RES
1 *1247:Y *75:4 1.6 
2 *75:4 *75:10 11.09 
3 *75:10 *1334:B 9.96 
4 *75:10 *75:31 1.89 
5 *75:31 *1343:A1 3.6 
6 *75:31 *1329:A 5.49 
7 *75:4 *1402:A 4.825 
*END

*D_NET *76 0.00175563
*CONN
*I *1330:B I *D sky130_fd_sc_hd__nor2_1
*I *1339:A2 I *D sky130_fd_sc_hd__a22o_1
*I *1345:A2 I *D sky130_fd_sc_hd__a211o_1
*I *1248:Y O *D sky130_fd_sc_hd__inv_2
*CAP
1 *1330:B 3.83703e-05
2 *1339:A2 6.39978e-05
3 *1345:A2 8.0223e-05
4 *1248:Y 0.000101241
5 *76:10 0.000178274
6 *76:8 0.000173664
7 *1330:B *1332:B 0.000105266
8 *1330:B *1347:A2 9.50342e-06
9 *1330:B *1347:B1 0.000113797
10 *1339:A2 *1339:A1 1.92187e-05
11 *1339:A2 *1339:B1 8.23457e-05
12 *1339:A2 *1339:B2 0.000123983
13 *1339:A2 *1459:CLK 4.90031e-05
14 *1339:A2 *285:33 1.71013e-05
15 *1339:A2 *285:64 1.01152e-05
16 *1345:A2 *1338:B1 8.65905e-05
17 *1345:A2 *1339:B2 1.72991e-05
18 *1345:A2 *1344:A 4.92014e-05
19 *1345:A2 *1347:B1 9.14049e-05
20 *1345:A2 *1459:CLK 3.23391e-05
21 *1345:A2 *285:33 8.8266e-05
22 *76:8 *1339:B1 2.13785e-05
23 *76:8 *1339:B2 3.10449e-05
24 *76:10 *1332:B 7.87176e-05
25 *76:10 *1339:B2 9.76851e-07
26 *76:10 *1347:B1 9.23116e-05
*RES
1 *1248:Y *76:8 4.74 
2 *76:8 *76:10 1.125 
3 *76:10 *1345:A2 6.285 
4 *76:10 *1339:A2 9.55 
5 *76:8 *1330:B 4.98 
*END

*D_NET *77 0.00142424
*CONN
*I *1280:A2 I *D sky130_fd_sc_hd__a22o_1
*I *1281:A2 I *D sky130_fd_sc_hd__o221a_1
*I *1250:Y O *D sky130_fd_sc_hd__inv_2
*CAP
1 *1280:A2 0.000263767
2 *1281:A2 0
3 *1250:Y 0.000251003
4 *77:12 0.000514771
5 *1280:A2 *1281:B1 4.21973e-05
6 *1280:A2 *1281:B2 0.000159225
7 *1280:A2 *229:57 8.38498e-06
8 *1280:A2 *281:66 8.35106e-05
9 *77:12 *1281:B1 3.60648e-06
10 *77:12 *1281:C1 0
11 *77:12 *1380:A1 1.71013e-05
12 *77:12 *1380:S 0
13 *77:12 *229:36 4.47504e-06
14 *77:12 *229:57 0
15 *77:12 *251:45 7.61941e-05
*RES
1 *1250:Y *77:12 9.065 
2 *77:12 *1281:A2 1.6 
3 *77:12 *1280:A2 9.38 
*END

*D_NET *78 0.00117744
*CONN
*I *1299:B1 I *D sky130_fd_sc_hd__o221a_1
*I *1298:B1 I *D sky130_fd_sc_hd__a22o_1
*I *1251:Y O *D sky130_fd_sc_hd__inv_2
*CAP
1 *1299:B1 0.000169932
2 *1298:B1 0.000126645
3 *1251:Y 5.10116e-05
4 *78:8 0.000347589
5 *1298:B1 *1298:A2 7.00889e-06
6 *1298:B1 *1298:B2 4.82863e-05
7 *1298:B1 *1528:A 5.83121e-06
8 *1299:B1 *1251:A 4.27715e-05
9 *1299:B1 *1299:C1 2.38002e-05
10 *1299:B1 *1377:A0 0.0001249
11 *1299:B1 *194:32 0
12 *1299:B1 *194:43 0
13 *1299:B1 *251:41 2.19463e-05
14 *1299:B1 *297:8 0.000114201
15 *78:8 *1251:A 9.35189e-05
16 *78:8 *194:32 0
*RES
1 *1251:Y *78:8 4.725 
2 *78:8 *1298:B1 5.43 
3 *78:8 *1299:B1 7.5 
*END

*D_NET *79 0.000426122
*CONN
*I *1304:A2 I *D sky130_fd_sc_hd__o221a_1
*I *1252:Y O *D sky130_fd_sc_hd__inv_2
*CAP
1 *1304:A2 0.000158036
2 *1252:Y 0.000158036
3 *1304:A2 *180:64 4.40812e-05
4 *1304:A2 *194:74 1.52184e-05
5 *1304:A2 *262:87 5.0751e-05
6 *1304:A2 *281:98 0
*RES
1 *1252:Y *1304:A2 9.72 
*END

*D_NET *80 0.0010548
*CONN
*I *1260:A2 I *D sky130_fd_sc_hd__o221a_1
*I *1253:Y O *D sky130_fd_sc_hd__inv_2
*CAP
1 *1260:A2 0.000388871
2 *1253:Y 0.000388871
3 *1260:A2 *1253:A 5.56995e-05
4 *1260:A2 *1257:B1 4.82863e-05
5 *1260:A2 *1257:B2 1.91597e-05
6 *1260:A2 *1261:B 6.83659e-05
7 *1260:A2 *189:30 1.52623e-05
8 *1260:A2 *189:61 7.02827e-05
*RES
1 *1253:Y *1260:A2 9.305 
*END

*D_NET *81 0.00130958
*CONN
*I *1315:A2 I *D sky130_fd_sc_hd__o221a_1
*I *1254:Y O *D sky130_fd_sc_hd__inv_2
*CAP
1 *1315:A2 0.000390759
2 *1254:Y 0.000390759
3 *1315:A2 *1314:B 4.85494e-05
4 *1315:A2 *1480:A 0.000239813
5 *1315:A2 *183:16 5.16348e-05
6 *1315:A2 *183:51 7.23602e-05
7 *1315:A2 *194:110 8.8266e-05
8 *1315:A2 *309:14 2.7441e-05
*RES
1 *1254:Y *1315:A2 13.17 
*END

*D_NET *82 0.00151466
*CONN
*I *1290:B1 I *D sky130_fd_sc_hd__o221a_1
*I *1289:B1 I *D sky130_fd_sc_hd__a22o_1
*I *1255:Y O *D sky130_fd_sc_hd__inv_2
*CAP
1 *1290:B1 7.21714e-05
2 *1289:B1 0.000127862
3 *1255:Y 0.000133717
4 *82:8 0.000333751
5 *1289:B1 *1290:B2 9.54469e-05
6 *1289:B1 *1362:A0 1.52184e-05
7 *1289:B1 *1473:A 8.97642e-05
8 *1289:B1 *1474:A 4.43871e-06
9 *1289:B1 *186:40 3.23663e-05
10 *1289:B1 *186:59 0
11 *1289:B1 *195:56 4.82863e-05
12 *1290:B1 *1290:B2 6.75777e-05
13 *1290:B1 *1362:A0 8.49205e-05
14 *1290:B1 *1362:S 0.00017742
15 *1290:B1 *202:26 0
16 *82:8 *1362:A0 8.08671e-05
17 *82:8 *1420:D 5.39718e-05
18 *82:8 *1449:CLK 0
19 *82:8 *1473:A 9.68787e-05
*RES
1 *1255:Y *82:8 7.02 
2 *82:8 *1289:B1 6.63 
3 *82:8 *1290:B1 6.045 
*END

*D_NET *83 0.000697753
*CONN
*I *1261:A I *D sky130_fd_sc_hd__and3_1
*I *1256:Y O *D sky130_fd_sc_hd__nand2_1
*CAP
1 *1261:A 0.000231552
2 *1256:Y 0.000231552
3 *1261:A *1256:A 7.23602e-05
4 *1261:A *1261:C 1.70906e-05
5 *1261:A *1368:A1 9.69062e-05
6 *1261:A *176:86 4.82919e-05
*RES
1 *1256:Y *1261:A 10.605 
*END

*D_NET *84 0.000671812
*CONN
*I *1261:B I *D sky130_fd_sc_hd__and3_1
*I *1257:X O *D sky130_fd_sc_hd__o22a_1
*CAP
1 *1261:B 0.000116255
2 *1257:X 0.000116255
3 *1261:B *1260:A1 2.34345e-05
4 *1261:B *1261:C 7.06865e-05
5 *1261:B *1278:A 0.000112123
6 *1261:B *189:61 0.000118081
7 *1261:B *305:16 4.66108e-05
8 *1260:A2 *1261:B 6.83659e-05
*RES
1 *1257:X *1261:B 10.17 
*END

*D_NET *85 0.000369264
*CONN
*I *1260:B1 I *D sky130_fd_sc_hd__o221a_1
*I *1258:X O *D sky130_fd_sc_hd__and2_1
*CAP
1 *1260:B1 6.76246e-05
2 *1258:X 6.76246e-05
3 *1260:B1 *1259:A 4.99619e-05
4 *1260:B1 *1260:B2 0.00011852
5 *1260:B1 *188:42 6.55328e-05
*RES
1 *1258:X *1260:B1 9.03 
*END

*D_NET *86 0.000234664
*CONN
*I *1260:B2 I *D sky130_fd_sc_hd__o221a_1
*I *1259:Y O *D sky130_fd_sc_hd__nor2_1
*CAP
1 *1260:B2 5.59792e-05
2 *1259:Y 5.59792e-05
3 *1260:B2 *1260:A1 4.18603e-06
4 *1260:B2 *1278:A 0
5 *1260:B1 *1260:B2 0.00011852
*RES
1 *1259:Y *1260:B2 8.58 
*END

*D_NET *87 0.000545957
*CONN
*I *1261:C I *D sky130_fd_sc_hd__and3_1
*I *1260:X O *D sky130_fd_sc_hd__o221a_1
*CAP
1 *1261:C 0.000103174
2 *1260:X 0.000103174
3 *1261:C *1260:A1 0.000157602
4 *1261:C *1368:A1 1.70906e-05
5 *1261:C *176:86 2.88519e-05
6 *1261:C *189:61 4.82863e-05
7 *1261:A *1261:C 1.70906e-05
8 *1261:B *1261:C 7.06865e-05
*RES
1 *1260:X *1261:C 9.705 
*END

*D_NET *88 0.000609889
*CONN
*I *1278:A I *D sky130_fd_sc_hd__nor4_1
*I *1261:X O *D sky130_fd_sc_hd__and3_1
*CAP
1 *1278:A 0.00010882
2 *1261:X 0.00010882
3 *1278:A *1260:A1 1.01661e-05
4 *1278:A *176:86 0.000269959
5 *1278:A *188:42 0
6 *1260:B2 *1278:A 0
7 *1261:B *1278:A 0.000112123
*RES
1 *1261:X *1278:A 10.365 
*END

*D_NET *89 0.000141448
*CONN
*I *1267:A I *D sky130_fd_sc_hd__and3_1
*I *1262:Y O *D sky130_fd_sc_hd__nand2_1
*CAP
1 *1267:A 4.55046e-05
2 *1262:Y 4.55046e-05
3 *1267:A *1262:A 2.75229e-05
4 *1267:A *1262:B 2.29156e-05
*RES
1 *1262:Y *1267:A 3.995 
*END

*D_NET *90 0.000555667
*CONN
*I *1266:B1 I *D sky130_fd_sc_hd__o221a_1
*I *1263:X O *D sky130_fd_sc_hd__and2_1
*CAP
1 *1266:B1 0.000100573
2 *1263:X 0.000100573
3 *1266:B1 *1241:A 0.000140905
4 *1266:B1 *1266:B2 0.000116158
5 *1266:B1 *1288:A 1.34361e-05
6 *1266:B1 *191:40 8.40213e-05
*RES
1 *1263:X *1266:B1 9.63 
*END

*D_NET *91 0.000829539
*CONN
*I *1266:B2 I *D sky130_fd_sc_hd__o221a_1
*I *1264:Y O *D sky130_fd_sc_hd__nor2_1
*CAP
1 *1266:B2 0.000131499
2 *1264:Y 0.000131499
3 *1266:B2 *1241:A 3.21271e-05
4 *1266:B2 *1264:B 5.83121e-06
5 *1266:B2 *1288:A 0.000172838
6 *1266:B2 *1455:CLK 1.19928e-05
7 *1266:B2 *192:117 0.000113797
8 *1266:B1 *1266:B2 0.000116158
9 *1523:A *1266:B2 0.000113797
*RES
1 *1264:Y *1266:B2 11.07 
*END

*D_NET *92 0.00029634
*CONN
*I *1267:B I *D sky130_fd_sc_hd__and3_1
*I *1265:X O *D sky130_fd_sc_hd__o22a_1
*CAP
1 *1267:B 8.74512e-05
2 *1265:X 8.74512e-05
3 *1267:B *1262:B 0.000121437
*RES
1 *1265:X *1267:B 4.34 
*END

*D_NET *93 0.00103888
*CONN
*I *1267:C I *D sky130_fd_sc_hd__and3_1
*I *1266:X O *D sky130_fd_sc_hd__o221a_1
*CAP
1 *1267:C 0.000274215
2 *1266:X 0.000274215
3 *1267:C *1262:A 1.95128e-05
4 *1267:C *1265:B1 0.000180919
5 *1267:C *1265:B2 0
6 *1267:C *1291:A 4.66742e-05
7 *1267:C *1291:C_N 5.30673e-05
8 *1267:C *1296:C 4.99619e-05
9 *1267:C *1391:A1 8.08153e-06
10 *1266:A1 *1267:C 4.77857e-05
11 *1455:D *1267:C 8.44437e-05
*RES
1 *1266:X *1267:C 12.885 
*END

*D_NET *94 0.00627698
*CONN
*I *1278:B I *D sky130_fd_sc_hd__nor4_1
*I *1267:X O *D sky130_fd_sc_hd__and3_1
*CAP
1 *1278:B 0.00198743
2 *1267:X 0.00198743
3 *1278:B *1262:A 9.80943e-06
4 *1278:B *1263:A 0.00037762
5 *1278:B *1265:A1 5.8667e-05
6 *1278:B *1265:B1 7.60965e-05
7 *1278:B *1278:D 0.000270409
8 *1278:B *1316:A2 0.000206804
9 *1278:B *1316:B1 7.80546e-05
10 *1278:B *1367:A0 0.000235915
11 *1278:B *1367:S 0.000179776
12 *1278:B *1416:CLK 9.80032e-06
13 *1278:B *1416:D 0.000164874
14 *1278:B *1422:CLK 6.1357e-05
15 *1278:B *1482:A 0.000122325
16 *1278:B *186:8 2.0514e-05
17 *1278:B *190:46 6.32345e-05
18 *1278:B *190:127 0.000171562
19 *1278:B *191:32 0
20 *1278:B *191:40 5.58365e-05
21 *1278:B *316:10 0.000139469
*RES
1 *1267:X *1278:B 36.51 
*END

*D_NET *95 0.000902928
*CONN
*I *1272:B1 I *D sky130_fd_sc_hd__o211a_1
*I *1268:Y O *D sky130_fd_sc_hd__a22oi_1
*CAP
1 *1272:B1 0.000107881
2 *1268:Y 0.000107881
3 *1272:B1 *1271:A2 0.000158297
4 *1272:B1 *1272:A2 0.000382989
5 *1272:B1 *1272:C1 7.89611e-05
6 *1272:B1 *189:77 1.52776e-05
7 *1272:B1 *300:10 5.16418e-05
*RES
1 *1268:Y *1272:B1 11.64 
*END

*D_NET *96 0.000424108
*CONN
*I *1271:B1 I *D sky130_fd_sc_hd__o221a_1
*I *1269:X O *D sky130_fd_sc_hd__and2_1
*CAP
1 *1271:B1 9.07686e-05
2 *1269:X 9.07686e-05
3 *1271:B1 *1270:B 0.000139245
4 *1271:B1 *1300:B 2.66935e-05
5 *1271:B1 *1377:A0 5.16418e-05
6 *1271:B1 *189:77 2.49909e-05
*RES
1 *1269:X *1271:B1 9.285 
*END

*D_NET *97 0.000361266
*CONN
*I *1271:B2 I *D sky130_fd_sc_hd__o221a_1
*I *1270:Y O *D sky130_fd_sc_hd__nor2_1
*CAP
1 *1271:B2 7.3754e-05
2 *1270:Y 7.3754e-05
3 *1271:B2 *1270:B 8.88631e-05
4 *1271:B2 *1377:A0 0.000124895
*RES
1 *1270:Y *1271:B2 5.03 
*END

*D_NET *98 0.000399056
*CONN
*I *1272:C1 I *D sky130_fd_sc_hd__o211a_1
*I *1271:X O *D sky130_fd_sc_hd__o221a_1
*CAP
1 *1272:C1 8.70227e-05
2 *1271:X 8.70227e-05
3 *1272:C1 *1271:A2 2.75229e-05
4 *1272:C1 *189:77 0.000118527
5 *1272:B1 *1272:C1 7.89611e-05
*RES
1 *1271:X *1272:C1 9.285 
*END

*D_NET *99 0.00278522
*CONN
*I *1278:C I *D sky130_fd_sc_hd__nor4_1
*I *1272:X O *D sky130_fd_sc_hd__o211a_1
*CAP
1 *1278:C 0.000989272
2 *1272:X 0.000989272
3 *1278:C *1303:B1 2.39856e-05
4 *1278:C *1303:B2 8.65905e-05
5 *1278:C *1305:A2 4.66108e-05
6 *1278:C *1305:B1 0.000121437
7 *1278:C *1370:A0 0.000111909
8 *1278:C *105:12 3.86607e-05
9 *1278:C *176:86 2.67022e-05
10 *1278:C *190:58 0.000123225
11 *1278:C *190:96 3.64998e-06
12 *1278:C *304:25 0.000200878
13 *1303:A1_N *1278:C 1.69467e-05
14 *70:65 *1278:C 6.07575e-06
*RES
1 *1272:X *1278:C 19.905 
*END

*D_NET *100 0.000324331
*CONN
*I *1277:B1 I *D sky130_fd_sc_hd__o211a_1
*I *1273:X O *D sky130_fd_sc_hd__o2bb2a_1
*CAP
1 *1277:B1 0.000129692
2 *1273:X 0.000129692
3 *1277:B1 *195:44 1.85674e-05
4 *1277:B1 *195:56 1.87448e-05
5 *1277:B1 *291:31 2.76356e-05
*RES
1 *1273:X *1277:B1 4.955 
*END

*D_NET *101 0.000297308
*CONN
*I *1276:B1 I *D sky130_fd_sc_hd__o221a_1
*I *1274:X O *D sky130_fd_sc_hd__and2_1
*CAP
1 *1276:B1 3.73589e-05
2 *1274:X 3.73589e-05
3 *1276:B1 *1276:C1 0.000176532
4 *1276:B1 *176:60 4.60584e-05
*RES
1 *1274:X *1276:B1 4.7 
*END

*D_NET *102 0.000834559
*CONN
*I *1276:B2 I *D sky130_fd_sc_hd__o221a_1
*I *1275:Y O *D sky130_fd_sc_hd__nor2_1
*CAP
1 *1276:B2 0.000318566
2 *1275:Y 0.000318566
3 *1276:B2 *1276:A1 0
4 *1276:B2 *1277:C1 2.66935e-05
5 *1276:B2 *1328:A0 0
6 *1276:B2 *292:33 1.91597e-05
7 *1276:B2 *292:45 0.000151574
*RES
1 *1275:Y *1276:B2 11.445 
*END

*D_NET *103 0.000800946
*CONN
*I *1277:C1 I *D sky130_fd_sc_hd__o211a_1
*I *1276:X O *D sky130_fd_sc_hd__o221a_1
*CAP
1 *1277:C1 0.000230764
2 *1276:X 0.000230764
3 *1277:C1 *1274:A 0
4 *1277:C1 *1276:A1 0.000126561
5 *1277:C1 *1568:A 0
6 *1277:C1 *176:60 8.65905e-05
7 *1277:C1 *190:46 0
8 *1277:C1 *291:31 2.99555e-05
9 *1277:C1 *292:45 0
10 *1276:B2 *1277:C1 2.66935e-05
11 *1487:A *1277:C1 6.96175e-05
*RES
1 *1276:X *1277:C1 11.67 
*END

*D_NET *104 0.0029439
*CONN
*I *1278:D I *D sky130_fd_sc_hd__nor4_1
*I *1277:X O *D sky130_fd_sc_hd__o211a_1
*CAP
1 *1278:D 0.000550402
2 *1277:X 0.000550402
3 *1278:D *1258:B 1.85674e-05
4 *1278:D *1296:B 3.68862e-05
5 *1278:D *1296:C 9.30717e-05
6 *1278:D *1422:CLK 8.23457e-05
7 *1278:D *1494:A 0.000528562
8 *1278:D *190:46 0.000405063
9 *1278:D *190:127 7.56269e-05
10 *1278:D *192:53 0.000239488
11 *1278:B *1278:D 0.000270409
12 *1425:D *1278:D 9.30717e-05
*RES
1 *1277:X *1278:D 22.695 
*END

*D_NET *105 0.00169556
*CONN
*I *1325:B I *D sky130_fd_sc_hd__and4_1
*I *1318:A I *D sky130_fd_sc_hd__and3_1
*I *1278:Y O *D sky130_fd_sc_hd__nor4_1
*CAP
1 *1325:B 0
2 *1318:A 0.00015537
3 *1278:Y 0.000294614
4 *105:12 0.000449984
5 *1318:A *1318:B 6.20952e-05
6 *1318:A *1318:C 3.47668e-05
7 *1318:A *1325:C 3.89742e-05
8 *1318:A *1492:A 7.67634e-05
9 *105:12 *1317:B 0.000120186
10 *105:12 *1317:C 7.4027e-05
11 *105:12 *1325:C 2.05571e-05
12 *105:12 *1370:A0 0.000104662
13 *105:12 *144:8 6.08811e-05
14 *105:12 *176:86 0
15 *105:12 *188:21 0
16 *105:12 *307:10 2.23407e-05
17 *105:12 *307:23 6.9232e-05
18 *1278:C *105:12 3.86607e-05
19 *70:31 *105:12 3.97673e-05
20 *70:65 *105:12 3.26822e-05
*RES
1 *1278:Y *105:12 11.145 
2 *105:12 *1318:A 6.765 
3 *105:12 *1325:B 3.6 
*END

*D_NET *106 0.00209926
*CONN
*I *1282:A I *D sky130_fd_sc_hd__or3b_1
*I *1279:X O *D sky130_fd_sc_hd__xor2_1
*CAP
1 *1282:A 0.00057529
2 *1279:X 0.00057529
3 *1282:A *1282:C_N 9.50342e-06
4 *1282:A *1381:A0 6.38806e-05
5 *1282:A *1381:S 0
6 *1282:A *1438:D 2.49909e-05
7 *1282:A *193:55 0.000186201
8 *1282:A *240:23 7.35729e-05
9 *1282:A *240:27 0.000195248
10 *1282:A *262:36 0.000309998
11 *1466:A *1282:A 8.52883e-05
*RES
1 *1279:X *1282:A 19.665 
*END

*D_NET *107 0.000129407
*CONN
*I *1282:B I *D sky130_fd_sc_hd__or3b_1
*I *1280:X O *D sky130_fd_sc_hd__a22o_1
*CAP
1 *1282:B 4.53772e-05
2 *1280:X 4.53772e-05
3 *1282:B *1282:C_N 3.86529e-05
*RES
1 *1280:X *1282:B 8.07 
*END

*D_NET *108 0.00067922
*CONN
*I *1282:C_N I *D sky130_fd_sc_hd__or3b_1
*I *1281:X O *D sky130_fd_sc_hd__o221a_1
*CAP
1 *1282:C_N 0.000241077
2 *1281:X 0.000241077
3 *1282:C_N *1281:B2 8.59023e-05
4 *1282:C_N *1381:S 0
5 *1282:C_N *189:77 6.30072e-05
6 *1282:A *1282:C_N 9.50342e-06
7 *1282:B *1282:C_N 3.86529e-05
*RES
1 *1281:X *1282:C_N 10.665 
*END

*D_NET *109 0.00537837
*CONN
*I *1296:A I *D sky130_fd_sc_hd__and4_1
*I *1282:X O *D sky130_fd_sc_hd__or3b_1
*CAP
1 *1296:A 0.00135808
2 *1282:X 0.00135808
3 *1296:A *1297:B 0.000350486
4 *1296:A *1300:C 0.000238919
5 *1296:A *1317:C 0.000232105
6 *1296:A *1370:A0 0.000216185
7 *1296:A *1370:A1 0.000417001
8 *1296:A *1432:D 8.8266e-05
9 *1296:A *1483:A 0.000126172
10 *1296:A *1494:A 0.000176284
11 *1296:A *176:10 9.71067e-05
12 *1296:A *176:86 9.78012e-05
13 *1296:A *262:14 4.66742e-05
14 *1296:A *262:28 0.000196124
15 *1428:D *1296:A 8.8266e-05
16 *1466:A *1296:A 0.000231325
17 *1534:A *1296:A 5.94962e-05
*RES
1 *1282:X *1296:A 34.185 
*END

*D_NET *110 0.00132379
*CONN
*I *1286:B1 I *D sky130_fd_sc_hd__a221o_1
*I *1283:X O *D sky130_fd_sc_hd__or2_1
*CAP
1 *1286:B1 0.000213854
2 *1283:X 0.000213854
3 *1286:B1 *1283:A 0.000138799
4 *1286:B1 *1285:A1 8.14746e-05
5 *1286:B1 *1286:A1 0
6 *1286:B1 *1286:B2 2.48591e-05
7 *1286:B1 *1327:A0 8.40213e-05
8 *1286:B1 *1327:A1 0.000244219
9 *1286:B1 *1328:S 5.79217e-05
10 *1286:B1 *197:51 0.000180766
11 *1286:B1 *262:119 8.40213e-05
*RES
1 *1283:X *1286:B1 9.98 
*END

*D_NET *111 0.00156538
*CONN
*I *1286:B2 I *D sky130_fd_sc_hd__a221o_1
*I *1284:Y O *D sky130_fd_sc_hd__nand2_1
*CAP
1 *1286:B2 0.000364097
2 *1284:Y 0.000364097
3 *1286:B2 *1284:A 5.05437e-05
4 *1286:B2 *1285:A1 2.48591e-05
5 *1286:B2 *1328:A0 0.000138808
6 *1286:B2 *1492:A 0.000305694
7 *1286:B2 *293:10 4.82863e-05
8 *1286:B2 *295:8 0.000115464
9 *1286:B1 *1286:B2 2.48591e-05
10 *1286:C1 *1286:B2 0.00010501
11 *1521:A *1286:B2 2.36616e-05
*RES
1 *1284:Y *1286:B2 15.36 
*END

*D_NET *112 0.00143614
*CONN
*I *1287:B1 I *D sky130_fd_sc_hd__a211o_1
*I *1285:Y O *D sky130_fd_sc_hd__o22ai_1
*CAP
1 *1287:B1 0.00028154
2 *1285:Y 0.00028154
3 *1287:B1 *1287:C1 0.000139252
4 *1287:B1 *1558:A 7.65428e-05
5 *1287:B1 *1568:A 9.54469e-05
6 *1287:B1 *192:53 2.42236e-05
7 *1287:B1 *195:14 0.000188892
8 *1287:B1 *195:44 0.000348699
*RES
1 *1285:Y *1287:B1 13.6875 
*END

*D_NET *113 0.00126732
*CONN
*I *1287:C1 I *D sky130_fd_sc_hd__a211o_1
*I *1286:X O *D sky130_fd_sc_hd__a221o_1
*CAP
1 *1287:C1 0.000265312
2 *1286:X 0.000265312
3 *1287:C1 *1274:A 8.53113e-06
4 *1287:C1 *1520:A 0.000233786
5 *1287:C1 *1568:A 7.16166e-05
6 *1287:C1 *176:10 0.000283514
7 *1287:B1 *1287:C1 0.000139252
*RES
1 *1286:X *1287:C1 12.795 
*END

*D_NET *114 0.000667614
*CONN
*I *1296:B I *D sky130_fd_sc_hd__and4_1
*I *1287:X O *D sky130_fd_sc_hd__a211o_1
*CAP
1 *1296:B 0.000181053
2 *1287:X 0.000181053
3 *1296:B *1287:A2 4.66742e-05
4 *1296:B *1494:A 4.9968e-05
5 *1296:B *1568:A 8.22234e-06
6 *1296:B *192:53 7.06865e-05
7 *1296:B *204:27 9.30717e-05
8 *1278:D *1296:B 3.68862e-05
*RES
1 *1287:X *1296:B 10.32 
*END

*D_NET *115 0.00219744
*CONN
*I *1291:A I *D sky130_fd_sc_hd__or3b_1
*I *1288:X O *D sky130_fd_sc_hd__xor2_1
*CAP
1 *1291:A 0.000317044
2 *1288:X 0.000317044
3 *1291:A *1288:A 0.000243067
4 *1291:A *1356:A1 0.000460265
5 *1291:A *184:8 0.000198945
6 *1291:A *187:88 0.000179008
7 *1291:A *311:18 0.000353049
8 *1266:A1 *1291:A 8.23457e-05
9 *1267:C *1291:A 4.66742e-05
*RES
1 *1288:X *1291:A 17.49 
*END

*D_NET *116 0.00230496
*CONN
*I *1291:B I *D sky130_fd_sc_hd__or3b_1
*I *1289:X O *D sky130_fd_sc_hd__a22o_1
*CAP
1 *1291:B 0.000642267
2 *1289:X 0.000642267
3 *1291:B *1290:A1 1.47256e-05
4 *1291:B *1481:A 0.000228393
5 *1291:B *187:88 0.000246872
6 *1291:B *187:101 8.83451e-05
7 *1291:B *314:6 6.31208e-05
8 *1291:B *314:14 0.000378968
*RES
1 *1289:X *1291:B 20.025 
*END

*D_NET *117 0.00304346
*CONN
*I *1291:C_N I *D sky130_fd_sc_hd__or3b_1
*I *1290:X O *D sky130_fd_sc_hd__o221a_1
*CAP
1 *1291:C_N 0.000741038
2 *1290:X 0.000741038
3 *1291:C_N *1265:B1 2.97004e-06
4 *1291:C_N *202:26 0.000842413
5 *1291:C_N *314:14 0.000406764
6 *1291:C_N *332:16 0.000169574
7 *1266:A1 *1291:C_N 8.65961e-05
8 *1267:C *1291:C_N 5.30673e-05
*RES
1 *1290:X *1291:C_N 21.15 
*END

*D_NET *118 0.00526622
*CONN
*I *1296:C I *D sky130_fd_sc_hd__and4_1
*I *1291:X O *D sky130_fd_sc_hd__or3b_1
*CAP
1 *1296:C 0.00125744
2 *1291:X 0.00125744
3 *1296:C *1241:A 0.000271006
4 *1296:C *1266:A2 2.88598e-05
5 *1296:C *1266:C1 1.23238e-05
6 *1296:C *1317:C 0.000611856
7 *1296:C *1391:S 0.000133408
8 *1296:C *1455:CLK 0.000202102
9 *1296:C *1457:D 8.65961e-05
10 *1296:C *1483:A 0.001068
11 *1296:C *1494:A 5.13155e-05
12 *1296:C *184:10 0.000116165
13 *1266:A1 *1296:C 2.66586e-05
14 *1267:C *1296:C 4.99619e-05
15 *1278:D *1296:C 9.30717e-05
*RES
1 *1291:X *1296:C 39.895 
*END

*D_NET *119 0.000300086
*CONN
*I *1295:A I *D sky130_fd_sc_hd__or3b_1
*I *1292:X O *D sky130_fd_sc_hd__xor2_1
*CAP
1 *1295:A 7.10099e-05
2 *1292:X 7.10099e-05
3 *1295:A *192:81 0.000158066
*RES
1 *1292:X *1295:A 4.685 
*END

*D_NET *120 0.000238002
*CONN
*I *1295:B I *D sky130_fd_sc_hd__or3b_1
*I *1293:X O *D sky130_fd_sc_hd__a22o_1
*CAP
1 *1295:B 2.91205e-05
2 *1293:X 2.91205e-05
3 *1295:B *1294:C1 9.47454e-05
4 *1295:B *1295:C_N 7.23533e-05
5 *1295:B *182:26 1.26626e-05
*RES
1 *1293:X *1295:B 8.325 
*END

*D_NET *121 0.0011077
*CONN
*I *1295:C_N I *D sky130_fd_sc_hd__or3b_1
*I *1294:X O *D sky130_fd_sc_hd__o221a_1
*CAP
1 *1295:C_N 0.000325781
2 *1294:X 0.000325781
3 *1295:C_N *1294:B1 9.39078e-05
4 *1295:C_N *1294:C1 3.50033e-05
5 *1295:C_N *182:26 0.000136877
6 *1295:C_N *189:18 0.000108724
7 *1294:A2 *1295:C_N 9.27255e-06
8 *1295:B *1295:C_N 7.23533e-05
*RES
1 *1294:X *1295:C_N 12.39 
*END

*D_NET *122 0.00332154
*CONN
*I *1296:D I *D sky130_fd_sc_hd__and4_1
*I *1295:X O *D sky130_fd_sc_hd__or3b_1
*CAP
1 *1296:D 0.000852567
2 *1295:X 0.000852567
3 *1296:D *1239:A 0.000141526
4 *1296:D *1294:C1 0
5 *1296:D *1308:A 0.000605172
6 *1296:D *1360:A0 3.86607e-05
7 *1296:D *1418:CLK 0
8 *1296:D *1483:A 3.09164e-05
9 *1296:D *1502:A 0.00015896
10 *1296:D *187:8 1.95461e-05
11 *1296:D *189:12 0
12 *1296:D *192:81 2.66586e-05
13 *1296:D *195:56 0.000416694
14 *1296:D *273:14 0.000115253
15 *1296:D *281:154 1.64078e-05
16 *1487:A *1296:D 4.66108e-05
*RES
1 *1295:X *1296:D 25.005 
*END

*D_NET *123 0.00146482
*CONN
*I *1325:C I *D sky130_fd_sc_hd__and4_1
*I *1318:B I *D sky130_fd_sc_hd__and3_1
*I *1296:X O *D sky130_fd_sc_hd__and4_1
*CAP
1 *1325:C 6.87498e-05
2 *1318:B 4.40774e-05
3 *1296:X 0.000133668
4 *123:8 0.000246496
5 *1318:B *1318:C 0.00011379
6 *1325:C *1318:C 7.06865e-05
7 *1325:C *144:8 1.03592e-05
8 *123:8 *1308:A 0.000386608
9 *123:8 *192:53 3.83194e-05
10 *123:8 *204:35 0.000230435
11 *1318:A *1318:B 6.20952e-05
12 *1318:A *1325:C 3.89742e-05
13 *105:12 *1325:C 2.05571e-05
*RES
1 *1296:X *123:8 7.5 
2 *123:8 *1318:B 4.98 
3 *123:8 *1325:C 5.28 
*END

*D_NET *124 0.00088477
*CONN
*I *1300:C I *D sky130_fd_sc_hd__and3b_1
*I *1297:Y O *D sky130_fd_sc_hd__xnor2_1
*CAP
1 *1300:C 0.000221521
2 *1297:Y 0.000221521
3 *1300:C *1300:B 9.37731e-05
4 *1300:C *189:77 1.74977e-05
5 *1300:C *193:74 3.31282e-05
6 *1300:C *281:49 1.93834e-05
7 *1300:C *301:16 3.90266e-05
8 *1296:A *1300:C 0.000238919
*RES
1 *1297:Y *1300:C 11.265 
*END

*D_NET *125 0.000399791
*CONN
*I *1300:A_N I *D sky130_fd_sc_hd__and3b_1
*I *1298:X O *D sky130_fd_sc_hd__a22o_1
*CAP
1 *1300:A_N 8.00849e-05
2 *1298:X 8.00849e-05
3 *1300:A_N *176:34 6.47594e-05
4 *1300:A_N *189:77 8.8266e-05
5 *1300:A_N *193:74 0
6 *1300:A_N *281:49 8.65961e-05
*RES
1 *1298:X *1300:A_N 9.375 
*END

*D_NET *126 0.00133878
*CONN
*I *1300:B I *D sky130_fd_sc_hd__and3b_1
*I *1299:X O *D sky130_fd_sc_hd__o221a_1
*CAP
1 *1300:B 0.000318184
2 *1299:X 0.000318184
3 *1300:B *1270:A 7.26551e-05
4 *1300:B *1270:B 0
5 *1300:B *1377:A0 0.000198939
6 *1300:B *189:77 8.34985e-05
7 *1300:B *193:74 0.000226848
8 *1271:B1 *1300:B 2.66935e-05
9 *1300:C *1300:B 9.37731e-05
*RES
1 *1299:X *1300:B 13.665 
*END

*D_NET *127 0.00312216
*CONN
*I *1317:A I *D sky130_fd_sc_hd__nor4_1
*I *1300:X O *D sky130_fd_sc_hd__and3b_1
*CAP
1 *1317:A 0.00127745
2 *1300:X 0.00127745
3 *1317:A *1428:RESET_B 7.17635e-05
4 *1317:A *1432:CLK 0.000130958
5 *1317:A *180:20 2.59981e-05
6 *1317:A *189:77 5.83121e-06
7 *1317:A *200:12 1.67513e-05
8 *1317:A *200:26 0.000197388
9 *1317:A *262:87 8.14615e-05
10 *1317:A *281:49 4.00541e-06
11 *1317:A *307:10 3.31103e-05
*RES
1 *1300:X *1317:A 25.245 
*END

*D_NET *128 0.000276336
*CONN
*I *1304:B1 I *D sky130_fd_sc_hd__o221a_1
*I *1301:X O *D sky130_fd_sc_hd__and2_1
*CAP
1 *1304:B1 4.31774e-05
2 *1301:X 4.31774e-05
3 *1304:B1 *1304:C1 3.54536e-05
4 *1304:B1 *194:74 0.000124895
5 *1304:B1 *199:30 2.96334e-05
6 *1304:B1 *281:98 0
*RES
1 *1301:X *1304:B1 4.7 
*END

*D_NET *129 0.000452399
*CONN
*I *1304:B2 I *D sky130_fd_sc_hd__o221a_1
*I *1302:Y O *D sky130_fd_sc_hd__nor2_1
*CAP
1 *1304:B2 0.000126113
2 *1302:Y 0.000126113
3 *1304:B2 *1372:A0 8.40213e-05
4 *1304:B2 *180:64 0
5 *1304:B2 *194:74 0.000116151
*RES
1 *1302:Y *1304:B2 9.375 
*END

*D_NET *130 0.000335055
*CONN
*I *1305:B1 I *D sky130_fd_sc_hd__o211a_1
*I *1303:X O *D sky130_fd_sc_hd__o2bb2a_1
*CAP
1 *1305:B1 5.52744e-05
2 *1303:X 5.52744e-05
3 *1305:B1 *1305:A2 5.37755e-05
4 *1278:C *1305:B1 0.000121437
5 *1303:A1_N *1305:B1 4.92935e-05
*RES
1 *1303:X *1305:B1 4.955 
*END

*D_NET *131 0.00223978
*CONN
*I *1305:C1 I *D sky130_fd_sc_hd__o211a_1
*I *1304:X O *D sky130_fd_sc_hd__o221a_1
*CAP
1 *1305:C1 0.000582527
2 *1304:X 0.000582527
3 *1305:C1 *1260:C1 0.000281639
4 *1305:C1 *1426:D 4.66108e-05
5 *1305:C1 *180:10 0
6 *1305:C1 *188:42 0.000128901
7 *1305:C1 *188:59 0.000180193
8 *1305:C1 *190:58 8.41015e-06
9 *1305:C1 *190:81 0
10 *1305:C1 *192:29 0.00020444
11 *1305:C1 *281:107 0.000224532
*RES
1 *1304:X *1305:C1 20.805 
*END

*D_NET *132 0.000280387
*CONN
*I *1317:B I *D sky130_fd_sc_hd__nor4_1
*I *1305:X O *D sky130_fd_sc_hd__o211a_1
*CAP
1 *1317:B 3.08746e-05
2 *1305:X 3.08746e-05
3 *1317:B *1370:A0 2.60908e-05
4 *1317:B *307:10 7.23602e-05
5 *105:12 *1317:B 0.000120186
*RES
1 *1305:X *1317:B 8.58 
*END

*D_NET *133 0.00276466
*CONN
*I *1311:C I *D sky130_fd_sc_hd__and3b_1
*I *1306:X O *D sky130_fd_sc_hd__or2_1
*CAP
1 *1311:C 0.000808497
2 *1306:X 0.000808497
3 *1311:C *1306:A 2.15025e-05
4 *1311:C *1391:A0 0.000353831
5 *1311:C *1391:S 0.000483796
6 *1311:C *1392:A1 0.000127897
7 *1311:C *1451:D 0.000160635
*RES
1 *1306:X *1311:C 16.88 
*END

*D_NET *134 0.00213901
*CONN
*I *1310:B1 I *D sky130_fd_sc_hd__o221a_1
*I *1307:Y O *D sky130_fd_sc_hd__nor2_1
*CAP
1 *1310:B1 0.000548361
2 *1307:Y 0.000548361
3 *1310:B1 *1265:B2 0.00024846
4 *1310:B1 *1404:A1 0.000183811
5 *1310:B1 *1451:CLK 1.86688e-05
6 *1310:B1 *1557:A 0
7 *1310:B1 *182:8 8.87196e-05
8 *1310:B1 *182:68 4.06899e-05
9 *1310:B1 *192:106 0
10 *1310:B1 *321:14 0.000461935
*RES
1 *1307:Y *1310:B1 18.555 
*END

*D_NET *135 0.000377819
*CONN
*I *1310:B2 I *D sky130_fd_sc_hd__o221a_1
*I *1308:X O *D sky130_fd_sc_hd__and2_1
*CAP
1 *1310:B2 0.000179722
2 *1308:X 0.000179722
3 *1310:B2 *1310:A2 1.83756e-05
*RES
1 *1308:X *1310:B2 5.735 
*END

*D_NET *136 0.000952985
*CONN
*I *1311:A_N I *D sky130_fd_sc_hd__and3b_1
*I *1309:X O *D sky130_fd_sc_hd__a22o_1
*CAP
1 *1311:A_N 0.000254963
2 *1309:X 0.000254963
3 *1311:A_N *1311:B 3.09164e-05
4 *1311:A_N *1455:CLK 1.46744e-05
5 *1311:A_N *187:52 0.000122331
6 *1311:A_N *192:106 2.16389e-05
7 *1311:A_N *318:20 0.000158066
8 *1309:B2 *1311:A_N 9.5433e-05
*RES
1 *1309:X *1311:A_N 11.19 
*END

*D_NET *137 0.000580903
*CONN
*I *1311:B I *D sky130_fd_sc_hd__and3b_1
*I *1310:X O *D sky130_fd_sc_hd__o221a_1
*CAP
1 *1311:B 0.000159723
2 *1310:X 0.000159723
3 *1311:B *1391:S 4.65607e-05
4 *1311:B *192:106 0.000100536
5 *1309:B2 *1311:B 8.34426e-05
6 *1311:A_N *1311:B 3.09164e-05
*RES
1 *1310:X *1311:B 10.485 
*END

*D_NET *138 0.00446536
*CONN
*I *1317:C I *D sky130_fd_sc_hd__nor4_1
*I *1311:X O *D sky130_fd_sc_hd__and3b_1
*CAP
1 *1317:C 0.00171777
2 *1311:X 0.00171777
3 *1317:C *1391:S 6.27529e-05
4 *1317:C *1483:A 1.0418e-05
5 *1317:C *144:8 3.86607e-05
6 *1296:A *1317:C 0.000232105
7 *1296:C *1317:C 0.000611856
8 *105:12 *1317:C 7.4027e-05
*RES
1 *1311:X *1317:C 29.565 
*END

*D_NET *139 0.00119322
*CONN
*I *1316:B1 I *D sky130_fd_sc_hd__o211a_1
*I *1312:X O *D sky130_fd_sc_hd__o2bb2a_1
*CAP
1 *1316:B1 0.000285762
2 *1312:X 0.000285762
3 *1316:B1 *1312:B2 6.28498e-05
4 *1316:B1 *1316:A2 3.80787e-05
5 *1316:B1 *1367:A0 0.000193806
6 *1316:B1 *1367:S 0
7 *1316:B1 *1422:CLK 0.000197264
8 *1316:B1 *191:32 5.16418e-05
9 *1278:B *1316:B1 7.80546e-05
*RES
1 *1312:X *1316:B1 12.6112 
*END

*D_NET *140 0.00165087
*CONN
*I *1315:B1 I *D sky130_fd_sc_hd__o221a_1
*I *1313:Y O *D sky130_fd_sc_hd__nor2_1
*CAP
1 *1315:B1 0.000413954
2 *1313:Y 0.000413954
3 *1315:B1 *1314:B 0
4 *1315:B1 *1315:A1 3.00381e-05
5 *1315:B1 *1315:B2 8.4011e-05
6 *1315:B1 *1315:C1 0.000230869
7 *1315:B1 *183:16 2.50049e-05
8 *1315:B1 *183:51 1.07797e-05
9 *1315:B1 *194:89 0.000162476
10 *1315:B1 *194:102 0.000279787
*RES
1 *1313:Y *1315:B1 14.55 
*END

*D_NET *141 0.000358115
*CONN
*I *1315:B2 I *D sky130_fd_sc_hd__o221a_1
*I *1314:X O *D sky130_fd_sc_hd__and2_1
*CAP
1 *1315:B2 8.58729e-05
2 *1314:X 8.58729e-05
3 *1315:B2 *1315:A1 1.74557e-05
4 *1315:B2 *183:8 1.08758e-05
5 *1315:B2 *183:16 9.50342e-06
6 *1315:B2 *183:51 6.45236e-05
7 *1315:B1 *1315:B2 8.4011e-05
*RES
1 *1314:X *1315:B2 9.24 
*END

*D_NET *142 0.00189988
*CONN
*I *1316:C1 I *D sky130_fd_sc_hd__o211a_1
*I *1315:X O *D sky130_fd_sc_hd__o221a_1
*CAP
1 *1316:C1 0.000565445
2 *1315:X 0.000565445
3 *1316:C1 *1254:A 0
4 *1316:C1 *1312:A2_N 6.26489e-05
5 *1316:C1 *1312:B1 8.07785e-05
6 *1316:C1 *1425:RESET_B 5.93674e-05
7 *1316:C1 *183:8 2.56077e-05
8 *1316:C1 *183:16 0
9 *1316:C1 *189:30 0.000378961
10 *1316:C1 *195:56 0
11 *1316:C1 *202:69 8.60914e-05
12 *1316:C1 *308:12 0
13 *1316:C1 *310:21 7.55313e-05
14 *1422:D *1316:C1 0
*RES
1 *1315:X *1316:C1 18.825 
*END

*D_NET *143 0.00116924
*CONN
*I *1317:D I *D sky130_fd_sc_hd__nor4_1
*I *1316:X O *D sky130_fd_sc_hd__o211a_1
*CAP
1 *1317:D 0.000402256
2 *1316:X 0.000402256
3 *1317:D *190:46 0
4 *1317:D *191:32 0.000139245
5 *70:39 *1317:D 0.000225482
*RES
1 *1316:X *1317:D 14.82 
*END

*D_NET *144 0.00138165
*CONN
*I *1325:D I *D sky130_fd_sc_hd__and4_1
*I *1318:C I *D sky130_fd_sc_hd__and3_1
*I *1317:Y O *D sky130_fd_sc_hd__nor4_1
*CAP
1 *1325:D 3.69588e-05
2 *1318:C 0.000115209
3 *1317:Y 8.65063e-05
4 *144:8 0.000238674
5 *1318:C *176:10 7.21296e-06
6 *1325:D *1484:A 4.66108e-05
7 *1317:C *144:8 3.86607e-05
8 *1318:A *1318:C 3.47668e-05
9 *1318:B *1318:C 0.00011379
10 *1325:C *1318:C 7.06865e-05
11 *1325:C *144:8 1.03592e-05
12 *70:27 *1318:C 3.49632e-05
13 *70:31 *1318:C 0.000241164
14 *70:31 *144:8 0.000245206
15 *105:12 *144:8 6.08811e-05
*RES
1 *1317:Y *144:8 6.51 
2 *144:8 *1318:C 7.095 
3 *144:8 *1325:D 4.05 
*END

*D_NET *145 0.00257939
*CONN
*I *1320:A_N I *D sky130_fd_sc_hd__and2b_1
*I *1318:X O *D sky130_fd_sc_hd__and3_1
*CAP
1 *1320:A_N 0.000782121
2 *1318:X 0.000782121
3 *1320:A_N *1274:A 0
4 *1320:A_N *1326:A0 0
5 *1320:A_N *1328:A0 0
6 *1320:A_N *1406:RESET_B 0.000119862
7 *1320:A_N *1454:D 0
8 *1320:A_N *1454:RESET_B 0.000237687
9 *1320:A_N *1492:A 0
10 *1320:A_N *146:12 3.09164e-05
11 *1320:A_N *176:10 0.000238475
12 *1320:A_N *181:37 0
13 *1320:A_N *281:139 0.000388207
*RES
1 *1318:X *1320:A_N 23.31 
*END

*D_NET *146 0.0109979
*CONN
*I *1399:C I *D sky130_fd_sc_hd__and3_1
*I *1347:C1 I *D sky130_fd_sc_hd__o311a_1
*I *1348:B1 I *D sky130_fd_sc_hd__o2bb2a_1
*I *1354:B1 I *D sky130_fd_sc_hd__o31a_1
*I *1355:B1 I *D sky130_fd_sc_hd__o2bb2a_1
*I *1398:B I *D sky130_fd_sc_hd__xnor2_1
*I *1340:A I *D sky130_fd_sc_hd__nand2_1
*I *1341:B1 I *D sky130_fd_sc_hd__o32a_1
*I *1400:A2 I *D sky130_fd_sc_hd__a21oi_1
*I *1320:B I *D sky130_fd_sc_hd__and2b_1
*I *1319:X O *D sky130_fd_sc_hd__or2_2
*CAP
1 *1399:C 0
2 *1347:C1 2.9682e-05
3 *1348:B1 0
4 *1354:B1 0
5 *1355:B1 0.000101472
6 *1398:B 0.000536489
7 *1340:A 0
8 *1341:B1 4.83686e-05
9 *1400:A2 0.000275618
10 *1320:B 0
11 *1319:X 0.000159063
12 *146:127 0.000376163
13 *146:94 0.000951183
14 *146:88 0.000526449
15 *146:78 0.00105831
16 *146:56 9.88937e-05
17 *146:52 0.00084189
18 *146:46 0.000358724
19 *146:23 0.00114438
20 *146:12 0.000818292
21 *1341:B1 *1341:A3 4.92062e-05
22 *1341:B1 *1341:B2 0.000142574
23 *1347:C1 *1347:A3 1.37328e-05
24 *1355:B1 *1347:A3 4.76128e-05
25 *1355:B1 *1353:B 1.75875e-05
26 *1355:B1 *1354:A1 1.47256e-05
27 *1355:B1 *1354:A3 4.82863e-05
28 *1355:B1 *1355:A1_N 4.99619e-05
29 *1355:B1 *1355:B2 8.65905e-05
30 *1398:B *1342:A 6.27894e-05
31 *1398:B *1351:A 1.08758e-05
32 *1398:B *1353:A 0.000271334
33 *1398:B *155:10 0.000101444
34 *1398:B *155:19 1.26548e-05
35 *1398:B *287:26 0.000185053
36 *1400:A2 *1401:B 4.43871e-06
37 *1400:A2 *1402:B 8.8266e-05
38 *1400:A2 *198:44 6.68849e-05
39 *1400:A2 *198:50 8.53113e-06
40 *1400:A2 *287:12 0.000103375
41 *1400:A2 *287:20 1.37328e-05
42 *146:12 *1319:B 0
43 *146:12 *1460:CLK 0
44 *146:12 *181:37 0
45 *146:23 *1319:B 5.36384e-06
46 *146:23 *1461:RESET_B 3.21052e-05
47 *146:46 *1401:A 4.99619e-05
48 *146:46 *1401:B 7.18738e-05
49 *146:46 *198:44 0.000160651
50 *146:52 *1340:B 0
51 *146:52 *1399:B 1.7386e-05
52 *146:52 *198:44 0
53 *146:56 *1341:B2 6.6564e-05
54 *146:78 *1408:D 0
55 *146:78 *1409:CLK 1.83847e-05
56 *146:78 *1459:CLK 4.58166e-05
57 *146:78 *198:44 0
58 *146:88 *1347:A1 8.65961e-05
59 *146:88 *1347:A3 0.000362039
60 *146:88 *1348:A1_N 0.000100308
61 *146:88 *1348:A2_N 2.54779e-05
62 *146:88 *1348:B2 8.65905e-05
63 *146:88 *1459:CLK 1.83847e-05
64 *146:94 *1347:A3 0.000160561
65 *146:94 *1353:A 4.54719e-05
66 *146:127 *1347:A3 5.26865e-05
67 *146:127 *1353:A 1.19928e-05
68 *146:127 *1353:B 8.44077e-05
69 *146:127 *1354:A1 7.01303e-05
70 *146:127 *1354:A3 6.67588e-05
71 *1320:A_N *146:12 3.09164e-05
72 *1334:B *1398:B 0.000139238
73 *1337:A1 *1398:B 5.12462e-05
74 *1402:A *1400:A2 0.000146996
75 *1409:D *146:78 0
76 *1410:D *146:88 4.43871e-06
77 *1460:D *146:46 2.47313e-05
78 *1461:D *1400:A2 0.00016888
79 *1461:D *146:23 6.72868e-05
*RES
1 *1319:X *146:12 8.195 
2 *146:12 *1320:B 1.6 
3 *146:12 *146:23 9.71 
4 *146:23 *1400:A2 10.23 
5 *146:23 *146:46 6.29 
6 *146:46 *146:52 4.205 
7 *146:52 *146:56 3.14 
8 *146:56 *1341:B1 3.46 
9 *146:56 *1340:A 1.6 
10 *146:52 *146:78 10.19 
11 *146:78 *146:88 10.945 
12 *146:88 *146:94 5.135 
13 *146:94 *1398:B 17.845 
14 *146:94 *146:127 9.84 
15 *146:127 *1355:B1 4.135 
16 *146:127 *1354:B1 1.6 
17 *146:88 *1348:B1 1.6 
18 *146:78 *1347:C1 2.215 
19 *146:46 *1399:C 1.6 
*END

*D_NET *147 0.00524708
*CONN
*I *1338:B1 I *D sky130_fd_sc_hd__a21o_1
*I *1345:B1 I *D sky130_fd_sc_hd__a211o_1
*I *1324:A I *D sky130_fd_sc_hd__nand2_1
*I *1322:X O *D sky130_fd_sc_hd__or2_1
*CAP
1 *1338:B1 0.000172495
2 *1345:B1 1.88809e-05
3 *1324:A 0.000130781
4 *1322:X 0
5 *147:29 0.0011038
6 *147:4 0.00104321
7 *1324:A *1324:B 0.000105806
8 *1338:B1 *1338:A1 0.000130057
9 *1338:B1 *285:33 0.00018866
10 *1338:B1 *285:35 4.35348e-05
11 *1338:B1 *285:64 1.02348e-05
12 *1338:B1 *287:16 5.16418e-05
13 *1338:B1 *287:20 4.85494e-05
14 *1345:B1 *1331:A 0
15 *1345:B1 *1331:B 0
16 *1345:B1 *1345:A1 5.4155e-06
17 *147:29 *1324:B 4.82863e-05
18 *147:29 *1331:A 2.75145e-05
19 *147:29 *1331:B 4.93177e-05
20 *147:29 *1337:B1 0.00060874
21 *147:29 *1342:A 0.000121643
22 *147:29 *1351:A 3.0807e-05
23 *147:29 *1413:RESET_B 2.56899e-05
24 *147:29 *158:10 8.52883e-05
25 *147:29 *285:35 9.66106e-05
26 *147:29 *287:24 1.12578e-05
27 *147:29 *287:26 8.99895e-05
28 *1345:A2 *1338:B1 8.65905e-05
29 *1413:D *147:29 2.66935e-05
30 *75:10 *1338:B1 0.000497681
31 *75:10 *147:29 0.000387902
*RES
1 *1322:X *147:4 1.6 
2 *147:4 *1324:A 3.715 
3 *147:4 *147:29 19.6 
4 *147:29 *1345:B1 1.96 
5 *147:29 *1338:B1 12.335 
*END

*D_NET *148 0.00354176
*CONN
*I *1332:A I *D sky130_fd_sc_hd__or3_1
*I *1342:A I *D sky130_fd_sc_hd__or2_1
*I *1324:B I *D sky130_fd_sc_hd__nand2_1
*I *1323:Y O *D sky130_fd_sc_hd__nand2_1
*CAP
1 *1332:A 0.000108863
2 *1342:A 0.000107632
3 *1324:B 0.000153447
4 *1323:Y 0
5 *148:21 0.000718111
6 *148:4 0.000655063
7 *1324:B *1322:A 3.23663e-05
8 *1332:A *1339:B1 0.000243721
9 *1332:A *1348:A2_N 9.80943e-06
10 *1332:A *152:20 0.000244725
11 *1332:A *286:58 1.16578e-05
12 *1342:A *1343:B2 9.21008e-05
13 *1342:A *158:10 1.08129e-05
14 *1342:A *287:26 0.000124473
15 *148:21 *1336:B1 5.61333e-05
16 *148:21 *1349:B1 1.52352e-05
17 *148:21 *1350:D 2.86975e-05
18 *148:21 *1352:A2 0.000198051
19 *148:21 *152:20 0.000147396
20 *148:21 *152:28 8.51879e-05
21 *148:21 *289:34 6.43067e-05
22 *1322:B *1324:B 2.16833e-05
23 *1324:A *1324:B 0.000105806
24 *1334:B *1342:A 1.24708e-05
25 *1398:B *1342:A 6.27894e-05
26 *11:29 *1324:B 4.66108e-05
27 *11:29 *148:21 1.46828e-05
28 *147:29 *1324:B 4.82863e-05
29 *147:29 *1342:A 0.000121643
*RES
1 *1323:Y *148:4 1.6 
2 *148:4 *1324:B 4.735 
3 *148:4 *148:21 8.175 
4 *148:21 *1342:A 8.63 
5 *148:21 *1332:A 4.93 
*END

*D_NET *149 0.00127117
*CONN
*I *1484:A I *D sky130_fd_sc_hd__clkbuf_2
*I *1325:X O *D sky130_fd_sc_hd__and4_1
*CAP
1 *1484:A 0.000182372
2 *1325:X 0.000182372
3 *1484:A *1308:A 0.000459366
4 *1484:A *188:21 0.000275553
5 *1484:A *193:102 0.0001249
6 *1325:D *1484:A 4.66108e-05
*RES
1 *1325:X *1484:A 8.48 
*END

*D_NET *150 0.00362116
*CONN
*I *1333:A2 I *D sky130_fd_sc_hd__a21oi_1
*I *1347:A1 I *D sky130_fd_sc_hd__o311a_1
*I *1342:B I *D sky130_fd_sc_hd__or2_1
*I *1350:C I *D sky130_fd_sc_hd__or4_1
*I *1329:Y O *D sky130_fd_sc_hd__nor2_1
*CAP
1 *1333:A2 0
2 *1347:A1 0.000223631
3 *1342:B 0.000203916
4 *1350:C 0.000561487
5 *1329:Y 0
6 *150:38 0.000330465
7 *150:21 0.000356954
8 *150:4 0.000607691
9 *1342:B *1345:C1 0
10 *1342:B *152:12 0.00013521
11 *1342:B *286:58 6.28765e-05
12 *1342:B *286:66 0.00011686
13 *1347:A1 *1345:C1 2.56866e-05
14 *1347:A1 *1347:A2 0
15 *1347:A1 *1347:A3 3.77818e-05
16 *1347:A1 *1348:A1_N 4.60584e-05
17 *1347:A1 *1348:A2_N 0.000163985
18 *1350:C *1335:A2 0.000196056
19 *1350:C *1336:B1 0
20 *1350:C *1341:A2 2.70401e-05
21 *1350:C *152:28 0
22 *1350:C *155:23 7.20899e-05
23 *1350:C *288:41 0.000117832
24 *150:21 *1341:A2 1.17309e-05
25 *150:21 *286:58 4.66108e-05
26 *150:38 *1341:A2 2.04748e-05
27 *150:38 *151:8 0
28 *150:38 *286:58 8.49205e-05
29 *1329:A *1342:B 9.29751e-06
30 *1334:B *1342:B 1.7396e-05
31 *75:31 *1342:B 5.85158e-05
32 *146:88 *1347:A1 8.65961e-05
*RES
1 *1329:Y *150:4 1.6 
2 *150:4 *1350:C 12.965 
3 *150:4 *150:21 0.795 
4 *150:21 *1342:B 9.98 
5 *150:21 *150:38 1.845 
6 *150:38 *1347:A1 10.28 
7 *150:38 *1333:A2 1.6 
*END

*D_NET *151 0.00173988
*CONN
*I *1344:B I *D sky130_fd_sc_hd__nor2_1
*I *1347:A2 I *D sky130_fd_sc_hd__o311a_1
*I *1332:B I *D sky130_fd_sc_hd__or3_1
*I *1330:Y O *D sky130_fd_sc_hd__nor2_1
*CAP
1 *1344:B 0
2 *1347:A2 8.63439e-05
3 *1332:B 0.00037798
4 *1330:Y 4.40974e-05
5 *151:10 0.000464324
6 *151:8 4.40974e-05
7 *1332:B *1339:B2 3.72899e-05
8 *1332:B *1344:A 8.03811e-05
9 *1332:B *1345:C1 1.32824e-05
10 *1332:B *152:12 2.06083e-05
11 *1332:B *286:46 0.00013637
12 *1347:A2 *1345:C1 2.06083e-05
13 *1347:A2 *1347:B1 8.07785e-05
14 *151:8 *1333:A1 9.60785e-05
15 *151:8 *1341:A1 4.41506e-05
16 *1330:B *1332:B 0.000105266
17 *1330:B *1347:A2 9.50342e-06
18 *1347:A1 *1347:A2 0
19 *76:10 *1332:B 7.87176e-05
20 *150:38 *151:8 0
*RES
1 *1330:Y *151:8 2.755 
2 *151:8 *151:10 2 
3 *151:10 *1332:B 7.86413 
4 *151:10 *1347:A2 5.49 
5 *151:8 *1344:B 1.6 
*END

*D_NET *152 0.00328985
*CONN
*I *1332:C I *D sky130_fd_sc_hd__or3_1
*I *1349:A1 I *D sky130_fd_sc_hd__o21a_1
*I *1354:A1 I *D sky130_fd_sc_hd__o31a_1
*I *1335:A1 I *D sky130_fd_sc_hd__o21ai_1
*I *1336:A1 I *D sky130_fd_sc_hd__o211a_1
*I *1331:Y O *D sky130_fd_sc_hd__nor2_1
*CAP
1 *1332:C 0
2 *1349:A1 0
3 *1354:A1 0.000240989
4 *1335:A1 4.50598e-05
5 *1336:A1 0
6 *1331:Y 0.000128695
7 *152:39 0.000425484
8 *152:28 0.0002566
9 *152:20 0.000248096
10 *152:12 0.000259627
11 *1335:A1 *1336:B1 3.60024e-06
12 *1335:A1 *288:41 1.70935e-05
13 *1354:A1 *1347:A3 0.000119279
14 *1354:A1 *1355:B2 0
15 *1354:A1 *166:12 7.63204e-05
16 *152:20 *1343:A2 9.13936e-06
17 *152:20 *1343:B2 4.77719e-05
18 *152:20 *1348:A2_N 2.47003e-05
19 *152:20 *1349:B1 7.00889e-06
20 *152:20 *286:58 9.53428e-06
21 *152:20 *286:66 2.7529e-05
22 *152:20 *286:68 0.000138845
23 *152:28 *1336:B1 6.89789e-05
24 *152:28 *1349:B1 4.66826e-05
25 *152:28 *1353:B 2.14717e-05
26 *152:28 *155:10 2.97802e-05
27 *152:28 *155:19 0.000123359
28 *152:28 *288:41 0
29 *152:39 *1335:A2 2.72392e-05
30 *152:39 *1336:A2 9.13949e-06
31 *152:39 *1336:C1 9.3792e-05
32 *152:39 *155:23 1.77595e-05
33 *1332:A *152:20 0.000244725
34 *1332:B *152:12 2.06083e-05
35 *1342:B *152:12 0.00013521
36 *1350:C *152:28 0
37 *1355:B1 *1354:A1 1.47256e-05
38 *75:10 *152:12 4.82919e-05
39 *146:127 *1354:A1 7.01303e-05
40 *148:21 *152:20 0.000147396
41 *148:21 *152:28 8.51879e-05
*RES
1 *1331:Y *152:12 7.685 
2 *152:12 *152:20 4.47 
3 *152:20 *152:28 6.94 
4 *152:28 *1336:A1 1.6 
5 *152:28 *152:39 4.445 
6 *152:39 *1335:A1 4.215 
7 *152:39 *1354:A1 7.755 
8 *152:20 *1349:A1 1.6 
9 *152:12 *1332:C 1.6 
*END

*D_NET *153 0.000392916
*CONN
*I *1333:B1 I *D sky130_fd_sc_hd__a21oi_1
*I *1332:X O *D sky130_fd_sc_hd__or3_1
*CAP
1 *1333:B1 0.000100595
2 *1332:X 0.000100595
3 *1333:B1 *1344:A 4.94404e-05
4 *1333:B1 *1345:C1 9.30787e-05
5 *1333:B1 *286:58 4.92062e-05
*RES
1 *1332:X *1333:B1 9.12 
*END

*D_NET *154 0.00101735
*CONN
*I *1341:A1 I *D sky130_fd_sc_hd__o32a_1
*I *1333:Y O *D sky130_fd_sc_hd__a21oi_1
*CAP
1 *1341:A1 0.000162053
2 *1333:Y 0.000162053
3 *1341:A1 *1333:A1 6.47129e-05
4 *1341:A1 *1341:A2 0.000457154
5 *1341:A1 *1341:B2 4.00541e-06
6 *1341:A1 *285:83 0.000123225
7 *151:8 *1341:A1 4.41506e-05
*RES
1 *1333:Y *1341:A1 8.165 
*END

*D_NET *155 0.00264215
*CONN
*I *1353:B I *D sky130_fd_sc_hd__nor2_1
*I *1336:A2 I *D sky130_fd_sc_hd__o211a_1
*I *1335:A2 I *D sky130_fd_sc_hd__o21ai_1
*I *1349:A2 I *D sky130_fd_sc_hd__o21a_1
*I *1334:Y O *D sky130_fd_sc_hd__nor2_1
*CAP
1 *1353:B 0.000167278
2 *1336:A2 9.8137e-06
3 *1335:A2 6.07661e-05
4 *1349:A2 0
5 *1334:Y 0.000311454
6 *155:23 0.000102492
7 *155:19 0.000244402
8 *155:10 0.000356666
9 *1335:A2 *1336:C1 0.000101035
10 *1335:A2 *1352:A1 0
11 *1335:A2 *1352:B1 0
12 *1336:A2 *1336:C1 5.6793e-06
13 *1353:B *1347:A3 4.40028e-05
14 *1353:B *1353:A 0.000292102
15 *1353:B *1354:A3 1.14169e-05
16 *155:10 *288:10 0
17 *155:10 *288:30 0
18 *155:10 *288:41 0
19 *155:19 *1353:A 0.000114492
20 *1334:A *155:10 2.93678e-05
21 *1337:A1 *155:10 7.81954e-05
22 *1350:C *1335:A2 0.000196056
23 *1350:C *155:23 7.20899e-05
24 *1355:B1 *1353:B 1.75875e-05
25 *1398:B *155:10 0.000101444
26 *1398:B *155:19 1.26548e-05
27 *146:127 *1353:B 8.44077e-05
28 *152:28 *1353:B 2.14717e-05
29 *152:28 *155:10 2.97802e-05
30 *152:28 *155:19 0.000123359
31 *152:39 *1335:A2 2.72392e-05
32 *152:39 *1336:A2 9.13949e-06
33 *152:39 *155:23 1.77595e-05
*RES
1 *1334:Y *155:10 8.835 
2 *155:10 *1349:A2 3.6 
3 *155:10 *155:19 1.635 
4 *155:19 *155:23 2.795 
5 *155:23 *1335:A2 3.79 
6 *155:23 *1336:A2 1.96 
7 *155:19 *1353:B 7.845 
*END

*D_NET *156 0.00041039
*CONN
*I *1352:A1 I *D sky130_fd_sc_hd__a32o_1
*I *1335:Y O *D sky130_fd_sc_hd__o21ai_1
*CAP
1 *1352:A1 0.000159796
2 *1335:Y 0.000159796
3 *1352:A1 *1346:B 2.92e-05
4 *1352:A1 *1352:B2 2.75145e-05
5 *1352:A1 *288:45 3.40841e-05
6 *1335:A2 *1352:A1 0
*RES
1 *1335:Y *1352:A1 5.39 
*END

*D_NET *157 0.00217251
*CONN
*I *1341:A2 I *D sky130_fd_sc_hd__o32a_1
*I *1336:X O *D sky130_fd_sc_hd__o211a_1
*CAP
1 *1341:A2 0.000694524
2 *1336:X 0.000694524
3 *1341:A2 *1333:A1 7.55531e-06
4 *1341:A2 *1345:C1 8.49205e-05
5 *1341:A2 *286:58 4.80182e-05
6 *1341:A1 *1341:A2 0.000457154
7 *1350:C *1341:A2 2.70401e-05
8 *1409:D *1341:A2 0.00012657
9 *150:21 *1341:A2 1.17309e-05
10 *150:38 *1341:A2 2.04748e-05
*RES
1 *1336:X *1341:A2 13.775 
*END

*D_NET *158 0.00211253
*CONN
*I *1343:B1 I *D sky130_fd_sc_hd__a22o_1
*I *1339:B1 I *D sky130_fd_sc_hd__a22o_1
*I *1337:X O *D sky130_fd_sc_hd__a211o_1
*CAP
1 *1343:B1 2.54539e-05
2 *1339:B1 0.000432754
3 *1337:X 7.8218e-05
4 *158:10 0.000536426
5 *1339:B1 *1339:A1 9.85506e-06
6 *1339:B1 *1339:B2 7.75832e-05
7 *1339:B1 *286:58 0.000215289
8 *1343:B1 *1343:B2 6.10324e-05
9 *158:10 *1343:B2 7.14241e-05
10 *1332:A *1339:B1 0.000243721
11 *1334:B *158:10 8.30853e-06
12 *1339:A2 *1339:B1 8.23457e-05
13 *1342:A *158:10 1.08129e-05
14 *75:31 *1343:B1 7.01359e-05
15 *75:31 *158:10 8.25041e-05
16 *76:8 *1339:B1 2.13785e-05
17 *147:29 *158:10 8.52883e-05
*RES
1 *1337:X *158:10 5.52 
2 *158:10 *1339:B1 11.76 
3 *158:10 *1343:B1 4.47 
*END

*D_NET *159 0.00097638
*CONN
*I *1339:B2 I *D sky130_fd_sc_hd__a22o_1
*I *1338:X O *D sky130_fd_sc_hd__a21o_1
*CAP
1 *1339:B2 0.00029453
2 *1338:X 0.00029453
3 *1339:B2 *1344:A 7.16199e-05
4 *1339:B2 *285:27 2.75229e-05
5 *1332:B *1339:B2 3.72899e-05
6 *1339:A2 *1339:B2 0.000123983
7 *1339:B1 *1339:B2 7.75832e-05
8 *1345:A2 *1339:B2 1.72991e-05
9 *76:8 *1339:B2 3.10449e-05
10 *76:10 *1339:B2 9.76851e-07
*RES
1 *1338:X *1339:B2 11.955 
*END

*D_NET *160 0.000831595
*CONN
*I *1340:B I *D sky130_fd_sc_hd__nand2_1
*I *1339:X O *D sky130_fd_sc_hd__a22o_1
*CAP
1 *1340:B 0.000351947
2 *1339:X 0.000351947
3 *1340:B *1338:A1 2.75229e-05
4 *1340:B *1399:A 5.83121e-06
5 *1340:B *285:27 9.43463e-05
6 *1340:B *285:83 0
7 *146:52 *1340:B 0
*RES
1 *1339:X *1340:B 11.445 
*END

*D_NET *161 0.000275279
*CONN
*I *1341:A3 I *D sky130_fd_sc_hd__o32a_1
*I *1340:Y O *D sky130_fd_sc_hd__nand2_1
*CAP
1 *1341:A3 8.18345e-05
2 *1340:Y 8.18345e-05
3 *1341:A3 *1341:B2 3.23663e-05
4 *1341:B1 *1341:A3 4.92062e-05
5 *1409:D *1341:A3 3.00381e-05
*RES
1 *1340:Y *1341:A3 5.03 
*END

*D_NET *162 0.000454319
*CONN
*I *1343:B2 I *D sky130_fd_sc_hd__a22o_1
*I *1342:X O *D sky130_fd_sc_hd__or2_1
*CAP
1 *1343:B2 6.71092e-05
2 *1342:X 6.71092e-05
3 *1343:B2 *286:68 4.77719e-05
4 *1342:A *1343:B2 9.21008e-05
5 *1343:B1 *1343:B2 6.10324e-05
6 *152:20 *1343:B2 4.77719e-05
7 *158:10 *1343:B2 7.14241e-05
*RES
1 *1342:X *1343:B2 9.285 
*END

*D_NET *163 0.000980292
*CONN
*I *1348:A2_N I *D sky130_fd_sc_hd__o2bb2a_1
*I *1343:X O *D sky130_fd_sc_hd__a22o_1
*CAP
1 *1348:A2_N 0.000255139
2 *1343:X 0.000255139
3 *1348:A2_N *1345:C1 3.99039e-05
4 *1348:A2_N *1347:B1 0
5 *1348:A2_N *1348:B2 5.21046e-05
6 *1348:A2_N *286:58 0.00014453
7 *1332:A *1348:A2_N 9.80943e-06
8 *1347:A1 *1348:A2_N 0.000163985
9 *1410:D *1348:A2_N 9.50342e-06
10 *146:88 *1348:A2_N 2.54779e-05
11 *152:20 *1348:A2_N 2.47003e-05
*RES
1 *1343:X *1348:A2_N 12.525 
*END

*D_NET *164 0.00120307
*CONN
*I *1345:C1 I *D sky130_fd_sc_hd__a211o_1
*I *1344:Y O *D sky130_fd_sc_hd__nor2_1
*CAP
1 *1345:C1 0.000412007
2 *1344:Y 0.000412007
3 *1345:C1 *1344:A 9.11909e-05
4 *1345:C1 *286:46 1.03833e-05
5 *1345:C1 *286:58 0
6 *1332:B *1345:C1 1.32824e-05
7 *1333:B1 *1345:C1 9.30787e-05
8 *1341:A2 *1345:C1 8.49205e-05
9 *1342:B *1345:C1 0
10 *1347:A1 *1345:C1 2.56866e-05
11 *1347:A2 *1345:C1 2.06083e-05
12 *1348:A2_N *1345:C1 3.99039e-05
*RES
1 *1344:Y *1345:C1 14.19 
*END

*D_NET *165 0.00135173
*CONN
*I *1347:B1 I *D sky130_fd_sc_hd__o311a_1
*I *1345:X O *D sky130_fd_sc_hd__a211o_1
*CAP
1 *1347:B1 0.000234503
2 *1345:X 0.000234503
3 *1347:B1 *1459:CLK 0.000456138
4 *1347:B1 *178:14 0
5 *1330:B *1347:B1 0.000113797
6 *1345:A2 *1347:B1 9.14049e-05
7 *1347:A2 *1347:B1 8.07785e-05
8 *1348:A2_N *1347:B1 0
9 *75:10 *1347:B1 4.82919e-05
10 *76:10 *1347:B1 9.23116e-05
*RES
1 *1345:X *1347:B1 13.365 
*END

*D_NET *166 0.0035546
*CONN
*I *1347:A3 I *D sky130_fd_sc_hd__o311a_1
*I *1354:A2 I *D sky130_fd_sc_hd__o31a_1
*I *1346:Y O *D sky130_fd_sc_hd__nand2_1
*CAP
1 *1347:A3 0.000516424
2 *1354:A2 0
3 *1346:Y 0.000388936
4 *166:12 0.00090536
5 *1347:A3 *1348:A1_N 0.000176028
6 *1347:A3 *1353:A 0.000123589
7 *1347:A3 *1354:A3 9.47972e-06
8 *166:12 *1336:C1 5.83121e-06
9 *166:12 *1346:A 0.000387891
10 *166:12 *1355:B2 2.7881e-05
11 *166:12 *197:93 0
12 *166:12 *288:43 2.75145e-05
13 *166:12 *288:45 2.16917e-05
14 *1347:A1 *1347:A3 3.77818e-05
15 *1347:C1 *1347:A3 1.37328e-05
16 *1353:B *1347:A3 4.40028e-05
17 *1354:A1 *1347:A3 0.000119279
18 *1354:A1 *166:12 7.63204e-05
19 *1355:B1 *1347:A3 4.76128e-05
20 *1410:D *1347:A3 4.99619e-05
21 *146:88 *1347:A3 0.000362039
22 *146:94 *1347:A3 0.000160561
23 *146:127 *1347:A3 5.26865e-05
*RES
1 *1346:Y *166:12 11.48 
2 *166:12 *1354:A2 1.6 
3 *166:12 *1347:A3 13.12 
*END

*D_NET *167 0.000377622
*CONN
*I *1348:A1_N I *D sky130_fd_sc_hd__o2bb2a_1
*I *1347:X O *D sky130_fd_sc_hd__o311a_1
*CAP
1 *1348:A1_N 2.76142e-05
2 *1347:X 2.76142e-05
3 *1347:A1 *1348:A1_N 4.60584e-05
4 *1347:A3 *1348:A1_N 0.000176028
5 *146:88 *1348:A1_N 0.000100308
*RES
1 *1347:X *1348:A1_N 4.80875 
*END

*D_NET *168 9.42304e-05
*CONN
*I *1350:D I *D sky130_fd_sc_hd__or4_1
*I *1349:X O *D sky130_fd_sc_hd__o21a_1
*CAP
1 *1350:D 8.30169e-06
2 *1349:X 8.30169e-06
3 *1350:D *1336:B1 4.89295e-05
4 *148:21 *1350:D 2.86975e-05
*RES
1 *1349:X *1350:D 3.65 
*END

*D_NET *169 0.000882907
*CONN
*I *1352:A2 I *D sky130_fd_sc_hd__a32o_1
*I *1350:X O *D sky130_fd_sc_hd__or4_1
*CAP
1 *1352:A2 0.000155978
2 *1350:X 0.000155978
3 *1352:A2 *1352:A3 9.54399e-05
4 *1352:A2 *197:93 1.79098e-05
5 *1352:A2 *288:41 0
6 *1352:A2 *289:10 4.9968e-05
7 *1352:A2 *289:28 1.46744e-05
8 *1352:A2 *289:34 0.000122337
9 *1352:A2 *289:47 0
10 *11:29 *1352:A2 7.25721e-05
11 *148:21 *1352:A2 0.000198051
*RES
1 *1350:X *1352:A2 11.175 
*END

*D_NET *170 0.000615042
*CONN
*I *1352:A3 I *D sky130_fd_sc_hd__a32o_1
*I *1351:Y O *D sky130_fd_sc_hd__nand2_1
*CAP
1 *1352:A3 0.000150931
2 *1351:Y 0.000150931
3 *1352:A3 *1322:A 1.16578e-05
4 *1352:A3 *197:93 0.000120186
5 *1352:A3 *289:21 1.91597e-05
6 *1352:A3 *289:28 5.05521e-05
7 *1352:A3 *289:34 1.61831e-05
8 *1352:A3 *289:47 0
9 *1352:A2 *1352:A3 9.54399e-05
*RES
1 *1351:Y *1352:A3 10.065 
*END

*D_NET *171 0.000619342
*CONN
*I *1355:A2_N I *D sky130_fd_sc_hd__o2bb2a_1
*I *1352:X O *D sky130_fd_sc_hd__a32o_1
*CAP
1 *1355:A2_N 0.000176734
2 *1352:X 0.000176734
3 *1355:A2_N *1355:A1_N 6.45599e-06
4 *1355:A2_N *197:93 0.000249914
5 *1411:D *1355:A2_N 9.50342e-06
*RES
1 *1352:X *1355:A2_N 10.56 
*END

*D_NET *172 0.00024702
*CONN
*I *1354:A3 I *D sky130_fd_sc_hd__o31a_1
*I *1353:Y O *D sky130_fd_sc_hd__nor2_1
*CAP
1 *1354:A3 5.55389e-05
2 *1353:Y 5.55389e-05
3 *1347:A3 *1354:A3 9.47972e-06
4 *1353:B *1354:A3 1.14169e-05
5 *1355:B1 *1354:A3 4.82863e-05
6 *146:127 *1354:A3 6.67588e-05
*RES
1 *1353:Y *1354:A3 4.34 
*END

*D_NET *173 0.000334203
*CONN
*I *1355:A1_N I *D sky130_fd_sc_hd__o2bb2a_1
*I *1354:X O *D sky130_fd_sc_hd__o31a_1
*CAP
1 *1355:A1_N 0.000127378
2 *1354:X 0.000127378
3 *1355:A1_N *1355:B2 2.30292e-05
4 *1355:A2_N *1355:A1_N 6.45599e-06
5 *1355:B1 *1355:A1_N 4.99619e-05
*RES
1 *1354:X *1355:A1_N 5.38625 
*END

*D_NET *174 0.000603052
*CONN
*I *1401:A I *D sky130_fd_sc_hd__nor2_1
*I *1402:B I *D sky130_fd_sc_hd__xnor2_1
*I *1399:X O *D sky130_fd_sc_hd__and3_1
*CAP
1 *1401:A 6.95352e-05
2 *1402:B 0.000106231
3 *1399:X 0
4 *174:4 0.000175766
5 *1401:A *1399:A 0
6 *1402:B *1401:B 2.67022e-05
7 *1402:B *287:12 8.65905e-05
8 *1400:A2 *1402:B 8.8266e-05
9 *146:46 *1401:A 4.99619e-05
*RES
1 *1399:X *174:4 1.6 
2 *174:4 *1402:B 7.775 
3 *174:4 *1401:A 2.92 
*END

*D_NET *175 0.00107314
*CONN
*I *1401:B I *D sky130_fd_sc_hd__nor2_1
*I *1400:Y O *D sky130_fd_sc_hd__a21oi_1
*CAP
1 *1401:B 0.000308984
2 *1400:Y 0.000308984
3 *1401:B *287:12 0.000352161
4 *1400:A2 *1401:B 4.43871e-06
5 *1402:B *1401:B 2.67022e-05
6 *146:46 *1401:B 7.18738e-05
*RES
1 *1400:Y *1401:B 12.045 
*END

*D_NET *176 0.0221613
*CONN
*I *1473:A I *D sky130_fd_sc_hd__clkbuf_16
*I *1474:A I *D sky130_fd_sc_hd__clkbuf_16
*I *1472:A I *D sky130_fd_sc_hd__clkbuf_16
*I *1471:A I *D sky130_fd_sc_hd__clkbuf_16
*I *1468:A I *D sky130_fd_sc_hd__clkbuf_16
*I *1467:A I *D sky130_fd_sc_hd__clkbuf_16
*I *1470:A I *D sky130_fd_sc_hd__clkbuf_16
*I *1469:A I *D sky130_fd_sc_hd__clkbuf_16
*I *1466:X O *D sky130_fd_sc_hd__clkbuf_16
*CAP
1 *1473:A 0.000191463
2 *1474:A 0.000370038
3 *1472:A 0.000654908
4 *1471:A 0
5 *1468:A 0
6 *1467:A 0
7 *1470:A 0.000418751
8 *1469:A 0.000421901
9 *1466:X 0
10 *176:86 0.00161613
11 *176:60 0.00119055
12 *176:34 0.00157312
13 *176:28 0.00178508
14 *176:18 0.00193334
15 *176:10 0.00172637
16 *176:6 0.00136462
17 *1469:A *251:29 0.000104379
18 *1470:A *1374:A0 0.00053598
19 *1470:A *251:29 0.000121634
20 *1472:A *1243:A 0.000151123
21 *1472:A *1307:B 3.59531e-06
22 *1472:A *1359:S 9.27495e-05
23 *1472:A *1464:RESET_B 0.00011686
24 *1472:A *1557:A 0
25 *1472:A *273:42 0
26 *1472:A *292:33 3.66286e-05
27 *1472:A *321:10 0
28 *1472:A *322:12 5.21714e-05
29 *1472:A *334:8 3.27443e-05
30 *1473:A *1254:A 0
31 *1473:A *308:12 0
32 *1474:A *1288:A 1.90762e-05
33 *1474:A *1288:B 0
34 *1474:A *1290:B2 7.21296e-06
35 *1474:A *1364:A0 0.000163204
36 *1474:A *1364:A1 0.000124895
37 *1474:A *1364:S 2.30292e-05
38 *1474:A *186:40 0
39 *1474:A *186:59 0
40 *1474:A *195:56 0
41 *1474:A *308:12 0
42 *1474:A *311:18 0.000124007
43 *176:10 *1274:A 0.000110315
44 *176:10 *1492:A 0
45 *176:10 *1494:A 2.86895e-05
46 *176:10 *204:27 6.90476e-05
47 *176:18 *1328:A1 0.000304433
48 *176:18 *1408:CLK 2.11084e-05
49 *176:18 *281:33 3.54456e-05
50 *176:18 *281:139 2.97249e-05
51 *176:28 *1284:B 0
52 *176:28 *1407:CLK 3.21052e-05
53 *176:28 *1458:CLK 5.81622e-05
54 *176:28 *1458:D 1.83756e-05
55 *176:28 *1458:RESET_B 7.81924e-05
56 *176:28 *178:84 1.90092e-05
57 *176:28 *198:20 0.000238543
58 *176:28 *281:33 0.000146092
59 *176:28 *294:10 0
60 *176:34 *1271:C1 0
61 *176:34 *1297:A 0.000203776
62 *176:34 *1298:A2 0.0001032
63 *176:34 *1299:A1 0.00022755
64 *176:34 *1435:D 0
65 *176:34 *1551:A 0.000243764
66 *176:34 *193:74 0
67 *176:34 *194:21 0.000116551
68 *176:34 *194:32 0.000136991
69 *176:34 *194:43 8.09021e-06
70 *176:34 *296:18 7.63047e-05
71 *176:60 *1276:A1 8.65905e-05
72 *176:60 *1276:C1 0.000140765
73 *176:60 *1326:A0 7.67415e-06
74 *176:60 *1328:A1 6.90876e-05
75 *176:60 *181:8 0.000278111
76 *176:60 *290:28 1.03323e-05
77 *176:60 *292:33 0.000658594
78 *176:86 *1256:A 4.39001e-05
79 *176:86 *1257:B1 0.000149611
80 *176:86 *1312:B1 8.95933e-05
81 *176:86 *1365:A0 0.000312964
82 *176:86 *1365:A1 0.000126404
83 *176:86 *1368:A1 4.82919e-05
84 *176:86 *1425:CLK 0.000123762
85 *176:86 *1494:A 0
86 *176:86 *1562:A 5.05521e-05
87 *176:86 *1564:A 0.000122706
88 *176:86 *183:22 6.80854e-05
89 *176:86 *186:40 4.21666e-05
90 *176:86 *188:42 0
91 *176:86 *195:56 0.000199833
92 *176:86 *307:23 0
93 *1261:A *176:86 4.82919e-05
94 *1261:C *176:86 2.88519e-05
95 *1276:B1 *176:60 4.60584e-05
96 *1277:C1 *176:60 8.65905e-05
97 *1278:A *176:86 0.000269959
98 *1278:C *176:86 2.67022e-05
99 *1287:C1 *176:10 0.000283514
100 *1289:B1 *1473:A 8.97642e-05
101 *1289:B1 *1474:A 4.43871e-06
102 *1296:A *176:10 9.71067e-05
103 *1296:A *176:86 9.78012e-05
104 *1300:A_N *176:34 6.47594e-05
105 *1318:C *176:10 7.21296e-06
106 *1320:A_N *176:10 0.000238475
107 *1407:D *176:28 0.000116158
108 *1423:D *176:86 8.8266e-05
109 *1464:D *1472:A 2.96426e-05
110 *1506:A *1472:A 9.02259e-05
111 *70:31 *176:10 0.000165222
112 *70:31 *176:86 0.000156879
113 *70:65 *176:86 5.02217e-05
114 *71:16 *1472:A 8.8266e-05
115 *82:8 *1473:A 9.68787e-05
116 *105:12 *176:86 0
*RES
1 *1466:X *176:6 3.6 
2 *176:6 *176:10 11.285 
3 *176:10 *176:18 11.625 
4 *176:18 *176:28 18.565 
5 *176:28 *176:34 20.425 
6 *176:34 *1469:A 7.57 
7 *176:34 *1470:A 9.295 
8 *176:28 *1467:A 1.6 
9 *176:18 *1468:A 1.6 
10 *176:10 *176:60 11.835 
11 *176:60 *1471:A 1.6 
12 *176:60 *1472:A 17.57 
13 *176:6 *176:86 27.505 
14 *176:86 *1474:A 10.41 
15 *176:86 *1473:A 7.53 
*END

*D_NET *177 0.00814062
*CONN
*I *1441:CLK I *D sky130_fd_sc_hd__dfrtp_1
*I *1435:CLK I *D sky130_fd_sc_hd__dfrtp_1
*I *1438:CLK I *D sky130_fd_sc_hd__dfrtp_1
*I *1439:CLK I *D sky130_fd_sc_hd__dfrtp_1
*I *1429:CLK I *D sky130_fd_sc_hd__dfrtp_1
*I *1442:CLK I *D sky130_fd_sc_hd__dfrtp_1
*I *1411:CLK I *D sky130_fd_sc_hd__dfrtp_1
*I *1413:CLK I *D sky130_fd_sc_hd__dfrtp_2
*I *1412:CLK I *D sky130_fd_sc_hd__dfrtp_2
*I *1475:A I *D sky130_fd_sc_hd__clkbuf_4
*I *1467:X O *D sky130_fd_sc_hd__clkbuf_16
*CAP
1 *1441:CLK 0.000177867
2 *1435:CLK 0.000586443
3 *1438:CLK 0
4 *1439:CLK 0
5 *1429:CLK 0
6 *1442:CLK 0.000269402
7 *1411:CLK 0.000125295
8 *1413:CLK 0
9 *1412:CLK 0.000148182
10 *1475:A 0.000241184
11 *1467:X 0.000124676
12 *177:89 0.000604977
13 *177:85 0.000265088
14 *177:35 0.000643187
15 *177:33 0.000876691
16 *177:31 0.000525795
17 *177:29 0.000555721
18 *177:25 0.000555721
19 *177:12 0.000288621
20 *177:10 0.000240801
21 *1435:CLK *1438:RESET_B 2.40101e-05
22 *1435:CLK *1442:RESET_B 3.96653e-05
23 *1441:CLK *1381:S 6.81237e-05
24 *1441:CLK *1567:A 0
25 *1441:CLK *193:55 0.000132089
26 *1441:CLK *240:23 0
27 *1441:CLK *262:42 0.000127416
28 *1442:CLK *1279:A 0
29 *1475:A *1429:RESET_B 1.03833e-05
30 *1475:A *1439:D 4.89295e-05
31 *1475:A *193:21 0.000162325
32 *1475:A *197:61 1.31646e-05
33 *1475:A *197:79 4.19884e-05
34 *177:10 *1379:A0 6.35284e-05
35 *177:10 *262:42 8.65961e-05
36 *177:12 *1442:RESET_B 5.21545e-05
37 *177:12 *193:21 0.000131408
38 *177:12 *193:55 8.53113e-06
39 *177:12 *197:61 2.97004e-06
40 *177:29 *1429:D 1.0263e-05
41 *177:29 *1429:RESET_B 0.000227403
42 *177:85 *1442:RESET_B 7.21296e-06
43 *177:85 *193:55 0.000195238
44 *177:85 *262:42 9.86611e-05
45 *177:89 *1442:RESET_B 4.82919e-05
46 *1441:D *1441:CLK 5.05437e-05
47 *1442:D *1442:CLK 0
48 *1466:A *1441:CLK 8.65905e-05
49 *1574:A *1442:CLK 0.000173484
*RES
1 *1467:X *177:10 5.79 
2 *177:10 *177:12 1.635 
3 *177:12 *1475:A 8.01 
4 *177:12 *177:25 2 
5 *177:25 *177:29 9.435 
6 *177:29 *177:31 2 
7 *177:31 *177:33 4.185 
8 *177:33 *177:35 8.265 
9 *177:35 *1412:CLK 5.94 
10 *177:35 *1413:CLK 3.6 
11 *177:33 *1411:CLK 5.43 
12 *177:31 *1442:CLK 8.235 
13 *177:29 *1429:CLK 1.6 
14 *177:25 *1439:CLK 1.6 
15 *177:10 *177:85 2.4 
16 *177:85 *177:89 2.45 
17 *177:89 *1438:CLK 1.6 
18 *177:89 *1435:CLK 10 
19 *177:85 *1441:CLK 8.58 
*END

*D_NET *178 0.00733465
*CONN
*I *1407:CLK I *D sky130_fd_sc_hd__dfrtp_1
*I *1465:CLK I *D sky130_fd_sc_hd__dfrtp_1
*I *1458:CLK I *D sky130_fd_sc_hd__dfrtp_1
*I *1408:CLK I *D sky130_fd_sc_hd__dfrtp_1
*I *1410:CLK I *D sky130_fd_sc_hd__dfrtp_1
*I *1476:A I *D sky130_fd_sc_hd__clkbuf_8
*I *1409:CLK I *D sky130_fd_sc_hd__dfrtp_4
*I *1459:CLK I *D sky130_fd_sc_hd__dfrtp_4
*I *1468:X O *D sky130_fd_sc_hd__clkbuf_16
*CAP
1 *1407:CLK 6.20993e-05
2 *1465:CLK 0.000173324
3 *1458:CLK 0.00032541
4 *1408:CLK 0.000287123
5 *1410:CLK 0.000397618
6 *1476:A 0
7 *1409:CLK 2.01192e-05
8 *1459:CLK 0.000611762
9 *1468:X 0
10 *178:84 0.000391563
11 *178:69 0.000734526
12 *178:56 0.000577202
13 *178:14 0.00075804
14 *178:10 0.000167836
15 *178:8 0.000532227
16 *178:6 0.000130035
17 *1407:CLK *1458:RESET_B 4.31698e-05
18 *1407:CLK *1491:A 0.000196376
19 *1407:CLK *198:20 4.47209e-05
20 *1408:CLK *1490:A 0.000199833
21 *1408:CLK *281:33 7.35813e-05
22 *1410:CLK *1410:RESET_B 0.000195674
23 *1410:CLK *282:10 2.75145e-05
24 *1458:CLK *1458:D 2.75145e-05
25 *1459:CLK *1344:A 0
26 *1459:CLK *285:33 6.36273e-05
27 *1459:CLK *285:64 1.37442e-05
28 *1459:CLK *285:83 3.98952e-05
29 *1465:CLK *1376:A0 0.000116165
30 *1465:CLK *301:10 0.000138551
31 *178:8 *198:32 0
32 *178:8 *282:10 0
33 *178:56 *282:10 0
34 *178:69 *1491:A 0
35 *178:84 *1491:A 0
36 *1339:A2 *1459:CLK 4.90031e-05
37 *1345:A2 *1459:CLK 3.23391e-05
38 *1347:B1 *1459:CLK 0.000456138
39 *1347:B1 *178:14 0
40 *1409:D *1459:CLK 0
41 *1410:D *1410:CLK 7.10578e-05
42 *1459:D *1459:CLK 7.60965e-05
43 *1465:D *1465:CLK 8.77898e-05
44 *146:78 *1409:CLK 1.83847e-05
45 *146:78 *1459:CLK 4.58166e-05
46 *146:88 *1459:CLK 1.83847e-05
47 *176:18 *1408:CLK 2.11084e-05
48 *176:28 *1407:CLK 3.21052e-05
49 *176:28 *1458:CLK 5.81622e-05
50 *176:28 *178:84 1.90092e-05
*RES
1 *1468:X *178:6 3.6 
2 *178:6 *178:8 1.38 
3 *178:8 *178:10 0.615 
4 *178:10 *178:14 3.89 
5 *178:14 *1459:CLK 17.375 
6 *178:14 *1409:CLK 2.05 
7 *178:10 *1476:A 3.6 
8 *178:8 *1410:CLK 10.605 
9 *178:6 *178:56 0.615 
10 *178:56 *1408:CLK 8.88 
11 *178:56 *178:69 5.675 
12 *178:69 *1458:CLK 5.875 
13 *178:69 *178:84 2.1 
14 *178:84 *1465:CLK 9.785 
15 *178:84 *1407:CLK 3.775 
*END

*D_NET *179 0.0081469
*CONN
*I *1446:CLK I *D sky130_fd_sc_hd__dfrtp_1
*I *1434:CLK I *D sky130_fd_sc_hd__dfrtp_1
*I *1443:CLK I *D sky130_fd_sc_hd__dfrtp_1
*I *1444:CLK I *D sky130_fd_sc_hd__dfrtp_1
*I *1436:CLK I *D sky130_fd_sc_hd__dfrtp_1
*I *1437:CLK I *D sky130_fd_sc_hd__dfrtp_1
*I *1440:CLK I *D sky130_fd_sc_hd__dfrtp_1
*I *1445:CLK I *D sky130_fd_sc_hd__dfrtp_1
*I *1433:CLK I *D sky130_fd_sc_hd__dfrtp_1
*I *1469:X O *D sky130_fd_sc_hd__clkbuf_16
*CAP
1 *1446:CLK 0.000214813
2 *1434:CLK 0
3 *1443:CLK 0
4 *1444:CLK 0.000214524
5 *1436:CLK 0.000125295
6 *1437:CLK 0.000344401
7 *1440:CLK 0.00015002
8 *1445:CLK 0.000170903
9 *1433:CLK 5.30409e-05
10 *1469:X 5.74715e-05
11 *179:46 0.000600053
12 *179:44 0.00048615
13 *179:42 0.000546602
14 *179:38 0.000657913
15 *179:23 0.00102887
16 *179:19 0.000624397
17 *179:8 0.00024319
18 *1433:CLK *251:31 6.28843e-05
19 *1433:CLK *251:41 4.43871e-06
20 *1437:CLK *1299:C1 0
21 *1437:CLK *1377:A0 0.000302566
22 *1437:CLK *1575:A 0.00019274
23 *1437:CLK *272:12 0.000273872
24 *1444:CLK *1383:A 5.34747e-05
25 *1445:CLK *1299:C1 7.67465e-05
26 *1445:CLK *1385:A1 0.00011686
27 *1445:CLK *1507:A 9.3062e-06
28 *1445:CLK *199:100 0
29 *1446:CLK *1385:A0 0.000116853
30 *1446:CLK *199:100 7.06865e-05
31 *1446:CLK *251:87 5.46763e-05
32 *1446:CLK *251:96 0.000187064
33 *1446:CLK *327:6 3.00381e-05
34 *179:8 *251:29 8.65961e-05
35 *179:19 *1551:A 0
36 *179:19 *251:31 1.1561e-05
37 *179:19 *251:87 0.000128197
38 *179:23 *1434:RESET_B 9.10527e-05
39 *179:23 *199:100 0.000268765
40 *179:38 *1443:RESET_B 8.07616e-05
41 *179:38 *199:62 4.82883e-05
42 num_to_send_o[0] *1437:CLK 1.4399e-05
43 *1433:D *1433:CLK 4.40725e-05
44 *1433:D *179:19 2.97004e-06
45 *1434:D *179:23 1.52352e-05
46 *1436:D *1437:CLK 0.00012657
47 *1436:D *179:46 0
48 *1443:D *1444:CLK 0.000119631
49 *1443:D *179:44 0
50 *1445:D *1445:CLK 3.89528e-05
*RES
1 *1469:X *179:8 4.395 
2 *179:8 *1433:CLK 4.98 
3 *179:8 *179:19 2.91 
4 *179:19 *179:23 7.97 
5 *179:23 *1445:CLK 9.53 
6 *179:23 *179:38 9.09 
7 *179:38 *179:42 3.14 
8 *179:42 *179:44 4.185 
9 *179:44 *179:46 1.635 
10 *179:46 *1440:CLK 6 
11 *179:46 *1437:CLK 12 
12 *179:44 *1436:CLK 5.43 
13 *179:42 *1444:CLK 7.92 
14 *179:38 *1443:CLK 1.6 
15 *179:23 *1434:CLK 1.6 
16 *179:19 *1446:CLK 8.67 
*END

*D_NET *180 0.0100418
*CONN
*I *1426:CLK I *D sky130_fd_sc_hd__dfrtp_1
*I *1447:CLK I *D sky130_fd_sc_hd__dfrtp_1
*I *1448:CLK I *D sky130_fd_sc_hd__dfrtp_1
*I *1431:CLK I *D sky130_fd_sc_hd__dfrtp_1
*I *1427:CLK I *D sky130_fd_sc_hd__dfrtp_1
*I *1477:A I *D sky130_fd_sc_hd__clkbuf_4
*I *1430:CLK I *D sky130_fd_sc_hd__dfrtp_1
*I *1428:CLK I *D sky130_fd_sc_hd__dfrtp_1
*I *1432:CLK I *D sky130_fd_sc_hd__dfrtp_1
*I *1470:X O *D sky130_fd_sc_hd__clkbuf_16
*CAP
1 *1426:CLK 5.35032e-05
2 *1447:CLK 0.000437027
3 *1448:CLK 0.000105024
4 *1431:CLK 0.000905515
5 *1427:CLK 0
6 *1477:A 0.000199497
7 *1430:CLK 0
8 *1428:CLK 0
9 *1432:CLK 0.000607295
10 *1470:X 0
11 *180:90 0.000609126
12 *180:73 0.00100263
13 *180:64 0.000308233
14 *180:49 0.000569115
15 *180:47 0.000276744
16 *180:20 0.00103387
17 *180:10 0.000650467
18 *180:6 0.000355715
19 *1431:CLK *1431:RESET_B 4.24575e-05
20 *1431:CLK *1526:A 2.11084e-05
21 *1431:CLK *303:10 3.82323e-06
22 *1432:CLK *200:26 0.000212471
23 *1447:CLK *1260:C1 0
24 *1447:CLK *1387:S 3.09233e-05
25 *1447:CLK *1447:RESET_B 3.70009e-05
26 *1448:CLK *1387:A0 0.000138175
27 *1448:CLK *1387:A1 8.40269e-05
28 *1448:CLK *1387:S 8.65961e-05
29 *1477:A *251:10 0.000347023
30 *1477:A *262:87 0.000222014
31 *180:10 *1260:C1 0
32 *180:10 *1430:D 5.02217e-05
33 *180:10 *190:81 2.87698e-05
34 *180:10 *262:87 0
35 *180:20 *1430:D 4.40446e-05
36 *180:20 *190:81 0
37 *180:20 *200:12 2.86623e-05
38 *180:20 *262:87 6.3462e-05
39 *180:20 *304:10 0.000139238
40 *180:47 *1260:C1 0
41 *180:47 *262:87 0
42 *180:49 *262:87 2.75229e-05
43 *180:64 *1260:C1 0
44 *180:64 *1387:S 0.000535818
45 *180:64 *1426:RESET_B 0
46 *180:64 *194:74 0
47 *180:64 *237:10 0.000206123
48 *180:64 *281:98 0
49 *180:73 *1387:S 7.70758e-05
50 *180:90 *1387:S 0.000114492
51 *1304:A2 *180:64 4.40812e-05
52 *1304:B2 *180:64 0
53 *1305:C1 *180:10 0
54 *1317:A *1432:CLK 0.000130958
55 *1317:A *180:20 2.59981e-05
56 *1431:D *1431:CLK 3.96032e-05
57 *1447:D *1447:CLK 0.000146325
*RES
1 *1470:X *180:6 3.6 
2 *180:6 *180:10 5.675 
3 *180:10 *180:20 10.81 
4 *180:20 *1432:CLK 9.94 
5 *180:20 *1428:CLK 1.6 
6 *180:10 *1430:CLK 1.6 
7 *180:6 *180:47 4.145 
8 *180:47 *180:49 1.14 
9 *180:49 *1477:A 6.31 
10 *180:49 *180:64 8.735 
11 *180:64 *1427:CLK 3.6 
12 *180:64 *180:73 0.87 
13 *180:73 *1431:CLK 14.19 
14 *180:73 *180:90 1.38 
15 *180:90 *1448:CLK 6.465 
16 *180:90 *1447:CLK 9.75 
17 *180:47 *1426:CLK 2.665 
*END

*D_NET *181 0.00693427
*CONN
*I *1418:CLK I *D sky130_fd_sc_hd__dfrtp_1
*I *1453:CLK I *D sky130_fd_sc_hd__dfrtp_1
*I *1478:A I *D sky130_fd_sc_hd__clkinv_2
*I *1406:CLK I *D sky130_fd_sc_hd__dfrtp_1
*I *1461:CLK I *D sky130_fd_sc_hd__dfrtp_2
*I *1460:CLK I *D sky130_fd_sc_hd__dfrtp_4
*I *1454:CLK I *D sky130_fd_sc_hd__dfrtp_1
*I *1471:X O *D sky130_fd_sc_hd__clkbuf_16
*CAP
1 *1418:CLK 0.000325543
2 *1453:CLK 0.00019662
3 *1478:A 4.84519e-05
4 *1406:CLK 4.73179e-05
5 *1461:CLK 0
6 *1460:CLK 0.000141458
7 *1454:CLK 0.000180967
8 *1471:X 0.000175515
9 *181:37 0.00038238
10 *181:24 0.00098362
11 *181:18 0.000757092
12 *181:14 0.000574916
13 *181:12 0.000801079
14 *181:8 0.000727096
15 *1406:CLK *1326:A0 4.19797e-05
16 *1406:CLK *1326:A1 6.28765e-05
17 *1418:CLK *189:30 0
18 *1418:CLK *195:56 7.73943e-05
19 *1418:CLK *292:33 0
20 *1453:CLK *1419:RESET_B 0
21 *1453:CLK *1453:RESET_B 0.000101847
22 *1460:CLK *1319:A 0
23 *1460:CLK *1319:B 9.71067e-05
24 *181:12 *1245:A 0
25 *181:12 *1393:S 3.76596e-05
26 *181:12 *1453:D 4.19797e-05
27 *181:12 *273:54 3.86607e-05
28 *181:12 *292:33 0
29 *181:14 *1453:RESET_B 0.000162208
30 *181:14 *201:54 4.11729e-05
31 *181:18 *1326:A1 1.19928e-05
32 *181:18 *1394:A0 2.49909e-05
33 *181:24 *1326:A0 4.18603e-06
34 *181:24 *1326:A1 2.12295e-05
35 *181:24 *1394:A0 0.000134245
36 *181:24 *1406:RESET_B 0
37 *181:24 *1454:RESET_B 0
38 *181:24 *273:62 0.000201508
39 *181:37 *1454:D 5.39961e-05
40 *181:37 *1492:A 8.68803e-05
41 *1296:D *1418:CLK 0
42 *1320:A_N *181:37 0
43 *1460:D *1460:CLK 0
44 *1460:D *181:37 0
45 *1516:A *1478:A 2.75229e-05
46 *1516:A *181:14 2.36616e-05
47 *1516:A *181:18 2.10034e-05
48 *67:14 *1418:CLK 0
49 *146:12 *1460:CLK 0
50 *146:12 *181:37 0
51 *176:60 *181:8 0.000278111
*RES
1 *1471:X *181:8 6.12 
2 *181:8 *181:12 6.185 
3 *181:12 *181:14 4.935 
4 *181:14 *181:18 3.83 
5 *181:18 *181:24 9.425 
6 *181:24 *1454:CLK 3.7 
7 *181:24 *181:37 6.695 
8 *181:37 *1460:CLK 6.195 
9 *181:37 *1461:CLK 3.6 
10 *181:18 *1406:CLK 4.98 
11 *181:14 *1478:A 2.665 
12 *181:12 *1453:CLK 4.6 
13 *181:8 *1418:CLK 9.06 
*END

*D_NET *182 0.00942561
*CONN
*I *1451:CLK I *D sky130_fd_sc_hd__dfrtp_1
*I *1463:CLK I *D sky130_fd_sc_hd__dfrtp_1
*I *1452:CLK I *D sky130_fd_sc_hd__dfrtp_1
*I *1462:CLK I *D sky130_fd_sc_hd__dfrtp_1
*I *1417:CLK I *D sky130_fd_sc_hd__dfrtp_1
*I *1479:A I *D sky130_fd_sc_hd__clkbuf_4
*I *1457:CLK I *D sky130_fd_sc_hd__dfrtp_1
*I *1464:CLK I *D sky130_fd_sc_hd__dfrtp_1
*I *1419:CLK I *D sky130_fd_sc_hd__dfrtp_1
*I *1472:X O *D sky130_fd_sc_hd__clkbuf_16
*CAP
1 *1451:CLK 0.00013176
2 *1463:CLK 0.0001083
3 *1452:CLK 1.17375e-05
4 *1462:CLK 0.000167978
5 *1417:CLK 0
6 *1479:A 0
7 *1457:CLK 0.000113465
8 *1464:CLK 0
9 *1419:CLK 0.000513311
10 *1472:X 0
11 *182:76 0.00039483
12 *182:70 0.000351854
13 *182:68 0.000316518
14 *182:66 0.000226713
15 *182:26 0.000997094
16 *182:20 0.0010093
17 *182:8 0.00100398
18 *182:4 0.000591929
19 *1419:CLK *1393:A1 4.43871e-06
20 *1419:CLK *201:44 6.6925e-05
21 *1419:CLK *292:33 0
22 *1451:CLK *1265:B2 0.000122685
23 *1451:CLK *1310:C1 1.56428e-05
24 *1451:CLK *187:68 0.000288237
25 *1452:CLK *1359:A1 2.75229e-05
26 *1457:CLK *1308:A 0.000253242
27 *1457:CLK *1397:A1 8.82978e-05
28 *1457:CLK *1457:RESET_B 0.000128084
29 *1462:CLK *1417:D 2.30292e-05
30 *1462:CLK *1555:A 0.000113237
31 *1462:CLK *267:12 8.65905e-05
32 *1463:CLK *1463:D 6.73091e-05
33 *1463:CLK *203:22 8.57834e-05
34 *182:8 *1307:B 8.88715e-05
35 *182:8 *321:14 9.01848e-05
36 *182:20 *1293:B2 0
37 *182:20 *1391:S 5.39181e-05
38 *182:20 *1397:A1 0
39 *182:20 *1405:A1 0.000112445
40 *182:20 *1457:RESET_B 0.000184858
41 *182:20 *273:42 2.01214e-05
42 *182:26 *1293:B2 0
43 *182:26 *1294:C1 0.000132451
44 *182:26 *1361:A1 0
45 *182:26 *1393:A1 5.65627e-05
46 *182:26 *1397:A1 9.44791e-05
47 *182:26 *189:12 0
48 *182:26 *244:10 0
49 *182:26 *273:31 7.96104e-06
50 *182:68 *1359:A1 6.5265e-05
51 *182:68 *187:68 7.70758e-05
52 *182:68 *321:10 0
53 *182:70 *1359:A1 5.42473e-05
54 *182:70 *201:32 0
55 *182:76 *1243:A 0
56 *182:76 *1359:A0 0
57 *182:76 *1417:D 6.98327e-05
58 *182:76 *1555:A 0.000153125
59 *182:76 *201:32 0.00011964
60 *1295:B *182:26 1.26626e-05
61 *1295:C_N *182:26 0.000136877
62 *1310:B1 *1451:CLK 1.86688e-05
63 *1310:B1 *182:8 8.87196e-05
64 *1310:B1 *182:68 4.06899e-05
65 *1452:D *182:70 0
66 *1462:D *1462:CLK 0
67 *1462:D *182:76 0
68 *1464:D *1419:CLK 4.18603e-06
69 *1464:D *182:26 5.33874e-05
70 *1485:A *182:20 5.79855e-05
71 *1485:A *182:26 6.57653e-06
72 *1530:A *1457:CLK 0
73 *1530:A *182:26 0
74 *1556:A *1452:CLK 4.82919e-05
75 *71:16 *182:26 0.000266726
*RES
1 *1472:X *182:4 1.6 
2 *182:4 *182:8 7.365 
3 *182:8 *182:20 12.48 
4 *182:20 *182:26 10.095 
5 *182:26 *1419:CLK 10.095 
6 *182:26 *1464:CLK 3.6 
7 *182:20 *1457:CLK 7.26 
8 *182:8 *1479:A 1.6 
9 *182:4 *182:66 2 
10 *182:66 *182:68 2.655 
11 *182:68 *182:70 2.145 
12 *182:70 *182:76 7.355 
13 *182:76 *1417:CLK 1.6 
14 *182:76 *1462:CLK 8.885 
15 *182:70 *1452:CLK 4.05 
16 *182:68 *1463:CLK 5.88 
17 *182:66 *1451:CLK 7.47 
*END

*D_NET *183 0.00880265
*CONN
*I *1449:CLK I *D sky130_fd_sc_hd__dfrtp_1
*I *1420:CLK I *D sky130_fd_sc_hd__dfrtp_1
*I *1480:A I *D sky130_fd_sc_hd__clkinv_2
*I *1424:CLK I *D sky130_fd_sc_hd__dfrtp_1
*I *1423:CLK I *D sky130_fd_sc_hd__dfrtp_1
*I *1422:CLK I *D sky130_fd_sc_hd__dfrtp_1
*I *1425:CLK I *D sky130_fd_sc_hd__dfrtp_1
*I *1473:X O *D sky130_fd_sc_hd__clkbuf_16
*CAP
1 *1449:CLK 0.000355632
2 *1420:CLK 0.000178781
3 *1480:A 7.27259e-05
4 *1424:CLK 0.000382277
5 *1423:CLK 0
6 *1422:CLK 0.000297748
7 *1425:CLK 0.000134977
8 *1473:X 0
9 *183:79 0.000783891
10 *183:51 0.000490275
11 *183:22 0.000766601
12 *183:16 0.000617573
13 *183:8 0.000651543
14 *183:4 0.000582052
15 *1420:CLK *202:69 9.27764e-05
16 *1422:CLK *1312:B1 4.08514e-05
17 *1422:CLK *1482:A 3.47248e-05
18 *1424:CLK *1369:A0 2.49909e-05
19 *1424:CLK *1388:S 8.26692e-05
20 *1424:CLK *194:89 8.45564e-05
21 *1424:CLK *306:12 0.000198286
22 *1424:CLK *306:14 5.23362e-05
23 *1424:CLK *330:12 9.54469e-05
24 *1425:CLK *1494:A 0.000311102
25 *1449:CLK *1254:A 0
26 *1449:CLK *1255:A 0
27 *1449:CLK *1449:D 1.43521e-05
28 *1449:CLK *309:8 0
29 *1449:CLK *309:14 0
30 *1480:A *1313:B 4.00541e-06
31 *1480:A *1314:B 0.000126058
32 *1480:A *194:89 3.53577e-05
33 *1480:A *194:102 1.12578e-05
34 *1480:A *194:110 0
35 *183:8 *1315:A1 3.83995e-05
36 *183:16 *1256:A 0
37 *183:16 *1256:B 0
38 *183:16 *1257:B1 0
39 *183:16 *202:69 0
40 *183:16 *306:14 0
41 *183:22 *1256:A 0.000242844
42 *183:22 *1256:B 8.23457e-05
43 *183:22 *1257:B1 4.83612e-05
44 *183:22 *1260:A1 0
45 *183:22 *1494:A 0.000543056
46 *183:79 *202:69 3.22936e-05
47 *1278:B *1422:CLK 6.1357e-05
48 *1278:D *1422:CLK 8.23457e-05
49 *1312:A1_N *1422:CLK 0.000241056
50 *1315:A2 *1480:A 0.000239813
51 *1315:A2 *183:16 5.16348e-05
52 *1315:A2 *183:51 7.23602e-05
53 *1315:B1 *183:16 2.50049e-05
54 *1315:B1 *183:51 1.07797e-05
55 *1315:B2 *183:8 1.08758e-05
56 *1315:B2 *183:16 9.50342e-06
57 *1315:B2 *183:51 6.45236e-05
58 *1316:B1 *1422:CLK 0.000197264
59 *1316:C1 *183:8 2.56077e-05
60 *1316:C1 *183:16 0
61 *1423:D *183:16 8.53113e-06
62 *1509:A *1449:CLK 0
63 *82:8 *1449:CLK 0
64 *176:86 *1425:CLK 0.000123762
65 *176:86 *183:22 6.80854e-05
*RES
1 *1473:X *183:4 1.6 
2 *183:4 *183:8 5.9 
3 *183:8 *183:16 6.32 
4 *183:16 *183:22 10.31 
5 *183:22 *1425:CLK 7.275 
6 *183:22 *1422:CLK 9.585 
7 *183:16 *1423:CLK 1.6 
8 *183:8 *183:51 3.125 
9 *183:51 *1424:CLK 12.935 
10 *183:51 *1480:A 4.48 
11 *183:4 *183:79 2.865 
12 *183:79 *1420:CLK 4.84 
13 *183:79 *1449:CLK 11.06 
*END

*D_NET *184 0.0093805
*CONN
*I *1421:CLK I *D sky130_fd_sc_hd__dfrtp_1
*I *1415:CLK I *D sky130_fd_sc_hd__dfrtp_1
*I *1456:CLK I *D sky130_fd_sc_hd__dfrtp_1
*I *1414:CLK I *D sky130_fd_sc_hd__dfrtp_1
*I *1450:CLK I *D sky130_fd_sc_hd__dfrtp_1
*I *1481:A I *D sky130_fd_sc_hd__clkbuf_8
*I *1416:CLK I *D sky130_fd_sc_hd__dfrtp_1
*I *1455:CLK I *D sky130_fd_sc_hd__dfrtp_1
*I *1474:X O *D sky130_fd_sc_hd__clkbuf_16
*CAP
1 *1421:CLK 0.000267449
2 *1415:CLK 0
3 *1456:CLK 1.77753e-05
4 *1414:CLK 0.000435298
5 *1450:CLK 3.55506e-05
6 *1481:A 0.000158999
7 *1416:CLK 2.7482e-05
8 *1455:CLK 0.000286149
9 *1474:X 3.35373e-05
10 *184:88 0.000464232
11 *184:62 0.00107013
12 *184:49 0.000652608
13 *184:47 0.000385048
14 *184:32 0.000408157
15 *184:10 0.000517221
16 *184:8 0.000298019
17 *1414:CLK *1395:S 8.25609e-05
18 *1414:CLK *1414:RESET_B 8.49205e-05
19 *1414:CLK *1450:RESET_B 8.57226e-05
20 *1414:CLK *1456:RESET_B 0.000111243
21 *1414:CLK *315:23 0
22 *1416:CLK *1263:A 2.49909e-05
23 *1416:CLK *1416:D 3.00381e-05
24 *1416:CLK *191:40 0.000124895
25 *1421:CLK *1357:A1 0
26 *1421:CLK *1390:A1 0
27 *1421:CLK *1421:D 7.15908e-05
28 *1421:CLK *1421:RESET_B 0.000187738
29 *1421:CLK *1449:RESET_B 0
30 *1421:CLK *1541:A 0.000163175
31 *1421:CLK *202:95 0
32 *1421:CLK *253:10 0
33 *1450:CLK *1420:RESET_B 0
34 *1455:CLK *1263:A 0.000114492
35 *1455:CLK *1264:A 6.71882e-05
36 *1455:CLK *1264:B 4.82919e-05
37 *1455:CLK *1309:A2 0.000160641
38 *1455:CLK *1416:RESET_B 0
39 *1455:CLK *187:52 0.000250248
40 *1455:CLK *187:68 2.39856e-05
41 *1455:CLK *318:20 0.000216386
42 *1481:A *1290:A1 4.82919e-05
43 *184:8 *1288:A 0.000198945
44 *184:10 *1241:A 4.06643e-05
45 *184:10 *1416:RESET_B 0
46 *184:10 *194:110 6.74403e-05
47 *184:10 *202:28 0
48 *184:10 *311:12 5.16418e-05
49 *184:32 *194:110 5.93844e-05
50 *184:32 *311:12 0.00015046
51 *184:47 *194:110 0.000149376
52 *184:47 *311:12 0.000240087
53 *184:62 *1450:RESET_B 0.000103971
54 *184:88 *1357:A1 0
55 *184:88 *1357:S 0
56 *184:88 *1553:A 4.40899e-05
57 *184:88 *194:110 0.000209179
58 *184:88 *202:95 0
59 *184:88 *311:12 4.87458e-05
60 *1266:B2 *1455:CLK 1.19928e-05
61 *1278:B *1416:CLK 9.80032e-06
62 *1291:A *184:8 0.000198945
63 *1291:B *1481:A 0.000228393
64 *1296:C *1455:CLK 0.000202102
65 *1296:C *184:10 0.000116165
66 *1309:B2 *1455:CLK 4.82919e-05
67 *1311:A_N *1455:CLK 1.46744e-05
68 *1415:D *184:88 7.4027e-05
69 *1523:A *1455:CLK 0.000158066
*RES
1 *1474:X *184:8 5.43 
2 *184:8 *184:10 4.44 
3 *184:10 *1455:CLK 12.315 
4 *184:10 *1416:CLK 4.74 
5 *184:8 *184:32 1.89 
6 *184:32 *1481:A 7.155 
7 *184:32 *184:47 4.32 
8 *184:47 *184:49 2 
9 *184:49 *1450:CLK 2.215 
10 *184:49 *184:62 7.47 
11 *184:62 *1414:CLK 12.695 
12 *184:62 *1456:CLK 1.96 
13 *184:47 *184:88 4.695 
14 *184:88 *1415:CLK 3.6 
15 *184:88 *1421:CLK 9.9 
*END

*D_NET *185 0.000270471
*CONN
*I *1319:A I *D sky130_fd_sc_hd__or2_2
*I *1572:X O *D sky130_fd_sc_hd__clkbuf_1
*CAP
1 *1319:A 0.000135235
2 *1572:X 0.000135235
3 *1460:CLK *1319:A 0
*RES
1 *1572:X *1319:A 9.285 
*END

*D_NET *186 0.0138383
*CONN
*I *1363:S I *D sky130_fd_sc_hd__mux2_1
*I *1389:S I *D sky130_fd_sc_hd__mux2_1
*I *1366:S I *D sky130_fd_sc_hd__mux2_1
*I *1388:S I *D sky130_fd_sc_hd__mux2_1
*I *1396:S I *D sky130_fd_sc_hd__mux2_1
*I *1395:S I *D sky130_fd_sc_hd__mux2_1
*I *1362:S I *D sky130_fd_sc_hd__mux2_1
*I *1364:S I *D sky130_fd_sc_hd__mux2_1
*I *1365:S I *D sky130_fd_sc_hd__mux2_1
*I *1367:S I *D sky130_fd_sc_hd__mux2_1
*I *1482:X O *D sky130_fd_sc_hd__clkbuf_4
*CAP
1 *1363:S 4.31542e-05
2 *1389:S 2.08101e-05
3 *1366:S 0
4 *1388:S 0.000215386
5 *1396:S 0
6 *1395:S 0.000430421
7 *1362:S 0.000180059
8 *1364:S 0.000109495
9 *1365:S 2.08101e-05
10 *1367:S 0.000158967
11 *1482:X 0.000137834
12 *186:104 0.0006318
13 *186:100 0.0007293
14 *186:98 0.000522557
15 *186:74 0.00100627
16 *186:61 0.000755911
17 *186:59 0.000379552
18 *186:40 0.000541668
19 *186:25 0.000482409
20 *186:8 0.000518452
21 *1362:S *1362:A0 4.21973e-05
22 *1362:S *1362:A1 1.7386e-05
23 *1363:S *1363:A1 2.75229e-05
24 *1364:S *1288:B 4.43871e-06
25 *1364:S *1364:A0 0.000155146
26 *1364:S *311:18 2.00092e-05
27 *1367:S *1367:A0 4.99619e-05
28 *1367:S *1425:RESET_B 0
29 *1367:S *190:127 2.15594e-05
30 *1388:S *1315:C1 5.16348e-05
31 *1388:S *1424:D 0.000120186
32 *1388:S *1519:A 0
33 *1388:S *306:12 3.09164e-05
34 *1395:S *1391:A1 0
35 *1395:S *1395:A1 9.37731e-05
36 *1395:S *1396:A0 0.000161829
37 *1395:S *1396:A1 8.65905e-05
38 *1395:S *1403:A1 3.09164e-05
39 *1395:S *1414:D 4.70343e-05
40 *1395:S *202:26 4.66108e-05
41 *1395:S *247:8 0.000153794
42 *1395:S *315:29 0
43 *186:8 *1482:A 0.000160635
44 *186:25 *1365:A0 4.60584e-05
45 *186:25 *1365:A1 0.000201508
46 *186:25 *1425:RESET_B 0
47 *186:25 *190:127 5.84378e-05
48 *186:25 *190:142 0.000351773
49 *186:25 *305:22 8.08153e-06
50 *186:40 *1290:C1 0
51 *186:40 *1312:B1 0.000275553
52 *186:40 *1365:A0 4.0843e-05
53 *186:40 *1562:A 7.66083e-05
54 *186:40 *190:142 0.000906476
55 *186:40 *195:56 0.000184866
56 *186:59 *1290:A2 0.000149766
57 *186:59 *1290:B2 0
58 *186:59 *1290:C1 4.9968e-05
59 *186:59 *202:28 9.3062e-06
60 *186:59 *202:53 4.47504e-06
61 *186:59 *311:18 0.000139933
62 *186:74 *1290:B2 8.73389e-06
63 *186:74 *1390:A0 4.21973e-05
64 *186:74 *1390:A1 6.65725e-05
65 *186:74 *1390:S 0.000461935
66 *186:74 *202:26 0.000243057
67 *186:98 *1290:C1 0.000458721
68 *186:98 *1390:A1 0
69 *186:100 *1363:A1 0.000338332
70 *186:104 *1363:A1 9.66106e-05
71 *186:104 *1366:A0 0.000191243
72 *186:104 *1366:A1 3.70488e-05
73 *186:104 *1389:A1 0.000106899
74 *186:104 *330:25 9.80943e-06
75 *1278:B *1367:S 0.000179776
76 *1278:B *186:8 2.0514e-05
77 *1289:B1 *186:40 3.23663e-05
78 *1289:B1 *186:59 0
79 *1290:B1 *1362:S 0.00017742
80 *1312:A1_N *1367:S 0
81 *1316:B1 *1367:S 0
82 *1414:CLK *1395:S 8.25609e-05
83 *1424:CLK *1388:S 8.26692e-05
84 *1448:D *1388:S 0
85 *1450:D *186:74 4.99619e-05
86 *1456:D *1395:S 2.11084e-05
87 *1474:A *1364:S 2.30292e-05
88 *1474:A *186:40 0
89 *1474:A *186:59 0
90 *1554:A *1362:S 0.000118081
91 *1554:A *186:74 0.000123225
92 *1554:A *186:98 0.000113606
93 *176:86 *186:40 4.21666e-05
*RES
1 *1482:X *186:8 5.43 
2 *186:8 *1367:S 6.705 
3 *186:8 *186:25 7.685 
4 *186:25 *1365:S 1.96 
5 *186:25 *186:40 11.96 
6 *186:40 *1364:S 6.255 
7 *186:40 *186:59 4.38 
8 *186:59 *186:61 2 
9 *186:61 *1362:S 5.17 
10 *186:61 *186:74 11.16 
11 *186:74 *1395:S 15.395 
12 *186:74 *1396:S 1.6 
13 *186:59 *186:98 7.46 
14 *186:98 *186:100 5.28 
15 *186:100 *186:104 7.71 
16 *186:104 *1388:S 10.34 
17 *186:104 *1366:S 1.6 
18 *186:100 *1389:S 1.96 
19 *186:98 *1363:S 2.41 
*END

*D_NET *187 0.0136548
*CONN
*I *1482:A I *D sky130_fd_sc_hd__clkbuf_4
*I *1357:S I *D sky130_fd_sc_hd__mux2_1
*I *1390:S I *D sky130_fd_sc_hd__mux2_1
*I *1356:S I *D sky130_fd_sc_hd__mux2_1
*I *1392:S I *D sky130_fd_sc_hd__mux2_1
*I *1403:S I *D sky130_fd_sc_hd__mux2_1
*I *1358:S I *D sky130_fd_sc_hd__mux2_1
*I *1502:A I *D sky130_fd_sc_hd__clkbuf_4
*I *1483:X O *D sky130_fd_sc_hd__buf_2
*CAP
1 *1482:A 0.000802716
2 *1357:S 0.000202878
3 *1390:S 7.82658e-05
4 *1356:S 0
5 *1392:S 0.000256234
6 *1403:S 0
7 *1358:S 0
8 *1502:A 0.000233546
9 *1483:X 8.32975e-05
10 *187:101 0.000588459
11 *187:88 0.000545958
12 *187:68 0.0010986
13 *187:52 0.00175484
14 *187:31 0.000822011
15 *187:27 0.00115796
16 *187:8 0.000523902
17 *1357:S *1357:A0 0
18 *1357:S *1357:A1 5.53249e-06
19 *1357:S *1390:A0 0.000162412
20 *1357:S *1421:RESET_B 0
21 *1357:S *194:110 0
22 *1390:S *1390:A0 0.00038879
23 *1390:S *1390:A1 4.82863e-05
24 *1390:S *202:26 1.33285e-05
25 *1392:S *1392:A1 0.000164679
26 *1392:S *203:10 0
27 *1482:A *1312:A2_N 0.000459361
28 *1482:A *1312:B1 0.000122325
29 *1482:A *1358:A1 0
30 *1482:A *1364:A1 0
31 *1482:A *1367:A0 0
32 *1482:A *1397:A1 0
33 *1482:A *1524:A 2.08625e-05
34 *1482:A *195:56 0
35 *1482:A *316:10 0
36 *1502:A *1308:A 3.09179e-05
37 *1502:A *189:30 0
38 *1502:A *195:56 1.94805e-05
39 *187:8 *1457:D 0
40 *187:8 *1483:A 3.05295e-05
41 *187:8 *273:14 4.43871e-06
42 *187:27 *1397:A1 0
43 *187:27 *1457:D 0
44 *187:27 *1483:A 3.23391e-05
45 *187:27 *195:56 0
46 *187:52 *1306:A 1.34361e-05
47 *187:52 *1309:B1 4.31106e-05
48 *187:52 *191:51 7.90356e-06
49 *187:52 *192:117 0
50 *187:52 *316:38 8.28539e-05
51 *187:52 *318:22 8.53113e-06
52 *187:68 *1265:B2 0.000145485
53 *187:68 *1309:A2 0.000123225
54 *187:68 *1359:A1 0.000290973
55 *187:68 *1403:A1 1.47347e-05
56 *187:68 *1451:D 3.39064e-05
57 *187:68 *1463:D 0
58 *187:88 *1288:A 0
59 *187:88 *191:51 0.000158297
60 *187:88 *192:117 0
61 *187:88 *314:14 4.21334e-05
62 *187:101 *1288:A 0
63 *187:101 *1390:A0 1.52184e-05
64 *187:101 *194:110 0
65 *187:101 *314:14 0
66 *1278:B *1482:A 0.000122325
67 *1291:A *187:88 0.000179008
68 *1291:B *187:88 0.000246872
69 *1291:B *187:101 8.83451e-05
70 *1296:D *1502:A 0.00015896
71 *1296:D *187:8 1.95461e-05
72 *1309:B2 *187:52 2.59981e-05
73 *1311:A_N *187:52 0.000122331
74 *1312:A1_N *1482:A 0.000115897
75 *1422:CLK *1482:A 3.47248e-05
76 *1422:D *1482:A 0.000142427
77 *1450:D *1357:S 0
78 *1451:CLK *187:68 0.000288237
79 *1455:CLK *187:52 0.000250248
80 *1455:CLK *187:68 2.39856e-05
81 *1523:A *187:52 0.000504484
82 *182:68 *187:68 7.70758e-05
83 *184:88 *1357:S 0
84 *186:8 *1482:A 0.000160635
85 *186:74 *1390:S 0.000461935
*RES
1 *1483:X *187:8 4.98 
2 *187:8 *1502:A 10.84 
3 *187:8 *187:27 3.42 
4 *187:27 *187:31 4.175 
5 *187:31 *1358:S 1.6 
6 *187:31 *187:52 13.835 
7 *187:52 *187:68 21.315 
8 *187:68 *1403:S 1.6 
9 *187:68 *1392:S 10.01 
10 *187:52 *187:88 5.715 
11 *187:88 *1356:S 3.6 
12 *187:88 *187:101 5.085 
13 *187:101 *1390:S 7.845 
14 *187:101 *1357:S 7.785 
15 *187:27 *1482:A 19.23 
*END

*D_NET *188 0.00956457
*CONN
*I *1369:S I *D sky130_fd_sc_hd__mux2_1
*I *1372:S I *D sky130_fd_sc_hd__mux2_1
*I *1368:S I *D sky130_fd_sc_hd__mux2_1
*I *1483:A I *D sky130_fd_sc_hd__buf_2
*I *1501:A I *D sky130_fd_sc_hd__clkbuf_4
*I *1484:X O *D sky130_fd_sc_hd__clkbuf_2
*CAP
1 *1369:S 0
2 *1372:S 0.000242017
3 *1368:S 0
4 *1483:A 0.00110226
5 *1501:A 0.000144423
6 *1484:X 0
7 *188:59 0.000605191
8 *188:42 0.000789711
9 *188:21 0.00179768
10 *188:4 0.000413303
11 *1372:S *1302:B 0.0001249
12 *1372:S *1372:A0 5.93869e-05
13 *1372:S *1427:D 5.30673e-05
14 *1372:S *194:89 0.000385327
15 *1483:A *1370:A0 8.65961e-05
16 *1483:A *195:56 4.31189e-05
17 *1501:A *1370:S 0.000193571
18 *1501:A *1493:A 0
19 *1501:A *1495:A 0
20 *1501:A *262:119 5.16348e-05
21 *188:21 *192:29 5.20968e-05
22 *188:21 *193:102 1.91597e-05
23 *188:42 *1260:A1 0
24 *188:42 *1305:A2 9.31861e-05
25 *188:42 *1370:A0 0.000169542
26 *188:42 *192:29 0.00031042
27 *188:42 *305:16 0
28 *188:42 *307:23 5.78818e-05
29 *188:59 *1260:C1 0
30 *188:59 *1427:D 0.000134314
31 *188:59 *1427:RESET_B 0
32 *188:59 *194:89 0.000302194
33 *188:59 *305:16 0
34 *1260:B1 *188:42 6.55328e-05
35 *1278:A *188:42 0
36 *1296:A *1483:A 0.000126172
37 *1296:C *1483:A 0.001068
38 *1296:D *1483:A 3.09164e-05
39 *1305:C1 *188:42 0.000128901
40 *1305:C1 *188:59 0.000180193
41 *1317:C *1483:A 1.0418e-05
42 *1484:A *188:21 0.000275553
43 *1527:A *188:59 8.65905e-05
44 *1565:A *188:59 0.000298442
45 *105:12 *188:21 0
46 *176:86 *188:42 0
47 *187:8 *1483:A 3.05295e-05
48 *187:27 *1483:A 3.23391e-05
*RES
1 *1484:X *188:4 1.6 
2 *188:4 *1501:A 8.51 
3 *188:4 *188:21 5.99 
4 *188:21 *1483:A 24.04 
5 *188:21 *188:42 10.56 
6 *188:42 *1368:S 3.6 
7 *188:42 *188:59 11.9 
8 *188:59 *1372:S 7.225 
9 *188:59 *1369:S 1.6 
*END

*D_NET *189 0.0181539
*CONN
*I *1265:B2 I *D sky130_fd_sc_hd__o22a_1
*I *1293:B2 I *D sky130_fd_sc_hd__a22o_1
*I *1294:B2 I *D sky130_fd_sc_hd__o221a_1
*I *1273:B2 I *D sky130_fd_sc_hd__o2bb2a_1
*I *1257:B2 I *D sky130_fd_sc_hd__o22a_1
*I *1268:B2 I *D sky130_fd_sc_hd__a22oi_1
*I *1271:A1 I *D sky130_fd_sc_hd__o221a_1
*I *1280:B2 I *D sky130_fd_sc_hd__a22o_1
*I *1281:B2 I *D sky130_fd_sc_hd__o221a_1
*I *1256:A I *D sky130_fd_sc_hd__nand2_1
*I *1485:X O *D sky130_fd_sc_hd__buf_2
*CAP
1 *1265:B2 0.000924517
2 *1293:B2 8.92697e-05
3 *1294:B2 0
4 *1273:B2 0
5 *1257:B2 4.07412e-05
6 *1268:B2 9.71884e-06
7 *1271:A1 0
8 *1280:B2 2.53657e-05
9 *1281:B2 0.000101866
10 *1256:A 0.000215192
11 *1485:X 0
12 *189:136 0.00118751
13 *189:77 0.000791416
14 *189:63 0.000716226
15 *189:61 0.00135987
16 *189:51 0.00134755
17 *189:30 0.00136328
18 *189:18 0.00138877
19 *189:12 0.000437452
20 *189:4 0.000361803
21 *1256:A *1256:B 1.24244e-05
22 *1256:A *1257:B1 7.23533e-05
23 *1256:A *1260:A1 0
24 *1257:B2 *1253:A 1.51429e-05
25 *1257:B2 *1257:B1 1.08758e-05
26 *1265:B2 *1265:B1 0
27 *1265:B2 *1306:A 0.000157595
28 *1265:B2 *1360:A1 0.000597945
29 *1265:B2 *1397:A0 0.000198934
30 *1265:B2 *1404:A1 1.1561e-05
31 *1265:B2 *191:51 0.000136877
32 *1265:B2 *269:6 3.57349e-05
33 *1265:B2 *318:22 0.000105799
34 *1268:B2 *194:64 4.82919e-05
35 *1268:B2 *299:8 4.82919e-05
36 *1280:B2 *281:66 5.33591e-05
37 *1281:B2 *1281:B1 1.61831e-05
38 *1281:B2 *1380:A1 0.000124895
39 *1281:B2 *281:66 1.05984e-05
40 *1293:B2 *1405:A1 0
41 *1293:B2 *192:87 9.50342e-06
42 *1293:B2 *192:106 1.15399e-05
43 *189:12 *1294:C1 1.22762e-05
44 *189:12 *1360:A0 2.67022e-05
45 *189:12 *1360:A1 0.0001249
46 *189:12 *281:154 1.07655e-05
47 *189:18 *1293:A1 4.8315e-05
48 *189:18 *1294:B1 0
49 *189:18 *1360:A0 0.000101195
50 *189:18 *1560:A 4.99619e-05
51 *189:18 *195:56 0.000200878
52 *189:18 *291:31 4.99619e-05
53 *189:30 *1253:A 8.19902e-05
54 *189:30 *1312:B1 0.000181369
55 *189:30 *1425:RESET_B 0.00017422
56 *189:30 *1457:RESET_B 7.17569e-05
57 *189:30 *191:32 0
58 *189:30 *201:78 5.92849e-05
59 *189:30 *310:8 3.39064e-05
60 *189:30 *310:21 5.12017e-06
61 *189:51 *1253:A 4.00541e-06
62 *189:61 *1257:B1 1.91597e-05
63 *189:61 *1260:C1 4.43682e-05
64 *189:61 *1271:A2 4.43871e-06
65 *189:61 *1446:RESET_B 9.16314e-05
66 *189:61 *1545:A 8.65851e-05
67 *189:61 *257:6 0.000101031
68 *189:61 *299:8 5.58206e-05
69 *189:61 *299:23 2.47173e-05
70 *189:61 *300:10 4.84393e-05
71 *189:63 *1270:B 5.11148e-06
72 *189:63 *1271:A2 7.36562e-05
73 *189:63 *1446:RESET_B 8.53113e-06
74 *189:63 *200:41 0.000114492
75 *189:77 *1269:B 4.66108e-05
76 *189:77 *1270:B 9.23621e-05
77 *189:77 *1271:A2 1.71013e-05
78 *189:77 *190:100 6.77501e-05
79 *189:77 *281:49 0.000556968
80 *189:77 *281:66 2.47079e-05
81 *189:77 *301:16 0.000178034
82 *189:136 *1360:A1 0.000275548
83 *1260:A2 *1257:B2 1.91597e-05
84 *1260:A2 *189:30 1.52623e-05
85 *1260:A2 *189:61 7.02827e-05
86 *1261:A *1256:A 7.23602e-05
87 *1261:B *189:61 0.000118081
88 *1261:C *189:61 4.82863e-05
89 *1267:C *1265:B2 0
90 *1271:B1 *189:77 2.49909e-05
91 *1272:B1 *189:77 1.52776e-05
92 *1272:C1 *189:77 0.000118527
93 *1280:A2 *1281:B2 0.000159225
94 *1282:C_N *1281:B2 8.59023e-05
95 *1282:C_N *189:77 6.30072e-05
96 *1294:A2 *189:18 2.75145e-05
97 *1295:C_N *189:18 0.000108724
98 *1296:D *189:12 0
99 *1300:A_N *189:77 8.8266e-05
100 *1300:B *189:77 8.34985e-05
101 *1300:C *189:77 1.74977e-05
102 *1310:B1 *1265:B2 0.00024846
103 *1316:C1 *189:30 0.000378961
104 *1317:A *189:77 5.83121e-06
105 *1418:CLK *189:30 0
106 *1451:CLK *1265:B2 0.000122685
107 *1455:D *1265:B2 0
108 *1502:A *189:30 0
109 *1546:A *189:61 0.000617721
110 *176:86 *1256:A 4.39001e-05
111 *182:20 *1293:B2 0
112 *182:26 *1293:B2 0
113 *182:26 *189:12 0
114 *183:16 *1256:A 0
115 *183:22 *1256:A 0.000242844
116 *187:68 *1265:B2 0.000145485
*RES
1 *1485:X *189:4 1.6 
2 *189:4 *189:12 6.775 
3 *189:12 *189:18 6.435 
4 *189:18 *189:30 24.73 
5 *189:30 *1256:A 10.475 
6 *189:30 *189:51 0.36 
7 *189:51 *189:61 20.255 
8 *189:61 *189:63 1.635 
9 *189:63 *189:77 21.795 
10 *189:77 *1281:B2 4.84 
11 *189:77 *1280:B2 2.41 
12 *189:63 *1271:A1 3.6 
13 *189:61 *1268:B2 4.05 
14 *189:51 *1257:B2 2.77 
15 *189:18 *1273:B2 1.6 
16 *189:12 *1294:B2 1.6 
17 *189:4 *189:136 2.52 
18 *189:136 *1293:B2 6.98 
19 *189:136 *1265:B2 22.415 
*END

*D_NET *190 0.0157166
*CONN
*I *1290:A1 I *D sky130_fd_sc_hd__o221a_1
*I *1289:A1 I *D sky130_fd_sc_hd__a22o_1
*I *1257:A1 I *D sky130_fd_sc_hd__o22a_1
*I *1272:A1 I *D sky130_fd_sc_hd__o211a_1
*I *1299:A1 I *D sky130_fd_sc_hd__o221a_1
*I *1298:A1 I *D sky130_fd_sc_hd__a22o_1
*I *1268:A1 I *D sky130_fd_sc_hd__a22oi_1
*I *1303:B2 I *D sky130_fd_sc_hd__o2bb2a_1
*I *1286:A1 I *D sky130_fd_sc_hd__a221o_1
*I *1285:A1 I *D sky130_fd_sc_hd__o22ai_1
*I *1486:X O *D sky130_fd_sc_hd__buf_2
*CAP
1 *1290:A1 0.000194233
2 *1289:A1 0
3 *1257:A1 0
4 *1272:A1 0
5 *1299:A1 0.000141831
6 *1298:A1 5.66525e-05
7 *1268:A1 2.70043e-05
8 *1303:B2 1.61545e-05
9 *1286:A1 1.77753e-05
10 *1285:A1 0.000210762
11 *1486:X 0
12 *190:142 0.00116963
13 *190:127 0.00109857
14 *190:100 0.000635959
15 *190:96 0.000707492
16 *190:81 0.000995826
17 *190:58 0.0014826
18 *190:46 0.00156506
19 *190:14 0.000538221
20 *190:4 0.00098394
21 *1268:A1 *1545:A 9.82483e-05
22 *1268:A1 *194:64 0.000161529
23 *1268:A1 *299:8 1.08758e-05
24 *1268:A1 *299:23 5.24047e-05
25 *1285:A1 *1327:A0 0.00016163
26 *1285:A1 *1327:A1 1.47347e-05
27 *1285:A1 *1328:S 4.82863e-05
28 *1285:A1 *1520:A 0.000122337
29 *1285:A1 *295:23 0
30 *1290:A1 *1289:A2 4.66108e-05
31 *1290:A1 *1390:A1 0
32 *1290:A1 *202:28 0.000141606
33 *1290:A1 *311:12 0
34 *1298:A1 *1298:A2 2.75145e-05
35 *1299:A1 *1270:A 0
36 *1299:A1 *1377:A0 2.49909e-05
37 *1299:A1 *193:74 0
38 *1303:B2 *304:25 3.97433e-05
39 *190:14 *1285:A2 0.000114492
40 *190:14 *1286:A2 1.2818e-05
41 *190:14 *1327:A1 3.04507e-05
42 *190:14 *1520:A 8.40213e-05
43 *190:14 *195:44 0.000114924
44 *190:14 *281:139 4.19967e-05
45 *190:46 *1244:A 2.54606e-05
46 *190:46 *191:32 0
47 *190:46 *192:53 3.78094e-05
48 *190:46 *195:44 2.44514e-05
49 *190:46 *291:31 0
50 *190:58 *1305:A2 8.54813e-06
51 *190:58 *304:25 2.66586e-05
52 *190:81 *1371:A0 8.40213e-05
53 *190:81 *1430:D 9.54469e-05
54 *190:81 *1545:A 0.000345638
55 *190:81 *194:64 3.57349e-05
56 *190:96 *1272:A2 0
57 *190:96 *194:64 2.92496e-05
58 *190:96 *200:35 0.000232258
59 *190:96 *281:98 0
60 *190:100 *1269:A 8.40213e-05
61 *190:100 *1269:B 8.40213e-05
62 *190:127 *1494:A 6.57205e-05
63 *190:142 *1365:A1 6.29663e-05
64 *190:142 *1494:A 1.32017e-05
65 *190:142 *305:22 9.47454e-05
66 *1277:A2 *190:46 0.000156907
67 *1277:C1 *190:46 0
68 *1278:B *190:46 6.32345e-05
69 *1278:B *190:127 0.000171562
70 *1278:C *1303:B2 8.65905e-05
71 *1278:C *190:58 0.000123225
72 *1278:C *190:96 3.64998e-06
73 *1278:D *190:46 0.000405063
74 *1278:D *190:127 7.56269e-05
75 *1285:B2 *1285:A1 1.71013e-05
76 *1286:B1 *1285:A1 8.14746e-05
77 *1286:B1 *1286:A1 0
78 *1286:B2 *1285:A1 2.48591e-05
79 *1291:B *1290:A1 1.47256e-05
80 *1303:A1_N *190:58 1.07301e-05
81 *1305:C1 *190:58 8.41015e-06
82 *1305:C1 *190:81 0
83 *1317:D *190:46 0
84 *1367:S *190:127 2.15594e-05
85 *1425:D *190:46 9.30717e-05
86 *1481:A *1290:A1 4.82919e-05
87 *1486:A *190:46 8.65961e-05
88 *1546:A *190:81 4.22429e-05
89 *176:34 *1299:A1 0.00022755
90 *180:10 *190:81 2.87698e-05
91 *180:20 *190:81 0
92 *186:25 *190:127 5.84378e-05
93 *186:25 *190:142 0.000351773
94 *186:40 *190:142 0.000906476
95 *189:77 *190:100 6.77501e-05
*RES
1 *1486:X *190:4 1.6 
2 *190:4 *190:14 9.04 
3 *190:14 *1285:A1 10.475 
4 *190:14 *1286:A1 1.96 
5 *190:4 *190:46 15.1325 
6 *190:46 *190:58 5.69237 
7 *190:58 *1303:B2 2.395 
8 *190:58 *190:81 15.01 
9 *190:81 *1268:A1 3.085 
10 *190:81 *190:96 9.07 
11 *190:96 *190:100 6.675 
12 *190:100 *1298:A1 2.395 
13 *190:100 *1299:A1 8.705 
14 *190:96 *1272:A1 1.6 
15 *190:46 *190:127 3.8025 
16 *190:127 *1257:A1 3.6 
17 *190:127 *190:142 16.595 
18 *190:142 *1289:A1 1.6 
19 *190:142 *1290:A1 9.065 
*END

*D_NET *191 0.0113297
*CONN
*I *1312:B2 I *D sky130_fd_sc_hd__o2bb2a_1
*I *1262:B I *D sky130_fd_sc_hd__nand2_1
*I *1309:A1 I *D sky130_fd_sc_hd__a22o_1
*I *1306:A I *D sky130_fd_sc_hd__or2_1
*I *1265:A2 I *D sky130_fd_sc_hd__o22a_1
*I *1273:A1_N I *D sky130_fd_sc_hd__o2bb2a_1
*I *1276:A1 I *D sky130_fd_sc_hd__o221a_1
*I *1487:X O *D sky130_fd_sc_hd__clkbuf_2
*CAP
1 *1312:B2 2.70619e-05
2 *1262:B 0.000280856
3 *1309:A1 0
4 *1306:A 0.000834078
5 *1265:A2 0
6 *1273:A1_N 1.32798e-05
7 *1276:A1 0.000159725
8 *1487:X 3.98087e-05
9 *191:51 0.000914623
10 *191:47 0.000385949
11 *191:40 0.00132853
12 *191:32 0.00171756
13 *191:10 0.000260635
14 *191:8 0.000513958
15 *1262:B *1262:A 0.000348268
16 *1262:B *1265:A1 2.16917e-05
17 *1262:B *314:14 1.49498e-05
18 *1273:A1_N *291:31 2.36938e-05
19 *1276:A1 *1273:A2_N 0.000344388
20 *1276:A1 *1276:C1 5.83121e-06
21 *1276:A1 *290:28 3.09179e-05
22 *1306:A *1309:B1 5.16418e-05
23 *1306:A *1391:A0 0.000109101
24 *1306:A *1391:S 0.000169473
25 *1306:A *1392:A1 8.31082e-05
26 *1306:A *318:22 9.30717e-05
27 *191:8 *1308:A 2.49909e-05
28 *191:10 *1273:A2_N 5.4003e-05
29 *191:10 *1457:RESET_B 8.21414e-05
30 *191:10 *201:78 4.84393e-05
31 *191:32 *1425:RESET_B 9.29751e-06
32 *191:32 *1457:RESET_B 1.71013e-05
33 *191:40 *1263:A 8.86894e-05
34 *191:40 *1263:B 5.05521e-05
35 *191:40 *1265:A1 2.75145e-05
36 *191:40 *1367:A0 0.000909655
37 *191:40 *1416:D 4.28417e-05
38 *191:40 *316:10 8.57237e-05
39 *191:47 *1265:A1 2.42043e-05
40 *191:51 *314:14 8.53113e-06
41 *1265:B2 *1306:A 0.000157595
42 *1265:B2 *191:51 0.000136877
43 *1266:B1 *191:40 8.40213e-05
44 *1267:A *1262:B 2.29156e-05
45 *1267:B *1262:B 0.000121437
46 *1276:B2 *1276:A1 0
47 *1277:C1 *1276:A1 0.000126561
48 *1278:B *191:32 0
49 *1278:B *191:40 5.58365e-05
50 *1311:C *1306:A 2.15025e-05
51 *1312:A1_N *1312:B2 3.86607e-05
52 *1312:A1_N *191:32 3.31204e-05
53 *1316:B1 *1312:B2 6.28498e-05
54 *1316:B1 *191:32 5.16418e-05
55 *1317:D *191:32 0.000139245
56 *1416:CLK *191:40 0.000124895
57 *1487:A *1276:A1 6.96175e-05
58 *1487:A *191:10 0.000282747
59 *1487:A *191:32 6.45236e-05
60 *1504:A *1306:A 0.000160635
61 *70:39 *191:32 6.28843e-05
62 *176:60 *1276:A1 8.65905e-05
63 *187:52 *1306:A 1.34361e-05
64 *187:52 *191:51 7.90356e-06
65 *187:88 *191:51 0.000158297
66 *189:30 *191:32 0
67 *190:46 *191:32 0
*RES
1 *1487:X *191:8 4.05 
2 *191:8 *191:10 3.42 
3 *191:10 *1276:A1 8.58 
4 *191:10 *1273:A1_N 3.82875 
5 *191:8 *191:32 7.5 
6 *191:32 *191:40 20.855 
7 *191:40 *1265:A2 1.6 
8 *191:40 *191:47 0.45 
9 *191:47 *191:51 4.145 
10 *191:51 *1306:A 15.78 
11 *191:51 *1309:A1 3.6 
12 *191:47 *1262:B 7.39 
13 *191:32 *1312:B2 4.47 
*END

*D_NET *192 0.0154444
*CONN
*I *1292:A I *D sky130_fd_sc_hd__xor2_1
*I *1288:A I *D sky130_fd_sc_hd__xor2_1
*I *1263:B I *D sky130_fd_sc_hd__and2_1
*I *1264:B I *D sky130_fd_sc_hd__nor2_1
*I *1307:A I *D sky130_fd_sc_hd__nor2_1
*I *1275:A I *D sky130_fd_sc_hd__nor2_1
*I *1274:A I *D sky130_fd_sc_hd__and2_1
*I *1259:A I *D sky130_fd_sc_hd__nor2_1
*I *1258:A I *D sky130_fd_sc_hd__and2_1
*I *1242:A I *D sky130_fd_sc_hd__inv_2
*I *1488:X O *D sky130_fd_sc_hd__clkbuf_4
*CAP
1 *1292:A 0
2 *1288:A 0.000854206
3 *1263:B 1.71066e-05
4 *1264:B 2.19121e-05
5 *1307:A 0
6 *1275:A 3.55506e-05
7 *1274:A 0.000141823
8 *1259:A 0.000104361
9 *1258:A 0
10 *1242:A 0.000304862
11 *1488:X 0
12 *192:117 0.000959391
13 *192:106 0.000953583
14 *192:87 0.00105231
15 *192:81 0.000828479
16 *192:70 0.00106951
17 *192:53 0.00116459
18 *192:29 0.000531629
19 *192:8 0.000765995
20 *192:4 0.000642426
21 *1242:A *1287:A2 8.53113e-06
22 *1242:A *1370:S 0
23 *1242:A *1492:A 4.19797e-05
24 *1242:A *1495:A 4.99619e-05
25 *1242:A *262:10 0.000109101
26 *1242:A *262:109 0.000122523
27 *1259:A *1258:B 9.53094e-05
28 *1263:B *1263:A 8.65961e-05
29 *1274:A *1520:A 8.40269e-05
30 *1274:A *1568:A 5.16348e-05
31 *1274:A *292:45 0.000140912
32 *1288:A *1241:A 8.08153e-06
33 *1288:A *194:110 7.38016e-05
34 *1288:A *311:18 2.8185e-05
35 *192:8 *1325:A 4.82919e-05
36 *192:29 *1370:S 0
37 *192:29 *1492:A 1.7396e-05
38 *192:53 *1325:A 0.000124007
39 *192:53 *1568:A 0.000239709
40 *192:53 *204:27 1.68017e-05
41 *192:53 *204:35 0.00035791
42 *192:70 *1520:A 0.000138175
43 *192:70 *292:33 1.56428e-05
44 *192:70 *292:45 8.18041e-05
45 *192:81 *1239:A 4.80285e-05
46 *192:81 *1292:B 3.08151e-05
47 *192:87 *1405:A1 0
48 *192:106 *1241:A 0.000292919
49 *192:106 *1307:B 0
50 *192:106 *1557:A 0.000143746
51 *192:106 *204:27 0.000163474
52 *1260:B1 *1259:A 4.99619e-05
53 *1266:B1 *1288:A 1.34361e-05
54 *1266:B2 *1264:B 5.83121e-06
55 *1266:B2 *1288:A 0.000172838
56 *1266:B2 *192:117 0.000113797
57 *1277:C1 *1274:A 0
58 *1278:D *192:53 0.000239488
59 *1287:B1 *192:53 2.42236e-05
60 *1287:C1 *1274:A 8.53113e-06
61 *1291:A *1288:A 0.000243067
62 *1293:B2 *192:87 9.50342e-06
63 *1293:B2 *192:106 1.15399e-05
64 *1295:A *192:81 0.000158066
65 *1296:B *192:53 7.06865e-05
66 *1296:D *192:81 2.66586e-05
67 *1305:C1 *192:29 0.00020444
68 *1309:B2 *192:106 0
69 *1309:B2 *192:117 2.97004e-06
70 *1310:B1 *192:106 0
71 *1311:A_N *192:106 2.16389e-05
72 *1311:B *192:106 0.000100536
73 *1320:A_N *1274:A 0
74 *1455:CLK *1264:B 4.82919e-05
75 *1474:A *1288:A 1.90762e-05
76 *1523:A *192:106 5.16418e-05
77 *1523:A *192:117 2.05583e-05
78 *67:14 *192:81 0.00042877
79 *69:29 *192:106 0
80 *70:10 *1242:A 0.000505744
81 *70:27 *1242:A 2.75229e-05
82 *71:16 *192:87 0
83 *123:8 *192:53 3.83194e-05
84 *176:10 *1274:A 0.000110315
85 *184:8 *1288:A 0.000198945
86 *187:52 *192:117 0
87 *187:88 *1288:A 0
88 *187:88 *192:117 0
89 *187:101 *1288:A 0
90 *188:21 *192:29 5.20968e-05
91 *188:42 *192:29 0.00031042
92 *190:46 *192:53 3.78094e-05
93 *191:40 *1263:B 5.05521e-05
*RES
1 *1488:X *192:4 1.6 
2 *192:4 *192:8 2.45 
3 *192:8 *1242:A 12.03 
4 *192:8 *192:29 11.03 
5 *192:29 *1258:A 1.6 
6 *192:29 *1259:A 3.805 
7 *192:4 *192:53 14.23 
8 *192:53 *1274:A 9.05 
9 *192:53 *192:70 5.295 
10 *192:70 *1275:A 2.215 
11 *192:70 *192:81 10.38 
12 *192:81 *192:87 4.85 
13 *192:87 *1307:A 3.6 
14 *192:87 *192:106 10.6155 
15 *192:106 *1264:B 4.05 
16 *192:106 *192:117 1.89 
17 *192:117 *1263:B 4.395 
18 *192:117 *1288:A 16.425 
19 *192:81 *1292:A 1.6 
*END

*D_NET *193 0.0168696
*CONN
*I *1308:A I *D sky130_fd_sc_hd__and2_1
*I *1488:A I *D sky130_fd_sc_hd__clkbuf_4
*I *1270:A I *D sky130_fd_sc_hd__nor2_1
*I *1269:A I *D sky130_fd_sc_hd__and2_1
*I *1297:A I *D sky130_fd_sc_hd__xnor2_1
*I *1382:A1 I *D sky130_fd_sc_hd__mux2_1
*I *1279:A I *D sky130_fd_sc_hd__xor2_1
*I *1355:B2 I *D sky130_fd_sc_hd__o2bb2a_1
*I *1489:X O *D sky130_fd_sc_hd__buf_2
*CAP
1 *1308:A 0.00126459
2 *1488:A 0
3 *1270:A 0.000120355
4 *1269:A 4.2547e-05
5 *1297:A 7.25271e-05
6 *1382:A1 0
7 *1279:A 0.000364748
8 *1355:B2 0.000289323
9 *1489:X 8.86139e-05
10 *193:102 0.00207263
11 *193:74 0.000499085
12 *193:68 0.00127768
13 *193:55 0.00092013
14 *193:27 0.000623379
15 *193:21 0.00120321
16 *193:8 0.000608371
17 *1270:A *1271:C1 4.18603e-06
18 *1270:A *1377:A0 0
19 *1279:A *1382:A0 0.00012657
20 *1279:A *1577:A 1.71013e-05
21 *1297:A *194:21 8.5225e-05
22 *1297:A *194:32 2.7881e-05
23 *1308:A *1308:B 4.27071e-05
24 *1308:A *1457:RESET_B 0.000855128
25 *1308:A *204:35 0.000143468
26 *1308:A *204:39 0.000187281
27 *1355:B2 *197:79 0
28 *1355:B2 *197:93 0
29 *193:8 *1489:A 1.83847e-05
30 *193:8 *197:79 2.66586e-05
31 *193:21 *1503:A 0.000118513
32 *193:21 *197:79 0
33 *193:27 *1382:S 0.000279787
34 *193:27 *262:42 7.49327e-05
35 *193:55 *1379:A1 0
36 *193:55 *1438:D 4.66108e-05
37 *193:55 *240:23 0
38 *193:55 *262:36 0.000359568
39 *193:68 *262:36 0.000271308
40 *193:74 *1297:B 5.93844e-05
41 *193:74 *1435:D 8.44437e-05
42 *193:74 *262:28 0
43 *193:102 *1376:A0 2.05056e-05
44 *193:102 *204:39 0.000387896
45 *193:102 *262:28 0.000229825
46 *193:102 *262:36 0.000163204
47 *1282:A *193:55 0.000186201
48 *1296:D *1308:A 0.000605172
49 *1299:A1 *1270:A 0
50 *1299:A1 *193:74 0
51 *1300:A_N *193:74 0
52 *1300:B *1270:A 7.26551e-05
53 *1300:B *193:74 0.000226848
54 *1300:C *193:74 3.31282e-05
55 *1354:A1 *1355:B2 0
56 *1355:A1_N *1355:B2 2.30292e-05
57 *1355:B1 *1355:B2 8.65905e-05
58 *1411:D *1355:B2 0
59 *1441:CLK *193:55 0.000132089
60 *1442:CLK *1279:A 0
61 *1442:D *1279:A 0.000258644
62 *1457:CLK *1308:A 0.000253242
63 *1465:D *193:102 8.53856e-06
64 *1475:A *193:21 0.000162325
65 *1484:A *1308:A 0.000459366
66 *1484:A *193:102 0.0001249
67 *1487:A *1308:A 4.66108e-05
68 *1502:A *1308:A 3.09179e-05
69 *123:8 *1308:A 0.000386608
70 *166:12 *1355:B2 2.7881e-05
71 *176:34 *1297:A 0.000203776
72 *176:34 *193:74 0
73 *177:12 *193:21 0.000131408
74 *177:12 *193:55 8.53113e-06
75 *177:85 *193:55 0.000195238
76 *188:21 *193:102 1.91597e-05
77 *190:100 *1269:A 8.40213e-05
78 *191:8 *1308:A 2.49909e-05
*RES
1 *1489:X *193:8 4.74 
2 *193:8 *1355:B2 7.905 
3 *193:8 *193:21 5.205 
4 *193:21 *193:27 6.77 
5 *193:27 *1279:A 12.74 
6 *193:27 *1382:A1 1.6 
7 *193:21 *193:55 14.78 
8 *193:55 *1297:A 8 
9 *193:55 *193:68 2.52 
10 *193:68 *193:74 8.93 
11 *193:74 *1269:A 4.395 
12 *193:74 *1270:A 6 
13 *193:68 *193:102 14.49 
14 *193:102 *1488:A 1.6 
15 *193:102 *1308:A 29.185 
*END

*D_NET *194 0.0197911
*CONN
*I *1301:A I *D sky130_fd_sc_hd__and2_1
*I *1313:A I *D sky130_fd_sc_hd__nor2_1
*I *1266:A2 I *D sky130_fd_sc_hd__o221a_1
*I *1241:A I *D sky130_fd_sc_hd__inv_2
*I *1314:A I *D sky130_fd_sc_hd__and2_1
*I *1302:A I *D sky130_fd_sc_hd__nor2_1
*I *1299:B2 I *D sky130_fd_sc_hd__o221a_1
*I *1298:B2 I *D sky130_fd_sc_hd__a22o_1
*I *1381:A1 I *D sky130_fd_sc_hd__mux2_1
*I *1348:B2 I *D sky130_fd_sc_hd__o2bb2a_1
*I *1490:X O *D sky130_fd_sc_hd__buf_2
*CAP
1 *1301:A 0
2 *1313:A 0
3 *1266:A2 5.75686e-05
4 *1241:A 0.000485379
5 *1314:A 1.04051e-05
6 *1302:A 0
7 *1299:B2 0
8 *1298:B2 2.12116e-05
9 *1381:A1 0.0004069
10 *1348:B2 0.000336143
11 *1490:X 0.000263794
12 *194:110 0.00182443
13 *194:102 0.00142525
14 *194:89 0.000619656
15 *194:74 0.000715834
16 *194:64 0.00145313
17 *194:43 0.00131596
18 *194:32 0.000374709
19 *194:21 0.00105277
20 *194:8 0.0010055
21 *1241:A *1360:A1 4.82863e-05
22 *1241:A *1391:S 0
23 *1241:A *1404:S 4.66108e-05
24 *1241:A *319:8 3.78981e-05
25 *1266:A2 *1266:C1 0.000123225
26 *1314:A *1313:B 0
27 *194:21 *1438:RESET_B 0.00012039
28 *194:21 *298:10 0.000159964
29 *194:43 *1298:A2 0.000187071
30 *194:64 *1268:B1 4.66108e-05
31 *194:64 *1272:A2 0
32 *194:64 *1298:A2 9.50342e-06
33 *194:64 *1304:C1 4.66108e-05
34 *194:64 *1371:S 0.000162318
35 *194:64 *1375:A0 5.43761e-05
36 *194:64 *1433:RESET_B 8.07616e-05
37 *194:64 *1446:RESET_B 0
38 *194:64 *1531:A 0
39 *194:64 *199:30 8.74088e-05
40 *194:64 *251:10 0.000130714
41 *194:64 *251:41 0
42 *194:64 *281:98 0
43 *194:64 *296:16 4.66108e-05
44 *194:64 *296:18 0.000109009
45 *194:64 *299:8 2.80029e-05
46 *194:64 *300:10 0
47 *194:74 *1301:B 0
48 *194:74 *1304:C1 4.21757e-05
49 *194:74 *199:30 1.08758e-05
50 *194:74 *281:98 0.0001249
51 *194:89 *1314:B 2.75145e-05
52 *194:89 *1369:A0 0.000821928
53 *194:89 *1369:A1 0.000153474
54 *194:89 *1372:A0 0.000161529
55 *194:102 *1313:B 0
56 *194:102 *1314:B 0.000239813
57 *194:102 *309:14 0.000174857
58 *194:110 *1313:B 5.4155e-06
59 *194:110 *1362:A0 0.000270415
60 *1266:A1 *1266:A2 1.85674e-05
61 *1266:B1 *1241:A 0.000140905
62 *1266:B2 *1241:A 3.21271e-05
63 *1268:A1 *194:64 0.000161529
64 *1268:B2 *194:64 4.82919e-05
65 *1288:A *1241:A 8.08153e-06
66 *1288:A *194:110 7.38016e-05
67 *1296:C *1241:A 0.000271006
68 *1296:C *1266:A2 2.88598e-05
69 *1297:A *194:21 8.5225e-05
70 *1297:A *194:32 2.7881e-05
71 *1298:B1 *1298:B2 4.82863e-05
72 *1299:B1 *194:32 0
73 *1299:B1 *194:43 0
74 *1304:A2 *194:74 1.52184e-05
75 *1304:B1 *194:74 0.000124895
76 *1304:B2 *194:74 0.000116151
77 *1315:A2 *194:110 8.8266e-05
78 *1315:B1 *194:89 0.000162476
79 *1315:B1 *194:102 0.000279787
80 *1348:A2_N *1348:B2 5.21046e-05
81 *1357:S *194:110 0
82 *1372:S *194:89 0.000385327
83 *1410:D *1348:B2 3.26822e-05
84 *1424:CLK *194:89 8.45564e-05
85 *1450:D *194:110 6.47516e-05
86 *1466:A *1381:A1 0.000611593
87 *1480:A *194:89 3.53577e-05
88 *1480:A *194:102 1.12578e-05
89 *1480:A *194:110 0
90 *1523:A *1241:A 0.000201407
91 *1527:A *194:89 0.000119482
92 *78:8 *194:32 0
93 *146:88 *1348:B2 8.65905e-05
94 *176:34 *194:21 0.000116551
95 *176:34 *194:32 0.000136991
96 *176:34 *194:43 8.09021e-06
97 *180:64 *194:74 0
98 *184:10 *1241:A 4.06643e-05
99 *184:10 *194:110 6.74403e-05
100 *184:32 *194:110 5.93844e-05
101 *184:47 *194:110 0.000149376
102 *184:88 *194:110 0.000209179
103 *187:101 *194:110 0
104 *188:59 *194:89 0.000302194
105 *190:81 *194:64 3.57349e-05
106 *190:96 *194:64 2.92496e-05
107 *192:106 *1241:A 0.000292919
*RES
1 *1490:X *194:8 6.465 
2 *194:8 *1348:B2 9.6 
3 *194:8 *194:21 9.03 
4 *194:21 *1381:A1 9.225 
5 *194:21 *194:32 4.695 
6 *194:32 *1298:B2 4.05 
7 *194:32 *194:43 2.4 
8 *194:43 *1299:B2 3.6 
9 *194:43 *194:64 23.895 
10 *194:64 *194:74 9.19 
11 *194:74 *1302:A 1.6 
12 *194:74 *194:89 15.525 
13 *194:89 *1314:A 1.96 
14 *194:89 *194:102 5.31 
15 *194:102 *194:110 24.425 
16 *194:110 *1241:A 15.42 
17 *194:110 *1266:A2 5.1 
18 *194:102 *1313:A 1.6 
19 *194:64 *1301:A 1.6 
*END

*D_NET *195 0.00920795
*CONN
*I *1277:A1 I *D sky130_fd_sc_hd__o211a_1
*I *1289:B2 I *D sky130_fd_sc_hd__a22o_1
*I *1290:B2 I *D sky130_fd_sc_hd__o221a_1
*I *1283:A I *D sky130_fd_sc_hd__or2_1
*I *1284:A I *D sky130_fd_sc_hd__nand2_1
*I *1491:X O *D sky130_fd_sc_hd__dlymetal6s2s_1
*CAP
1 *1277:A1 0
2 *1289:B2 0
3 *1290:B2 0.000249494
4 *1283:A 0.000185298
5 *1284:A 0.000188333
6 *1491:X 0
7 *195:56 0.00159253
8 *195:44 0.00159352
9 *195:14 0.000651977
10 *195:4 0.000528825
11 *1284:A *1284:B 0
12 *1284:A *197:24 9.19758e-05
13 *1284:A *197:35 3.29725e-05
14 *1284:A *281:23 5.42473e-05
15 *1290:B2 *1362:A0 2.75229e-05
16 *1290:B2 *202:26 0
17 *195:14 *1284:B 0
18 *195:14 *1285:A2 4.16353e-05
19 *195:14 *1407:RESET_B 4.1235e-05
20 *195:14 *1491:A 0.000321399
21 *195:14 *1558:A 6.95065e-05
22 *195:14 *197:35 3.57924e-05
23 *195:14 *262:119 0.000159957
24 *195:14 *294:10 1.38178e-05
25 *195:56 *1312:A2_N 0
26 *195:56 *1364:A1 0
27 *195:56 *1560:A 3.83041e-05
28 *195:56 *291:31 0.000343555
29 *195:56 *308:12 0
30 *195:56 *310:8 0
31 *195:56 *310:21 0
32 *1277:B1 *195:44 1.85674e-05
33 *1277:B1 *195:56 1.87448e-05
34 *1286:B1 *1283:A 0.000138799
35 *1286:B2 *1284:A 5.05437e-05
36 *1287:B1 *195:14 0.000188892
37 *1287:B1 *195:44 0.000348699
38 *1289:B1 *1290:B2 9.54469e-05
39 *1289:B1 *195:56 4.82863e-05
40 *1290:B1 *1290:B2 6.75777e-05
41 *1296:D *195:56 0.000416694
42 *1316:C1 *195:56 0
43 *1418:CLK *195:56 7.73943e-05
44 *1422:D *195:56 0.000139245
45 *1474:A *1290:B2 7.21296e-06
46 *1474:A *195:56 0
47 *1482:A *195:56 0
48 *1483:A *195:56 4.31189e-05
49 *1486:A *195:44 6.52366e-05
50 *1486:A *195:56 0.000207969
51 *1502:A *195:56 1.94805e-05
52 *1521:A *1284:A 3.00381e-05
53 *67:14 *195:56 0.000230429
54 *176:86 *195:56 0.000199833
55 *186:40 *195:56 0.000184866
56 *186:59 *1290:B2 0
57 *186:74 *1290:B2 8.73389e-06
58 *187:27 *195:56 0
59 *189:18 *195:56 0.000200878
60 *190:14 *195:44 0.000114924
61 *190:46 *195:44 2.44514e-05
*RES
1 *1491:X *195:4 1.6 
2 *195:4 *195:14 9.365 
3 *195:14 *1284:A 8.07 
4 *195:14 *1283:A 6.135 
5 *195:4 *195:44 6.105 
6 *195:44 *195:56 32.11 
7 *195:56 *1290:B2 9.425 
8 *195:56 *1289:B2 1.6 
9 *195:44 *1277:A1 1.6 
*END

*D_NET *196 0.00104891
*CONN
*I *1499:A I *D sky130_fd_sc_hd__dlymetal6s2s_1
*I *1573:X O *D sky130_fd_sc_hd__clkbuf_1
*CAP
1 *1499:A 0.000524456
2 *1573:X 0.000524456
3 *1499:A *1511:A 0
*RES
1 *1573:X *1499:A 15.21 
*END

*D_NET *197 0.0132483
*CONN
*I *1407:RESET_B I *D sky130_fd_sc_hd__dfrtp_1
*I *1438:RESET_B I *D sky130_fd_sc_hd__dfrtp_1
*I *1439:RESET_B I *D sky130_fd_sc_hd__dfrtp_1
*I *1442:RESET_B I *D sky130_fd_sc_hd__dfrtp_1
*I *1413:RESET_B I *D sky130_fd_sc_hd__dfrtp_2
*I *1412:RESET_B I *D sky130_fd_sc_hd__dfrtp_2
*I *1411:RESET_B I *D sky130_fd_sc_hd__dfrtp_1
*I *1429:RESET_B I *D sky130_fd_sc_hd__dfrtp_1
*I *1408:RESET_B I *D sky130_fd_sc_hd__dfrtp_1
*I *1409:RESET_B I *D sky130_fd_sc_hd__dfrtp_4
*I *1492:X O *D sky130_fd_sc_hd__clkbuf_4
*CAP
1 *1407:RESET_B 7.33089e-05
2 *1438:RESET_B 0.000188187
3 *1439:RESET_B 1.79211e-05
4 *1442:RESET_B 0.000489613
5 *1413:RESET_B 4.58825e-05
6 *1412:RESET_B 0.000113621
7 *1411:RESET_B 1.17451e-05
8 *1429:RESET_B 0.00021361
9 *1408:RESET_B 0
10 *1409:RESET_B 0.00024859
11 *1492:X 0.000213343
12 *197:93 0.000690399
13 *197:79 0.000929614
14 *197:61 0.000625555
15 *197:59 0.000808069
16 *197:55 0.000414676
17 *197:51 0.00132667
18 *197:35 0.00123303
19 *197:24 0.000372752
20 *197:12 0.000710181
21 *1407:RESET_B *1327:A0 0.000158297
22 *1407:RESET_B *262:119 0.000149766
23 *1407:RESET_B *294:10 7.81924e-05
24 *1429:RESET_B *1503:A 0.000201503
25 *1438:RESET_B *1379:A0 0
26 *1442:RESET_B *1438:D 8.30853e-06
27 *1442:RESET_B *262:42 0.000160658
28 *197:12 *1341:B2 0.000108039
29 *197:12 *1492:A 0
30 *197:12 *198:44 0
31 *197:12 *281:23 1.22676e-05
32 *197:24 *1328:A1 0.000138551
33 *197:24 *1328:S 4.03082e-05
34 *197:24 *1492:A 0
35 *197:24 *281:23 0
36 *197:35 *1327:A0 9.37731e-05
37 *197:35 *1328:S 5.18922e-05
38 *197:35 *262:119 5.23362e-05
39 *197:51 *1321:B 0.000201508
40 *197:51 *1514:A 0.000238919
41 *197:51 *1525:A 4.66108e-05
42 *197:51 *262:119 2.49909e-05
43 *197:59 *1439:D 2.49909e-05
44 *197:79 *1439:D 9.21008e-05
45 *197:79 *1489:A 8.57024e-05
46 *197:93 *1346:A 0
47 *197:93 *289:10 0.000157595
48 *1284:A *197:24 9.19758e-05
49 *1284:A *197:35 3.29725e-05
50 *1286:B1 *197:51 0.000180766
51 *1286:C1 *197:24 0
52 *1352:A2 *197:93 1.79098e-05
53 *1352:A3 *197:93 0.000120186
54 *1355:A2_N *197:93 0.000249914
55 *1355:B2 *197:79 0
56 *1355:B2 *197:93 0
57 *1407:D *197:51 0.000389572
58 *1411:D *197:93 3.50033e-05
59 *1412:D *1412:RESET_B 2.65337e-05
60 *1413:D *197:93 0
61 *1435:CLK *1438:RESET_B 2.40101e-05
62 *1435:CLK *1442:RESET_B 3.96653e-05
63 *1460:D *197:12 2.77183e-05
64 *1465:D *197:51 0.000288552
65 *1475:A *1429:RESET_B 1.03833e-05
66 *1475:A *197:61 1.31646e-05
67 *1475:A *197:79 4.19884e-05
68 *1521:A *197:12 0.000119277
69 *1521:A *197:24 9.37731e-05
70 *1570:A *197:24 4.05674e-06
71 *11:29 *1412:RESET_B 0
72 *11:29 *197:93 0
73 *147:29 *1413:RESET_B 2.56899e-05
74 *166:12 *197:93 0
75 *177:12 *1442:RESET_B 5.21545e-05
76 *177:12 *197:61 2.97004e-06
77 *177:29 *1429:RESET_B 0.000227403
78 *177:85 *1442:RESET_B 7.21296e-06
79 *177:89 *1442:RESET_B 4.82919e-05
80 *193:8 *197:79 2.66586e-05
81 *193:21 *197:79 0
82 *194:21 *1438:RESET_B 0.00012039
83 *195:14 *1407:RESET_B 4.1235e-05
84 *195:14 *197:35 3.57924e-05
*RES
1 *1492:X *197:12 10.58 
2 *197:12 *1409:RESET_B 3.1575 
3 *197:12 *197:24 7.325 
4 *197:24 *1408:RESET_B 2 
5 *197:24 *197:35 2.955 
6 *197:35 *197:51 20.06 
7 *197:51 *197:55 1.5 
8 *197:55 *197:59 6.245 
9 *197:59 *197:61 0.4875 
10 *197:61 *1429:RESET_B 6.875 
11 *197:61 *197:79 8.8325 
12 *197:79 *1411:RESET_B 0.3975 
13 *197:79 *197:93 11.855 
14 *197:93 *1412:RESET_B 3.7775 
15 *197:93 *1413:RESET_B 2.7425 
16 *197:59 *1442:RESET_B 9.8675 
17 *197:55 *1439:RESET_B 0.3075 
18 *197:51 *1438:RESET_B 7.8175 
19 *197:35 *1407:RESET_B 4.6325 
*END

*D_NET *198 0.0074581
*CONN
*I *1465:RESET_B I *D sky130_fd_sc_hd__dfrtp_1
*I *1435:RESET_B I *D sky130_fd_sc_hd__dfrtp_1
*I *1461:RESET_B I *D sky130_fd_sc_hd__dfrtp_2
*I *1460:RESET_B I *D sky130_fd_sc_hd__dfrtp_4
*I *1459:RESET_B I *D sky130_fd_sc_hd__dfrtp_4
*I *1410:RESET_B I *D sky130_fd_sc_hd__dfrtp_1
*I *1458:RESET_B I *D sky130_fd_sc_hd__dfrtp_1
*I *1493:X O *D sky130_fd_sc_hd__buf_2
*CAP
1 *1465:RESET_B 0
2 *1435:RESET_B 0.000205336
3 *1461:RESET_B 2.03241e-05
4 *1460:RESET_B 4.92669e-05
5 *1459:RESET_B 0.000245219
6 *1410:RESET_B 0.000228654
7 *1458:RESET_B 2.35888e-05
8 *1493:X 8.31183e-05
9 *198:50 0.000470149
10 *198:44 0.000848674
11 *198:32 0.00120029
12 *198:28 0.000524286
13 *198:20 0.000390932
14 *198:10 0.000450461
15 *1410:RESET_B *282:10 7.94673e-05
16 *1435:RESET_B *1376:A0 2.20732e-05
17 *1435:RESET_B *1539:A 4.65515e-05
18 *1435:RESET_B *281:33 0
19 *1459:RESET_B *285:10 0.000200615
20 *1459:RESET_B *286:10 0.000239813
21 *198:10 *200:12 9.5433e-05
22 *198:10 *262:10 0
23 *198:20 *1491:A 8.07842e-05
24 *198:20 *1495:A 0
25 *198:20 *200:12 8.6099e-05
26 *198:20 *262:10 7.45968e-05
27 *198:20 *262:119 0
28 *198:20 *281:33 0
29 *198:20 *294:10 0
30 *198:32 *1408:D 0
31 *198:32 *1491:A 6.95422e-05
32 *198:32 *1525:A 4.61744e-05
33 *198:32 *281:33 0
34 *198:32 *282:10 5.21627e-05
35 *198:44 *1284:B 8.53113e-06
36 *198:44 *1341:B2 0.000143501
37 *198:44 *1408:D 0.000117436
38 *198:44 *281:23 7.97852e-05
39 *1400:A2 *198:44 6.68849e-05
40 *1400:A2 *198:50 8.53113e-06
41 *1407:CLK *1458:RESET_B 4.31698e-05
42 *1407:CLK *198:20 4.47209e-05
43 *1410:CLK *1410:RESET_B 0.000195674
44 *1460:D *198:44 0
45 *1460:D *198:50 0
46 *1461:D *1461:RESET_B 5.20923e-05
47 *1465:D *1435:RESET_B 0.00010596
48 *1465:D *198:32 0.000202102
49 *1466:A *198:10 4.66108e-05
50 *146:23 *1461:RESET_B 3.21052e-05
51 *146:46 *198:44 0.000160651
52 *146:52 *198:44 0
53 *146:78 *198:44 0
54 *176:28 *1458:RESET_B 7.81924e-05
55 *176:28 *198:20 0.000238543
56 *178:8 *198:32 0
57 *197:12 *198:44 0
*RES
1 *1493:X *198:10 5.175 
2 *198:10 *198:20 9.95 
3 *198:20 *1458:RESET_B 0.7425 
4 *198:20 *198:28 2 
5 *198:28 *198:32 8.735 
6 *198:32 *1410:RESET_B 4.5375 
7 *198:32 *198:44 14.855 
8 *198:44 *198:50 4.34 
9 *198:50 *1459:RESET_B 5.2275 
10 *198:50 *1460:RESET_B 0.7575 
11 *198:44 *1461:RESET_B 2.7425 
12 *198:28 *1435:RESET_B 5.5025 
13 *198:10 *1465:RESET_B 2 
*END

*D_NET *199 0.0131498
*CONN
*I *1427:RESET_B I *D sky130_fd_sc_hd__dfrtp_1
*I *1434:RESET_B I *D sky130_fd_sc_hd__dfrtp_1
*I *1437:RESET_B I *D sky130_fd_sc_hd__dfrtp_1
*I *1445:RESET_B I *D sky130_fd_sc_hd__dfrtp_1
*I *1436:RESET_B I *D sky130_fd_sc_hd__dfrtp_1
*I *1440:RESET_B I *D sky130_fd_sc_hd__dfrtp_1
*I *1441:RESET_B I *D sky130_fd_sc_hd__dfrtp_1
*I *1443:RESET_B I *D sky130_fd_sc_hd__dfrtp_1
*I *1444:RESET_B I *D sky130_fd_sc_hd__dfrtp_1
*I *1426:RESET_B I *D sky130_fd_sc_hd__dfrtp_1
*I *1494:X O *D sky130_fd_sc_hd__clkbuf_4
*CAP
1 *1427:RESET_B 0.000306498
2 *1434:RESET_B 4.0652e-05
3 *1437:RESET_B 0.000446175
4 *1445:RESET_B 9.04212e-05
5 *1436:RESET_B 0
6 *1440:RESET_B 0
7 *1441:RESET_B 0.000255913
8 *1443:RESET_B 0.000521925
9 *1444:RESET_B 0.000393242
10 *1426:RESET_B 0.000219194
11 *1494:X 0
12 *199:100 0.000900988
13 *199:64 0.000444851
14 *199:62 0.000544041
15 *199:36 0.000432348
16 *199:30 0.00207713
17 *199:6 0.00193506
18 *199:4 0.000474903
19 *1426:RESET_B *1260:C1 0.000248254
20 *1426:RESET_B *1387:S 0
21 *1426:RESET_B *1426:D 0.000118513
22 *1427:RESET_B *1260:C1 0
23 *1437:RESET_B *1299:C1 7.95799e-05
24 *1437:RESET_B *1377:A0 2.43413e-05
25 *1437:RESET_B *272:12 2.67022e-05
26 *1441:RESET_B *1380:A0 0.000141606
27 *1441:RESET_B *1380:S 0
28 *1441:RESET_B *1567:A 0
29 *1443:RESET_B *1299:C1 0
30 *1443:RESET_B *1547:A 0.000103192
31 *1443:RESET_B *210:10 2.40185e-05
32 *1444:RESET_B *1385:A1 0.000573277
33 *1444:RESET_B *1547:A 0.000385011
34 *1444:RESET_B *210:10 0.000166561
35 *1445:RESET_B *251:96 6.90457e-05
36 *199:6 *281:107 0.000349592
37 *199:30 *1301:B 4.9968e-05
38 *199:30 *1304:C1 0.000239012
39 *199:30 *1372:A1 3.8923e-05
40 *199:30 *1385:A0 8.52003e-06
41 *199:30 *281:98 1.97758e-05
42 *199:30 *281:107 0.000198186
43 *199:36 *1385:A0 3.1562e-06
44 *199:36 *1385:A1 8.73389e-06
45 *199:36 *251:87 4.71215e-05
46 *199:36 *251:96 1.08056e-05
47 *199:62 *1281:C1 0
48 *199:64 *1281:C1 0
49 *199:64 *1380:A0 0.000251595
50 *199:100 *1299:C1 0
51 *199:100 *251:87 7.06865e-05
52 *1304:B1 *199:30 2.96334e-05
53 *1434:D *1434:RESET_B 0.000122797
54 *1436:D *199:64 0
55 *1445:CLK *199:100 0
56 *1446:CLK *199:100 7.06865e-05
57 *179:23 *1434:RESET_B 9.10527e-05
58 *179:23 *199:100 0.000268765
59 *179:38 *1443:RESET_B 8.07616e-05
60 *179:38 *199:62 4.82883e-05
61 *180:64 *1426:RESET_B 0
62 *188:59 *1427:RESET_B 0
63 *194:64 *199:30 8.74088e-05
64 *194:74 *199:30 1.08758e-05
*RES
1 *1494:X *199:4 1.6 
2 *199:4 *199:6 3.21 
3 *199:6 *1426:RESET_B 8.3425 
4 *199:6 *199:30 22.855 
5 *199:30 *199:36 3.665 
6 *199:36 *1444:RESET_B 9.2975 
7 *1444:RESET_B *1443:RESET_B 7.54 
8 *1443:RESET_B *199:62 7.6325 
9 *199:62 *199:64 3.93 
10 *199:64 *1441:RESET_B 6.44 
11 *199:64 *1440:RESET_B 2 
12 *199:62 *1436:RESET_B 2 
13 *199:36 *1445:RESET_B 3.635 
14 *199:30 *199:100 12.24 
15 *199:100 *1437:RESET_B 9.3425 
16 *199:100 *1434:RESET_B 3.4325 
17 *199:4 *1427:RESET_B 8.5825 
*END

*D_NET *200 0.00733365
*CONN
*I *1428:RESET_B I *D sky130_fd_sc_hd__dfrtp_1
*I *1430:RESET_B I *D sky130_fd_sc_hd__dfrtp_1
*I *1447:RESET_B I *D sky130_fd_sc_hd__dfrtp_1
*I *1431:RESET_B I *D sky130_fd_sc_hd__dfrtp_1
*I *1446:RESET_B I *D sky130_fd_sc_hd__dfrtp_1
*I *1433:RESET_B I *D sky130_fd_sc_hd__dfrtp_1
*I *1432:RESET_B I *D sky130_fd_sc_hd__dfrtp_1
*I *1495:X O *D sky130_fd_sc_hd__buf_2
*CAP
1 *1428:RESET_B 0.000124202
2 *1430:RESET_B 1.76069e-05
3 *1447:RESET_B 0.000447604
4 *1431:RESET_B 1.85291e-05
5 *1446:RESET_B 0.000731693
6 *1433:RESET_B 3.09503e-05
7 *1432:RESET_B 0
8 *1495:X 0.000286252
9 *200:64 0.000852582
10 *200:41 0.000623497
11 *200:35 0.000419823
12 *200:26 0.000403835
13 *200:12 0.000659376
14 *1430:RESET_B *302:8 4.11729e-05
15 *1446:RESET_B *1271:C1 0
16 *1446:RESET_B *1304:C1 0
17 *1446:RESET_B *1375:A0 0.000211562
18 *1446:RESET_B *1377:A0 0
19 *1446:RESET_B *1512:A 0
20 *1446:RESET_B *1531:A 4.11112e-05
21 *1446:RESET_B *300:10 0.000139927
22 *1447:RESET_B *1512:A 0
23 *200:12 *1370:S 0
24 *200:12 *1493:A 9.60974e-05
25 *200:12 *1495:A 6.36578e-05
26 *200:12 *262:10 4.99619e-05
27 *200:12 *262:87 0
28 *200:26 *1432:D 0
29 *200:26 *245:12 2.65028e-05
30 *200:26 *301:16 0
31 *200:35 *1272:A2 9.78647e-05
32 *200:35 *245:12 4.9653e-05
33 *200:35 *281:98 0
34 *200:35 *301:16 0
35 *200:41 *1270:B 4.43871e-06
36 *200:41 *1271:A2 6.97118e-05
37 *200:41 *1377:A0 0
38 *200:41 *302:8 8.65905e-05
39 *200:64 *1301:B 9.50342e-06
40 *200:64 *1372:A0 4.99619e-05
41 *200:64 *1512:A 0
42 *200:64 *237:10 0
43 *200:64 *303:10 0.000131408
44 *1317:A *1428:RESET_B 7.17635e-05
45 *1317:A *200:12 1.67513e-05
46 *1317:A *200:26 0.000197388
47 *1428:D *200:12 0.000116158
48 *1431:CLK *1431:RESET_B 4.24575e-05
49 *1431:D *200:64 0
50 *1432:CLK *200:26 0.000212471
51 *1447:CLK *1447:RESET_B 3.70009e-05
52 *1447:D *1447:RESET_B 0.000116716
53 *180:20 *200:12 2.86623e-05
54 *189:61 *1446:RESET_B 9.16314e-05
55 *189:63 *1446:RESET_B 8.53113e-06
56 *189:63 *200:41 0.000114492
57 *190:96 *200:35 0.000232258
58 *194:64 *1433:RESET_B 8.07616e-05
59 *194:64 *1446:RESET_B 0
60 *198:10 *200:12 9.5433e-05
61 *198:20 *200:12 8.6099e-05
*RES
1 *1495:X *200:12 12.02 
2 *200:12 *200:26 7.79 
3 *200:26 *1432:RESET_B 2 
4 *200:26 *200:35 6.185 
5 *200:35 *200:41 6.245 
6 *200:41 *1433:RESET_B 2.7425 
7 *200:41 *1446:RESET_B 10.52 
8 *1446:RESET_B *200:64 8.6075 
9 *200:64 *1431:RESET_B 2.3975 
10 *200:64 *1447:RESET_B 8.9975 
11 *200:35 *1430:RESET_B 0.3975 
12 *200:12 *1428:RESET_B 2.1225 
*END

*D_NET *201 0.0144023
*CONN
*I *1451:RESET_B I *D sky130_fd_sc_hd__dfrtp_1
*I *1452:RESET_B I *D sky130_fd_sc_hd__dfrtp_1
*I *1417:RESET_B I *D sky130_fd_sc_hd__dfrtp_1
*I *1462:RESET_B I *D sky130_fd_sc_hd__dfrtp_1
*I *1419:RESET_B I *D sky130_fd_sc_hd__dfrtp_1
*I *1457:RESET_B I *D sky130_fd_sc_hd__dfrtp_1
*I *1418:RESET_B I *D sky130_fd_sc_hd__dfrtp_1
*I *1406:RESET_B I *D sky130_fd_sc_hd__dfrtp_1
*I *1454:RESET_B I *D sky130_fd_sc_hd__dfrtp_1
*I *1453:RESET_B I *D sky130_fd_sc_hd__dfrtp_1
*I *1496:X O *D sky130_fd_sc_hd__clkbuf_4
*CAP
1 *1451:RESET_B 0.000418858
2 *1452:RESET_B 5.23e-06
3 *1417:RESET_B 1.77753e-05
4 *1462:RESET_B 0.000191667
5 *1419:RESET_B 1.77753e-05
6 *1457:RESET_B 0.000645724
7 *1418:RESET_B 0
8 *1406:RESET_B 6.67254e-05
9 *1454:RESET_B 0.000123971
10 *1453:RESET_B 0.000428549
11 *1496:X 0.000365382
12 *201:78 0.000984877
13 *201:62 0.000902178
14 *201:54 0.00106863
15 *201:44 0.000962087
16 *201:34 0.000781091
17 *201:32 0.000578354
18 *201:20 0.000824731
19 *201:12 0.00109883
20 *1406:RESET_B *1326:A0 0
21 *1451:RESET_B *1392:A1 0
22 *1451:RESET_B *1403:A1 0
23 *1451:RESET_B *1463:D 0
24 *1451:RESET_B *203:10 0
25 *1451:RESET_B *267:12 0
26 *1453:RESET_B *292:8 2.75145e-05
27 *1454:RESET_B *273:62 0
28 *1457:RESET_B *1308:B 0
29 *1457:RESET_B *1457:D 8.53856e-06
30 *1457:RESET_B *273:14 8.23457e-05
31 *1462:RESET_B *1243:A 7.91123e-05
32 *1462:RESET_B *1464:RESET_B 0
33 *1462:RESET_B *273:50 0
34 *1462:RESET_B *320:8 6.24871e-05
35 *201:12 *1392:A0 0.000172629
36 *201:12 *1496:A 0.000127485
37 *201:12 *203:22 0.000116067
38 *201:20 *203:10 0
39 *201:20 *267:12 0
40 *201:32 *1555:A 2.40712e-05
41 *201:32 *290:22 0
42 *201:44 *1361:A1 0
43 *201:44 *273:50 0.000124753
44 *201:44 *290:22 0.000396577
45 *201:44 *292:33 0
46 *201:62 *1245:A 1.79483e-05
47 *201:78 *1245:A 0.000135916
48 *201:78 *1273:A2_N 0.000463829
49 *201:78 *1276:C1 0
50 *201:78 *290:22 7.06865e-05
51 *201:78 *292:33 0.000159964
52 *201:78 *324:19 0
53 *1308:A *1457:RESET_B 0.000855128
54 *1320:A_N *1406:RESET_B 0.000119862
55 *1320:A_N *1454:RESET_B 0.000237687
56 *1419:CLK *201:44 6.6925e-05
57 *1452:D *201:32 9.50342e-06
58 *1453:CLK *1419:RESET_B 0
59 *1453:CLK *1453:RESET_B 0.000101847
60 *1457:CLK *1457:RESET_B 0.000128084
61 *1462:D *201:32 0.000158297
62 *1464:D *201:44 9.50342e-06
63 *1516:A *201:62 1.92979e-05
64 *1516:A *201:78 0.000128483
65 *1556:A *1452:RESET_B 1.95248e-05
66 *1556:A *201:20 9.53803e-05
67 *1556:A *201:32 6.97118e-05
68 *67:14 *201:78 4.40725e-05
69 *181:14 *1453:RESET_B 0.000162208
70 *181:14 *201:54 4.11729e-05
71 *181:24 *1406:RESET_B 0
72 *181:24 *1454:RESET_B 0
73 *182:20 *1457:RESET_B 0.000184858
74 *182:70 *201:32 0
75 *182:76 *201:32 0.00011964
76 *189:30 *1457:RESET_B 7.17569e-05
77 *189:30 *201:78 5.92849e-05
78 *191:10 *1457:RESET_B 8.21414e-05
79 *191:10 *201:78 4.84393e-05
80 *191:32 *1457:RESET_B 1.71013e-05
*RES
1 *1496:X *201:12 11.07 
2 *201:12 *201:20 6.26 
3 *201:20 *201:32 11.545 
4 *201:32 *201:34 0.795 
5 *201:34 *201:44 15.235 
6 *201:44 *1453:RESET_B 7.9125 
7 *1453:RESET_B *201:54 2.3975 
8 *201:54 *201:62 2.26103 
9 *201:62 *1454:RESET_B 4.7825 
10 *201:62 *1406:RESET_B 3.5075 
11 *201:54 *201:78 9.54 
12 *201:78 *1418:RESET_B 2 
13 *201:78 *1457:RESET_B 17.0975 
14 *201:44 *1419:RESET_B 0.3075 
15 *201:34 *1462:RESET_B 7.3225 
16 *201:32 *1417:RESET_B 0.3075 
17 *201:20 *1452:RESET_B 0.3975 
18 *201:12 *1451:RESET_B 8.735 
*END

*D_NET *202 0.015794
*CONN
*I *1448:RESET_B I *D sky130_fd_sc_hd__dfrtp_1
*I *1424:RESET_B I *D sky130_fd_sc_hd__dfrtp_1
*I *1449:RESET_B I *D sky130_fd_sc_hd__dfrtp_1
*I *1415:RESET_B I *D sky130_fd_sc_hd__dfrtp_1
*I *1420:RESET_B I *D sky130_fd_sc_hd__dfrtp_1
*I *1423:RESET_B I *D sky130_fd_sc_hd__dfrtp_1
*I *1425:RESET_B I *D sky130_fd_sc_hd__dfrtp_1
*I *1422:RESET_B I *D sky130_fd_sc_hd__dfrtp_1
*I *1416:RESET_B I *D sky130_fd_sc_hd__dfrtp_1
*I *1414:RESET_B I *D sky130_fd_sc_hd__dfrtp_1
*I *1497:X O *D sky130_fd_sc_hd__clkbuf_4
*CAP
1 *1448:RESET_B 0.000598995
2 *1424:RESET_B 0.00118802
3 *1449:RESET_B 0.000748478
4 *1415:RESET_B 0.000377148
5 *1420:RESET_B 0.000332583
6 *1423:RESET_B 0
7 *1425:RESET_B 0.000419593
8 *1422:RESET_B 0.000145746
9 *1416:RESET_B 0.000221237
10 *1414:RESET_B 0.000654024
11 *1497:X 0.00031125
12 *202:95 0.000699314
13 *202:69 0.001374
14 *202:53 0.00122816
15 *202:28 0.000631691
16 *202:26 0.000711368
17 *1414:RESET_B *1535:A 0.000482937
18 *1415:RESET_B *1363:A0 0.000465398
19 *1416:RESET_B *1263:A 0
20 *1416:RESET_B *1288:B 1.0183e-05
21 *1416:RESET_B *1358:A1 0
22 *1416:RESET_B *316:10 2.54151e-05
23 *1420:RESET_B *1390:A1 0
24 *1422:RESET_B *1522:A 0.000123225
25 *1422:RESET_B *1524:A 4.46293e-05
26 *1422:RESET_B *234:8 0.00015896
27 *1422:RESET_B *313:8 0.00015896
28 *1424:RESET_B *1255:A 0.000161837
29 *1424:RESET_B *1290:C1 6.02811e-05
30 *1425:RESET_B *1312:B1 0.000332802
31 *1449:RESET_B *1255:A 4.57347e-05
32 *1449:RESET_B *1290:C1 8.07616e-05
33 *1449:RESET_B *1390:A1 8.59365e-05
34 *1449:RESET_B *1541:A 1.74678e-05
35 *1449:RESET_B *331:6 4.82919e-05
36 *202:26 *1390:A0 0.00046451
37 *202:26 *1390:A1 0.000163199
38 *202:26 *315:29 6.28765e-05
39 *202:26 *332:16 0.000116158
40 *202:28 *1288:B 4.41468e-05
41 *202:28 *1290:A2 8.71001e-05
42 *202:28 *1390:A1 0
43 *202:28 *311:12 0
44 *202:28 *311:18 0.000114753
45 *202:53 *1390:A1 0
46 *202:69 *1254:A 4.49498e-05
47 *202:95 *1390:A1 0.000410799
48 *202:95 *1553:A 4.19884e-05
49 *202:95 *311:12 2.45182e-05
50 *1290:A1 *202:28 0.000141606
51 *1290:B1 *202:26 0
52 *1290:B2 *202:26 0
53 *1291:C_N *202:26 0.000842413
54 *1312:A1_N *1425:RESET_B 0.000178314
55 *1316:C1 *1425:RESET_B 5.93674e-05
56 *1316:C1 *202:69 8.60914e-05
57 *1367:S *1425:RESET_B 0
58 *1390:S *202:26 1.33285e-05
59 *1395:S *202:26 4.66108e-05
60 *1414:CLK *1414:RESET_B 8.49205e-05
61 *1420:CLK *202:69 9.27764e-05
62 *1421:CLK *1449:RESET_B 0
63 *1421:CLK *202:95 0
64 *1423:D *1425:RESET_B 0
65 *1448:D *1448:RESET_B 2.65337e-05
66 *1450:CLK *1420:RESET_B 0
67 *1455:CLK *1416:RESET_B 0
68 *1554:A *1420:RESET_B 4.54719e-05
69 *1554:A *202:53 7.06865e-05
70 *70:39 *1425:RESET_B 0.000113797
71 *183:16 *202:69 0
72 *183:79 *202:69 3.22936e-05
73 *184:10 *1416:RESET_B 0
74 *184:10 *202:28 0
75 *184:88 *202:95 0
76 *186:25 *1425:RESET_B 0
77 *186:59 *202:28 9.3062e-06
78 *186:59 *202:53 4.47504e-06
79 *186:74 *202:26 0.000243057
80 *189:30 *1425:RESET_B 0.00017422
81 *191:32 *1425:RESET_B 9.29751e-06
*RES
1 *1497:X *1414:RESET_B 8.5825 
2 *1414:RESET_B *202:26 18.21 
3 *202:26 *202:28 5.97 
4 *202:28 *1416:RESET_B 5.465 
5 *202:28 *1422:RESET_B 5.5025 
6 *202:26 *202:53 1.935 
7 *202:53 *202:69 20.21 
8 *202:69 *1425:RESET_B 11.54 
9 *202:69 *1423:RESET_B 2 
10 *202:53 *1420:RESET_B 4.7525 
11 *1420:RESET_B *202:95 6.695 
12 *202:95 *1415:RESET_B 7.3475 
13 *202:95 *1449:RESET_B 5.2475 
14 *1449:RESET_B *1424:RESET_B 9.945 
15 *1424:RESET_B *1448:RESET_B 7.635 
*END

*D_NET *203 0.0111492
*CONN
*I *1421:RESET_B I *D sky130_fd_sc_hd__dfrtp_1
*I *1450:RESET_B I *D sky130_fd_sc_hd__dfrtp_1
*I *1456:RESET_B I *D sky130_fd_sc_hd__dfrtp_1
*I *1497:A I *D sky130_fd_sc_hd__clkbuf_4
*I *1455:RESET_B I *D sky130_fd_sc_hd__dfrtp_1
*I *1496:A I *D sky130_fd_sc_hd__clkbuf_4
*I *1463:RESET_B I *D sky130_fd_sc_hd__dfrtp_1
*I *1464:RESET_B I *D sky130_fd_sc_hd__dfrtp_1
*I *1498:X O *D sky130_fd_sc_hd__buf_2
*CAP
1 *1421:RESET_B 0.000453331
2 *1450:RESET_B 0.000720322
3 *1456:RESET_B 0.000693734
4 *1497:A 0
5 *1455:RESET_B 7.83262e-05
6 *1496:A 0.000233445
7 *1463:RESET_B 6.63949e-06
8 *1464:RESET_B 0.000262661
9 *1498:X 0
10 *203:60 0.000677973
11 *203:50 0.000727781
12 *203:22 0.0011353
13 *203:10 0.00134301
14 *203:6 0.00064179
15 *1421:RESET_B *1357:A0 0.000139933
16 *1421:RESET_B *1357:A1 0
17 *1421:RESET_B *1390:A0 0
18 *1421:RESET_B *1510:A 6.18754e-05
19 *1421:RESET_B *1541:A 5.05437e-05
20 *1421:RESET_B *253:10 0.000239813
21 *1421:RESET_B *315:23 0
22 *1421:RESET_B *332:16 3.05373e-05
23 *1450:RESET_B *332:8 5.30732e-05
24 *1455:RESET_B *1309:A2 0.000120741
25 *1455:RESET_B *317:23 3.66286e-05
26 *1455:RESET_B *318:20 7.44217e-05
27 *1456:RESET_B *1396:A0 7.00889e-06
28 *1456:RESET_B *1563:A 8.65905e-05
29 *1456:RESET_B *315:23 0
30 *1456:RESET_B *318:8 0
31 *1456:RESET_B *318:20 0.000164679
32 *1463:RESET_B *321:10 1.81873e-05
33 *1463:RESET_B *322:12 1.08758e-05
34 *1464:RESET_B *1243:A 0
35 *1464:RESET_B *1292:B 4.66108e-05
36 *1464:RESET_B *1359:A0 0
37 *1464:RESET_B *273:42 6.44307e-05
38 *1464:RESET_B *273:50 6.57201e-05
39 *1464:RESET_B *322:12 0.000112349
40 *203:10 *1392:A1 0
41 *203:10 *1511:A 0
42 *203:10 *204:10 6.55406e-05
43 *203:22 *1392:A0 0.000203178
44 *203:22 *1463:D 3.83995e-05
45 *203:22 *321:10 2.46265e-06
46 *203:50 *1306:B 0.0001274
47 *203:50 *1392:A1 0
48 *203:50 *1571:A 0
49 *203:50 *204:10 2.68721e-05
50 *203:50 *204:27 2.28346e-05
51 *203:50 *318:20 9.84957e-05
52 *203:60 *1306:B 1.07797e-05
53 *203:60 *1548:A 0.000167716
54 *203:60 *318:20 0.000704453
55 *1357:S *1421:RESET_B 0
56 *1392:S *203:10 0
57 *1414:CLK *1450:RESET_B 8.57226e-05
58 *1414:CLK *1456:RESET_B 0.000111243
59 *1421:CLK *1421:RESET_B 0.000187738
60 *1451:RESET_B *203:10 0
61 *1452:D *203:22 0.000387902
62 *1456:D *1456:RESET_B 0
63 *1462:RESET_B *1464:RESET_B 0
64 *1463:CLK *203:22 8.57834e-05
65 *1472:A *1464:RESET_B 0.00011686
66 *184:62 *1450:RESET_B 0.000103971
67 *201:12 *1496:A 0.000127485
68 *201:12 *203:22 0.000116067
69 *201:20 *203:10 0
*RES
1 *1498:X *203:6 3.6 
2 *203:6 *203:10 6.185 
3 *203:10 *203:22 13.47 
4 *203:22 *1464:RESET_B 9.415 
5 *203:22 *1463:RESET_B 0.3975 
6 *203:10 *1496:A 4.825 
7 *203:6 *203:50 7.245 
8 *203:50 *1455:RESET_B 4.1225 
9 *203:50 *203:60 8.01 
10 *203:60 *1497:A 3.6 
11 *203:60 *1456:RESET_B 14.31 
12 *1456:RESET_B *1450:RESET_B 4.95 
13 *1450:RESET_B *1421:RESET_B 14.1175 
*END

*D_NET *204 0.0171554
*CONN
*I *1494:A I *D sky130_fd_sc_hd__clkbuf_4
*I *1492:A I *D sky130_fd_sc_hd__clkbuf_4
*I *1493:A I *D sky130_fd_sc_hd__buf_2
*I *1495:A I *D sky130_fd_sc_hd__buf_2
*I *1498:A I *D sky130_fd_sc_hd__buf_2
*I *1499:X O *D sky130_fd_sc_hd__dlymetal6s2s_1
*CAP
1 *1494:A 0.000812585
2 *1492:A 0.000818917
3 *1493:A 0.000110007
4 *1495:A 0.000128621
5 *1498:A 0
6 *1499:X 8.60775e-05
7 *204:39 0.000351926
8 *204:35 0.00104513
9 *204:27 0.00418455
10 *204:10 0.00334512
11 *1492:A *1285:A2 6.81237e-05
12 *1492:A *1287:A2 5.65549e-05
13 *1492:A *1454:D 0.00013687
14 *1492:A *1558:A 0.000116165
15 *1492:A *281:139 0
16 *1492:A *293:10 7.3664e-05
17 *1492:A *293:19 8.07863e-05
18 *1492:A *295:8 2.23407e-05
19 *1492:A *295:23 6.28843e-05
20 *1493:A *1370:S 0
21 *1494:A *1257:B1 0.0002459
22 *1494:A *1260:A1 0
23 *1494:A *1315:A1 9.66021e-05
24 *1494:A *305:22 4.49939e-05
25 *1494:A *306:14 4.8866e-05
26 *1495:A *262:10 2.75229e-05
27 *204:10 *1392:A1 6.73665e-05
28 *204:27 *1392:A1 1.09018e-05
29 *204:27 *281:139 0.000269538
30 *204:35 *1325:A 3.74161e-05
31 *204:39 *1325:A 0.000500239
32 *1242:A *1492:A 4.19797e-05
33 *1242:A *1495:A 4.99619e-05
34 *1278:D *1494:A 0.000528562
35 *1286:B2 *1492:A 0.000305694
36 *1286:C1 *1492:A 3.47754e-05
37 *1296:A *1494:A 0.000176284
38 *1296:B *1494:A 4.9968e-05
39 *1296:B *204:27 9.30717e-05
40 *1296:C *1494:A 5.13155e-05
41 *1308:A *204:35 0.000143468
42 *1308:A *204:39 0.000187281
43 *1318:A *1492:A 7.67634e-05
44 *1320:A_N *1492:A 0
45 *1425:CLK *1494:A 0.000311102
46 *1501:A *1493:A 0
47 *1501:A *1495:A 0
48 *1521:A *1492:A 0
49 *123:8 *204:35 0.000230435
50 *176:10 *1492:A 0
51 *176:10 *1494:A 2.86895e-05
52 *176:10 *204:27 6.90476e-05
53 *176:86 *1494:A 0
54 *181:37 *1492:A 8.68803e-05
55 *183:22 *1494:A 0.000543056
56 *190:127 *1494:A 6.57205e-05
57 *190:142 *1494:A 1.32017e-05
58 *192:29 *1492:A 1.7396e-05
59 *192:53 *204:27 1.68017e-05
60 *192:53 *204:35 0.00035791
61 *192:106 *204:27 0.000163474
62 *193:102 *204:39 0.000387896
63 *197:12 *1492:A 0
64 *197:24 *1492:A 0
65 *198:20 *1495:A 0
66 *200:12 *1493:A 9.60974e-05
67 *200:12 *1495:A 6.36578e-05
68 *203:10 *204:10 6.55406e-05
69 *203:50 *204:10 2.68721e-05
70 *203:50 *204:27 2.28346e-05
*RES
1 *1499:X *204:10 5.94 
2 *204:10 *1498:A 3.6 
3 *204:10 *204:27 8.33527 
4 *204:27 *204:35 6.365 
5 *204:35 *204:39 7.28 
6 *204:39 *1495:A 6.195 
7 *204:39 *1493:A 5.745 
8 *204:35 *1492:A 23 
9 *204:27 *1494:A 24.165 
*END

*D_NET *205 0.000405327
*CONN
*I *1439:D I *D sky130_fd_sc_hd__dfrtp_1
*I *1503:X O *D sky130_fd_sc_hd__dlygate4sd3_1
*CAP
1 *1439:D 0.000119653
2 *1503:X 0.000119653
3 *1475:A *1439:D 4.89295e-05
4 *197:59 *1439:D 2.49909e-05
5 *197:79 *1439:D 9.21008e-05
*RES
1 *1503:X *1439:D 9.225 
*END

*D_NET *206 0.000697411
*CONN
*I *1321:B I *D sky130_fd_sc_hd__and2b_1
*I *1458:D I *D sky130_fd_sc_hd__dfrtp_1
*I *1514:X O *D sky130_fd_sc_hd__dlygate4sd3_1
*CAP
1 *1321:B 5.74495e-05
2 *1458:D 0.000142576
3 *1514:X 0
4 *206:4 0.000200025
5 *1458:CLK *1458:D 2.75145e-05
6 *1465:D *1321:B 4.99619e-05
7 *176:28 *1458:D 1.83756e-05
8 *197:51 *1321:B 0.000201508
*RES
1 *1514:X *206:4 1.6 
2 *206:4 *1458:D 7.685 
3 *206:4 *1321:B 3.43 
*END

*D_NET *207 0.000254054
*CONN
*I *1429:D I *D sky130_fd_sc_hd__dfrtp_1
*I *1574:X O *D sky130_fd_sc_hd__clkbuf_1
*CAP
1 *1429:D 0.000101627
2 *1574:X 0.000101627
3 *1574:A *1429:D 4.05358e-05
4 *177:29 *1429:D 1.0263e-05
*RES
1 *1574:X *1429:D 8.67375 
*END

*D_NET *208 0.000203068
*CONN
*I *1321:A_N I *D sky130_fd_sc_hd__and2b_1
*I *1525:X O *D sky130_fd_sc_hd__dlygate4sd3_1
*CAP
1 *1321:A_N 6.54164e-05
2 *1525:X 6.54164e-05
3 *1465:D *1321:A_N 7.22354e-05
*RES
1 *1525:X *1321:A_N 4.34 
*END

*D_NET *209 0.000226114
*CONN
*I *1249:A I *D sky130_fd_sc_hd__inv_2
*I *1536:X O *D sky130_fd_sc_hd__dlygate4sd3_1
*CAP
1 *1249:A 3.3641e-05
2 *1536:X 3.3641e-05
3 *1249:A *1337:B1 7.22354e-05
4 *1249:A *1351:A 8.65961e-05
*RES
1 *1536:X *1249:A 4.34 
*END

*D_NET *210 0.00178605
*CONN
*I *1384:A1 I *D sky130_fd_sc_hd__mux2_1
*I *1383:A I *D sky130_fd_sc_hd__or2_1
*I *1547:X O *D sky130_fd_sc_hd__dlygate4sd3_1
*CAP
1 *1384:A1 6.1902e-05
2 *1383:A 0.000517414
3 *1547:X 0.000191685
4 *210:10 0.000771001
5 *1384:A1 *1507:A 0
6 *1443:RESET_B *210:10 2.40185e-05
7 *1444:CLK *1383:A 5.34747e-05
8 *1444:RESET_B *210:10 0.000166561
*RES
1 *1547:X *210:10 4.585 
2 *210:10 *1383:A 7.585 
3 *210:10 *1384:A1 6.47 
*END

*D_NET *211 0.000999552
*CONN
*I *1327:A0 I *D sky130_fd_sc_hd__mux2_1
*I *1558:X O *D sky130_fd_sc_hd__dlygate4sd3_1
*CAP
1 *1327:A0 0.000157592
2 *1558:X 0.000157592
3 *1327:A0 *1327:A1 4.66108e-05
4 *1327:A0 *1328:S 2.59981e-05
5 *1327:A0 *262:119 7.20581e-05
6 *1327:A0 *295:8 0
7 *1285:A1 *1327:A0 0.00016163
8 *1285:B2 *1327:A0 4.19797e-05
9 *1286:B1 *1327:A0 8.40213e-05
10 *1407:RESET_B *1327:A0 0.000158297
11 *197:35 *1327:A0 9.37731e-05
*RES
1 *1558:X *1327:A0 11.925 
*END

*D_NET *212 0.00124005
*CONN
*I *1394:A0 I *D sky130_fd_sc_hd__mux2_1
*I *1569:X O *D sky130_fd_sc_hd__dlygate4sd3_1
*CAP
1 *1394:A0 0.000300592
2 *1569:X 0.000300592
3 *1394:A0 *1245:A 0
4 *1394:A0 *1326:A1 0.000227218
5 *1394:A0 *1394:A1 4.07182e-05
6 *1394:A0 *1394:S 0.000197264
7 *1394:A0 *324:19 1.44259e-05
8 *181:18 *1394:A0 2.49909e-05
9 *181:24 *1394:A0 0.000134245
*RES
1 *1569:X *1394:A0 13.77 
*END

*D_NET *213 0.000465193
*CONN
*I *1454:D I *D sky130_fd_sc_hd__dfrtp_1
*I *1570:X O *D sky130_fd_sc_hd__dlygate4sd3_1
*CAP
1 *1454:D 0.00011302
2 *1570:X 0.00011302
3 *1320:A_N *1454:D 0
4 *1492:A *1454:D 0.00013687
5 *1570:A *1454:D 4.82863e-05
6 *181:37 *1454:D 5.39961e-05
*RES
1 *1570:X *1454:D 9.63 
*END

*D_NET *214 0.00210236
*CONN
*I *1392:A1 I *D sky130_fd_sc_hd__mux2_1
*I *1391:A0 I *D sky130_fd_sc_hd__mux2_1
*I *1571:X O *D sky130_fd_sc_hd__dlygate4sd3_1
*CAP
1 *1392:A1 0.00044428
2 *1391:A0 6.23531e-05
3 *1571:X 0
4 *214:4 0.000506633
5 *1391:A0 *1391:S 5.77162e-05
6 *1392:A1 *1403:A1 0
7 *1392:A1 *1571:A 0.000114492
8 *1306:A *1391:A0 0.000109101
9 *1306:A *1392:A1 8.31082e-05
10 *1311:C *1391:A0 0.000353831
11 *1311:C *1392:A1 0.000127897
12 *1392:S *1392:A1 0.000164679
13 *1451:RESET_B *1392:A1 0
14 *203:10 *1392:A1 0
15 *203:50 *1392:A1 0
16 *204:10 *1392:A1 6.73665e-05
17 *204:27 *1392:A1 1.09018e-05
*RES
1 *1571:X *214:4 1.6 
2 *214:4 *1391:A0 4.81 
3 *214:4 *1392:A1 15.44 
*END

*D_NET *215 0.00054155
*CONN
*I *1451:D I *D sky130_fd_sc_hd__dfrtp_1
*I *1504:X O *D sky130_fd_sc_hd__dlygate4sd3_1
*CAP
1 *1451:D 0.000173504
2 *1504:X 0.000173504
3 *1451:D *1403:A1 0
4 *1311:C *1451:D 0.000160635
5 *187:68 *1451:D 3.39064e-05
*RES
1 *1504:X *1451:D 9.81 
*END

*D_NET *216 0.000425109
*CONN
*I *1393:A0 I *D sky130_fd_sc_hd__mux2_1
*I *1505:X O *D sky130_fd_sc_hd__dlygate4sd3_1
*CAP
1 *1393:A0 8.3179e-05
2 *1505:X 8.3179e-05
3 *1393:A0 *1393:A1 3.00381e-05
4 *1393:A0 *1393:S 2.49909e-05
5 *1393:A0 *273:50 0.000160635
6 *1393:A0 *290:22 4.30866e-05
*RES
1 *1505:X *1393:A0 5.375 
*END

*D_NET *217 0.000912208
*CONN
*I *1453:D I *D sky130_fd_sc_hd__dfrtp_1
*I *1506:X O *D sky130_fd_sc_hd__dlygate4sd3_1
*CAP
1 *1453:D 0.000311859
2 *1506:X 0.000311859
3 *1453:D *1393:S 7.30547e-05
4 *1453:D *273:54 9.30717e-05
5 *1453:D *292:33 8.03844e-05
6 *181:12 *1453:D 4.19797e-05
*RES
1 *1506:X *1453:D 12.195 
*END

*D_NET *218 0.00304448
*CONN
*I *1561:A I *D sky130_fd_sc_hd__dlygate4sd3_1
*I *1575:A I *D sky130_fd_sc_hd__buf_2
*I *1250:A I *D sky130_fd_sc_hd__inv_2
*I *1440:Q O *D sky130_fd_sc_hd__dfrtp_1
*CAP
1 *1561:A 0.000258084
2 *1575:A 0.000429316
3 *1250:A 5.02911e-05
4 *1440:Q 4.08925e-05
5 *218:19 0.000851606
6 *218:6 0.000255389
7 *1561:A *1281:C1 0.000192862
8 *1561:A *1299:C1 7.44375e-05
9 *1561:A *296:16 0.000310864
10 *1575:A *1377:A0 0.000122642
11 *1575:A *1377:S 0.000124895
12 *218:19 *1281:C1 9.37731e-05
13 *218:19 *251:45 4.66826e-05
14 *1437:CLK *1575:A 0.00019274
15 *1437:D *218:19 0
*RES
1 *1440:Q *218:6 2.05 
2 *218:6 *1250:A 2.47 
3 *218:6 *218:19 4.265 
4 *218:19 *1575:A 11.22 
5 *218:19 *1561:A 9.21 
*END

*D_NET *219 0.00239342
*CONN
*I *1385:A1 I *D sky130_fd_sc_hd__mux2_1
*I *1384:A0 I *D sky130_fd_sc_hd__mux2_1
*I *1507:X O *D sky130_fd_sc_hd__dlygate4sd3_1
*CAP
1 *1385:A1 0.000338668
2 *1384:A0 8.17363e-05
3 *1507:X 9.3187e-05
4 *219:10 0.000513591
5 *1384:A0 *1383:B 7.60965e-05
6 *1384:A0 *251:100 2.05056e-05
7 *1385:A1 *1299:C1 1.71013e-05
8 *1385:A1 *1385:A0 4.82919e-05
9 *1385:A1 *1507:A 5.20968e-05
10 *1385:A1 *251:100 0.000113255
11 *219:10 *1507:A 6.44307e-05
12 *1444:RESET_B *1385:A1 0.000573277
13 *1445:CLK *1385:A1 0.00011686
14 *1445:D *1385:A1 0.00027559
15 *199:36 *1385:A1 8.73389e-06
*RES
1 *1507:X *219:10 7.49 
2 *219:10 *1384:A0 3.085 
3 *219:10 *1385:A1 14.435 
*END

*D_NET *220 0.00401052
*CONN
*I *1390:A1 I *D sky130_fd_sc_hd__mux2_1
*I *1389:A0 I *D sky130_fd_sc_hd__mux2_1
*I *1508:X O *D sky130_fd_sc_hd__dlygate4sd3_1
*CAP
1 *1390:A1 0.000754495
2 *1389:A0 0.000402768
3 *1508:X 4.43494e-05
4 *220:6 0.00120161
5 *1389:A0 *1255:A 0
6 *1389:A0 *1290:C1 9.37731e-05
7 *1389:A0 *1363:A1 0.00046618
8 *1389:A0 *1508:A 0
9 *1390:A1 *1290:C1 0
10 *1390:A1 *311:12 0
11 *1290:A1 *1390:A1 0
12 *1390:S *1390:A1 4.82863e-05
13 *1420:RESET_B *1390:A1 0
14 *1421:CLK *1390:A1 0
15 *1449:RESET_B *1390:A1 8.59365e-05
16 *1509:A *1389:A0 0
17 *1542:A *1389:A0 0
18 *1542:A *1390:A1 0.000272551
19 *1554:A *1390:A1 0
20 *186:74 *1390:A1 6.65725e-05
21 *186:98 *1390:A1 0
22 *202:26 *1390:A1 0.000163199
23 *202:28 *1390:A1 0
24 *202:53 *1390:A1 0
25 *202:95 *1390:A1 0.000410799
*RES
1 *1508:X *220:6 2.05 
2 *220:6 *1389:A0 13.01 
3 *220:6 *1390:A1 19.745 
*END

*D_NET *221 0.000357802
*CONN
*I *1449:D I *D sky130_fd_sc_hd__dfrtp_1
*I *1509:X O *D sky130_fd_sc_hd__dlygate4sd3_1
*CAP
1 *1449:D 0.000126851
2 *1509:X 0.000126851
3 *1449:CLK *1449:D 1.43521e-05
4 *1509:A *1449:D 8.97486e-05
*RES
1 *1509:X *1449:D 9.54 
*END

*D_NET *222 0.00157439
*CONN
*I *1390:A0 I *D sky130_fd_sc_hd__mux2_1
*I *1510:X O *D sky130_fd_sc_hd__dlygate4sd3_1
*CAP
1 *1390:A0 0.000250632
2 *1510:X 0.000250632
3 *1390:A0 *332:16 0
4 *1357:S *1390:A0 0.000162412
5 *1390:S *1390:A0 0.00038879
6 *1421:RESET_B *1390:A0 0
7 *186:74 *1390:A0 4.21973e-05
8 *187:101 *1390:A0 1.52184e-05
9 *202:26 *1390:A0 0.00046451
*RES
1 *1510:X *1390:A0 15.12 
*END

*D_NET *223 0.000426723
*CONN
*I *1392:A0 I *D sky130_fd_sc_hd__mux2_1
*I *1511:X O *D sky130_fd_sc_hd__dlygate4sd3_1
*CAP
1 *1392:A0 2.54581e-05
2 *1511:X 2.54581e-05
3 *201:12 *1392:A0 0.000172629
4 *203:22 *1392:A0 0.000203178
*RES
1 *1511:X *1392:A0 5.03 
*END

*D_NET *224 0.00173962
*CONN
*I *1387:A1 I *D sky130_fd_sc_hd__mux2_1
*I *1386:A0 I *D sky130_fd_sc_hd__mux2_1
*I *1512:X O *D sky130_fd_sc_hd__dlygate4sd3_1
*CAP
1 *1387:A1 0.000569144
2 *1386:A0 0.000122096
3 *1512:X 0
4 *224:4 0.000691239
5 *1386:A0 *1386:A1 4.99619e-05
6 *1386:A0 *1386:S 8.8266e-05
7 *1387:A1 *1387:A0 4.82919e-05
8 *1387:A1 *1512:A 8.65961e-05
9 *1448:CLK *1387:A1 8.40269e-05
*RES
1 *1512:X *224:4 1.6 
2 *224:4 *1386:A0 3.775 
3 *224:4 *1387:A1 9.985 
*END

*D_NET *225 0.00103439
*CONN
*I *1446:D I *D sky130_fd_sc_hd__dfrtp_1
*I *1513:X O *D sky130_fd_sc_hd__dlygate4sd3_1
*CAP
1 *1446:D 0.000296645
2 *1513:X 0.000296645
3 *1446:D *1385:A0 0
4 *1446:D *1386:A1 0.000132089
5 *1446:D *1386:S 0.000142661
6 *1446:D *327:10 0.000166346
*RES
1 *1513:X *1446:D 12.795 
*END

*D_NET *226 0.000925978
*CONN
*I *1326:A0 I *D sky130_fd_sc_hd__mux2_1
*I *1515:X O *D sky130_fd_sc_hd__dlygate4sd3_1
*CAP
1 *1326:A0 0.000304774
2 *1515:X 0.000304774
3 *1326:A0 *1276:C1 4.66108e-05
4 *1326:A0 *1326:A1 0
5 *1326:A0 *1328:A0 0.000116853
6 *1326:A0 *1328:A1 9.91257e-05
7 *1320:A_N *1326:A0 0
8 *1406:CLK *1326:A0 4.19797e-05
9 *1406:RESET_B *1326:A0 0
10 *176:60 *1326:A0 7.67415e-06
11 *181:24 *1326:A0 4.18603e-06
*RES
1 *1515:X *1326:A0 12.285 
*END

*D_NET *227 0.000218253
*CONN
*I *1406:D I *D sky130_fd_sc_hd__dfrtp_1
*I *1516:X O *D sky130_fd_sc_hd__dlygate4sd3_1
*CAP
1 *1406:D 7.77499e-05
2 *1516:X 7.77499e-05
3 *1286:C1 *1406:D 6.27529e-05
*RES
1 *1516:X *1406:D 4.685 
*END

*D_NET *228 0.00208746
*CONN
*I *1388:A1 I *D sky130_fd_sc_hd__mux2_1
*I *1387:A0 I *D sky130_fd_sc_hd__mux2_1
*I *1517:X O *D sky130_fd_sc_hd__dlygate4sd3_1
*CAP
1 *1388:A1 0.000330554
2 *1387:A0 0.000526895
3 *1517:X 0
4 *228:4 0.000857449
5 *1387:A0 *1260:C1 0.000186092
6 *1387:A1 *1387:A0 4.82919e-05
7 *1448:CLK *1387:A0 0.000138175
*RES
1 *1517:X *228:4 1.6 
2 *228:4 *1387:A0 13.64 
3 *228:4 *1388:A1 6.535 
*END

*D_NET *229 0.00380245
*CONN
*I *1280:B1 I *D sky130_fd_sc_hd__a22o_1
*I *1378:A1 I *D sky130_fd_sc_hd__mux2_1
*I *1281:B1 I *D sky130_fd_sc_hd__o221a_1
*I *1567:A I *D sky130_fd_sc_hd__dlygate4sd3_1
*I *1576:A I *D sky130_fd_sc_hd__buf_2
*I *1441:Q O *D sky130_fd_sc_hd__dfrtp_1
*CAP
1 *1280:B1 9.4762e-05
2 *1378:A1 0
3 *1281:B1 0.000132956
4 *1567:A 0.000189345
5 *1576:A 0.000163013
6 *1441:Q 0
7 *229:57 0.000248802
8 *229:36 0.000650112
9 *229:19 0.000912163
10 *229:4 0.000522715
11 *1280:B1 *1378:A0 2.68464e-05
12 *1281:B1 *1380:A1 1.33293e-05
13 *1281:B1 *281:66 4.66108e-05
14 *1567:A *1381:S 0
15 *229:36 *1380:A1 7.06865e-05
16 *229:36 *1381:S 4.77757e-05
17 *229:57 *1378:A0 2.86975e-05
18 *229:57 *251:45 1.31297e-05
19 *1280:A2 *1281:B1 4.21973e-05
20 *1280:A2 *229:57 8.38498e-06
21 *1281:B2 *1281:B1 1.61831e-05
22 *1441:CLK *1567:A 0
23 *1441:RESET_B *1567:A 0
24 *1466:A *1576:A 5.30673e-05
25 *1466:A *229:19 0.000316024
26 *1466:A *229:36 0.000197571
27 *77:12 *1281:B1 3.60648e-06
28 *77:12 *229:36 4.47504e-06
29 *77:12 *229:57 0
*RES
1 *1441:Q *229:4 1.6 
2 *229:4 *1576:A 8.03 
3 *229:4 *229:19 4.935 
4 *229:19 *1567:A 8.51 
5 *229:19 *229:36 7.3175 
6 *229:36 *1281:B1 6.0225 
7 *229:36 *229:57 4.4975 
8 *229:57 *1378:A1 1.6 
9 *229:57 *1280:B1 7.175 
*END

*D_NET *230 0.000894752
*CONN
*I *1385:A0 I *D sky130_fd_sc_hd__mux2_1
*I *1518:X O *D sky130_fd_sc_hd__dlygate4sd3_1
*CAP
1 *1385:A0 0.000320415
2 *1518:X 0.000320415
3 *1385:A0 *1386:S 6.55406e-05
4 *1385:A0 *251:96 1.1561e-05
5 *1385:A0 *327:10 0
6 *1385:A1 *1385:A0 4.82919e-05
7 *1446:CLK *1385:A0 0.000116853
8 *1446:D *1385:A0 0
9 *199:30 *1385:A0 8.52003e-06
10 *199:36 *1385:A0 3.1562e-06
*RES
1 *1518:X *1385:A0 12.045 
*END

*D_NET *231 0.000114107
*CONN
*I *1388:A0 I *D sky130_fd_sc_hd__mux2_1
*I *1519:X O *D sky130_fd_sc_hd__dlygate4sd3_1
*CAP
1 *1388:A0 5.70533e-05
2 *1519:X 5.70533e-05
3 *1388:A0 *1519:A 0
*RES
1 *1519:X *1388:A0 8.07 
*END

*D_NET *232 0.00174155
*CONN
*I *1328:A0 I *D sky130_fd_sc_hd__mux2_1
*I *1520:X O *D sky130_fd_sc_hd__dlygate4sd3_1
*CAP
1 *1328:A0 0.00051809
2 *1520:X 0.00051809
3 *1328:A0 *1276:A2 0
4 *1328:A0 *292:45 0.000117832
5 *1328:A0 *293:10 5.32978e-05
6 *1276:B2 *1328:A0 0
7 *1286:B2 *1328:A0 0.000138808
8 *1286:C1 *1328:A0 0.000278576
9 *1320:A_N *1328:A0 0
10 *1326:A0 *1328:A0 0.000116853
*RES
1 *1520:X *1328:A0 18.09 
*END

*D_NET *233 0.000987898
*CONN
*I *1408:D I *D sky130_fd_sc_hd__dfrtp_1
*I *1521:X O *D sky130_fd_sc_hd__dlygate4sd3_1
*CAP
1 *1408:D 0.000425288
2 *1521:X 0.000425288
3 *1408:D *1284:B 0
4 *1408:D *1341:B2 1.98869e-05
5 *1408:D *281:33 0
6 *146:78 *1408:D 0
7 *198:32 *1408:D 0
8 *198:44 *1408:D 0.000117436
*RES
1 *1521:X *1408:D 14.145 
*END

*D_NET *234 0.0020352
*CONN
*I *1364:A0 I *D sky130_fd_sc_hd__mux2_1
*I *1358:A1 I *D sky130_fd_sc_hd__mux2_1
*I *1522:X O *D sky130_fd_sc_hd__dlygate4sd3_1
*CAP
1 *1364:A0 0.000177856
2 *1358:A1 0.000205673
3 *1522:X 0.000163613
4 *234:8 0.000547142
5 *1358:A1 *1288:B 4.9968e-05
6 *1358:A1 *1364:A1 4.40899e-05
7 *1358:A1 *1367:A0 3.18219e-05
8 *1358:A1 *316:10 0.000139238
9 *1364:A0 *1288:B 0.000108232
10 *1364:A0 *1364:A1 4.55367e-05
11 *234:8 *1522:A 4.47209e-05
12 *1364:S *1364:A0 0.000155146
13 *1416:RESET_B *1358:A1 0
14 *1422:RESET_B *234:8 0.00015896
15 *1474:A *1364:A0 0.000163204
16 *1482:A *1358:A1 0
*RES
1 *1522:X *234:8 5.775 
2 *234:8 *1358:A1 7.785 
3 *234:8 *1364:A0 8.055 
*END

*D_NET *235 0.000290022
*CONN
*I *1416:D I *D sky130_fd_sc_hd__dfrtp_1
*I *1523:X O *D sky130_fd_sc_hd__dlygate4sd3_1
*CAP
1 *1416:D 2.61341e-05
2 *1523:X 2.61341e-05
3 *1278:B *1416:D 0.000164874
4 *1416:CLK *1416:D 3.00381e-05
5 *191:40 *1416:D 4.28417e-05
*RES
1 *1523:X *1416:D 4.685 
*END

*D_NET *236 0.00332103
*CONN
*I *1364:A1 I *D sky130_fd_sc_hd__mux2_1
*I *1367:A0 I *D sky130_fd_sc_hd__mux2_1
*I *1524:X O *D sky130_fd_sc_hd__dlygate4sd3_1
*CAP
1 *1364:A1 0.000229086
2 *1367:A0 0.000398672
3 *1524:X 3.38648e-05
4 *236:8 0.000661623
5 *1367:A0 *1316:A2 5.78185e-05
6 *1367:A0 *1367:A1 5.53774e-05
7 *1367:A0 *316:10 0.000200615
8 *236:8 *1524:A 4.82919e-05
9 *1278:B *1367:A0 0.000235915
10 *1316:B1 *1367:A0 0.000193806
11 *1358:A1 *1364:A1 4.40899e-05
12 *1358:A1 *1367:A0 3.18219e-05
13 *1364:A0 *1364:A1 4.55367e-05
14 *1367:S *1367:A0 4.99619e-05
15 *1474:A *1364:A1 0.000124895
16 *1482:A *1364:A1 0
17 *1482:A *1367:A0 0
18 *191:40 *1367:A0 0.000909655
19 *195:56 *1364:A1 0
*RES
1 *1524:X *236:8 4.05 
2 *236:8 *1367:A0 16.365 
3 *236:8 *1364:A1 7.23 
*END

*D_NET *237 0.0018851
*CONN
*I *1369:A1 I *D sky130_fd_sc_hd__mux2_1
*I *1372:A0 I *D sky130_fd_sc_hd__mux2_1
*I *1526:X O *D sky130_fd_sc_hd__dlygate4sd3_1
*CAP
1 *1369:A1 0.000211628
2 *1372:A0 0.000201945
3 *1526:X 0.000109278
4 *237:10 0.00052285
5 *1372:A0 *1302:B 0.0001249
6 *237:10 *303:10 0
7 *1304:B2 *1372:A0 8.40213e-05
8 *1372:S *1372:A0 5.93869e-05
9 *180:64 *237:10 0.000206123
10 *194:89 *1369:A1 0.000153474
11 *194:89 *1372:A0 0.000161529
12 *200:64 *1372:A0 4.99619e-05
13 *200:64 *237:10 0
*RES
1 *1526:X *237:10 8 
2 *237:10 *1372:A0 5.845 
3 *237:10 *1369:A1 4.48 
*END

*D_NET *238 0.000899947
*CONN
*I *1427:D I *D sky130_fd_sc_hd__dfrtp_1
*I *1527:X O *D sky130_fd_sc_hd__dlygate4sd3_1
*CAP
1 *1427:D 0.000297598
2 *1527:X 0.000297598
3 *1427:D *1260:C1 0
4 *1427:D *1387:S 6.74079e-05
5 *1372:S *1427:D 5.30673e-05
6 *1527:A *1427:D 4.99619e-05
7 *188:59 *1427:D 0.000134314
*RES
1 *1527:X *1427:D 11.79 
*END

*D_NET *239 0.0012221
*CONN
*I *1375:A1 I *D sky130_fd_sc_hd__mux2_1
*I *1378:A0 I *D sky130_fd_sc_hd__mux2_1
*I *1528:X O *D sky130_fd_sc_hd__dlygate4sd3_1
*CAP
1 *1375:A1 0.000258344
2 *1378:A0 0.000137811
3 *1528:X 0
4 *239:6 0.000396155
5 *1375:A1 *1375:A0 1.52418e-05
6 *1375:A1 *296:16 0.000122083
7 *1378:A0 *251:41 0.000112963
8 *1378:A0 *251:45 0.000123955
9 *1280:B1 *1378:A0 2.68464e-05
10 *1437:D *1375:A1 0
11 *1437:D *1378:A0 0
12 *229:57 *1378:A0 2.86975e-05
*RES
1 *1528:X *239:6 3.6 
2 *239:6 *1378:A0 6.645 
3 *239:6 *1375:A1 7.905 
*END

*D_NET *240 0.00211329
*CONN
*I *1566:A I *D sky130_fd_sc_hd__dlygate4sd3_1
*I *1279:B I *D sky130_fd_sc_hd__xor2_1
*I *1577:A I *D sky130_fd_sc_hd__buf_2
*I *1379:A1 I *D sky130_fd_sc_hd__mux2_1
*I *1442:Q O *D sky130_fd_sc_hd__dfrtp_1
*CAP
1 *1566:A 2.08101e-05
2 *1279:B 0
3 *1577:A 0.000204315
4 *1379:A1 0.000200566
5 *1442:Q 0
6 *240:27 0.00044568
7 *240:23 0.000464786
8 *240:6 0.000403178
9 *1379:A1 *1382:A0 0
10 *1379:A1 *1382:S 5.34747e-05
11 *1379:A1 *262:42 3.45588e-05
12 *240:23 *1382:A0 0
13 *1279:A *1577:A 1.71013e-05
14 *1282:A *240:23 7.35729e-05
15 *1282:A *240:27 0.000195248
16 *1441:CLK *240:23 0
17 *193:55 *1379:A1 0
18 *193:55 *240:23 0
*RES
1 *1442:Q *240:6 3.6 
2 *240:6 *1379:A1 6.3 
3 *240:6 *240:23 5.54 
4 *240:23 *240:27 4.26 
5 *240:27 *1577:A 8.885 
6 *240:27 *1279:B 1.6 
7 *240:23 *1566:A 1.96 
*END

*D_NET *241 0.00147536
*CONN
*I *1405:A1 I *D sky130_fd_sc_hd__mux2_1
*I *1397:A0 I *D sky130_fd_sc_hd__mux2_1
*I *1529:X O *D sky130_fd_sc_hd__dlygate4sd3_1
*CAP
1 *1405:A1 0.000193895
2 *1397:A0 3.35635e-05
3 *1529:X 0
4 *241:4 0.000227459
5 *1397:A0 *1360:A1 0.000198934
6 *1405:A1 *244:10 7.23533e-05
7 *1405:A1 *273:42 0.000437781
8 *1265:B2 *1397:A0 0.000198934
9 *1293:B2 *1405:A1 0
10 *71:16 *1405:A1 0
11 *182:20 *1405:A1 0.000112445
12 *192:87 *1405:A1 0
*RES
1 *1529:X *241:4 1.6 
2 *241:4 *1397:A0 3.43 
3 *241:4 *1405:A1 10.805 
*END

*D_NET *242 0.000552748
*CONN
*I *1457:D I *D sky130_fd_sc_hd__dfrtp_1
*I *1530:X O *D sky130_fd_sc_hd__dlygate4sd3_1
*CAP
1 *1457:D 0.000185263
2 *1530:X 0.000185263
3 *1457:D *1397:A1 8.70878e-05
4 *1296:C *1457:D 8.65961e-05
5 *1457:RESET_B *1457:D 8.53856e-06
6 *187:8 *1457:D 0
7 *187:27 *1457:D 0
*RES
1 *1530:X *1457:D 10.2937 
*END

*D_NET *243 0.0036918
*CONN
*I *1372:A1 I *D sky130_fd_sc_hd__mux2_1
*I *1375:A0 I *D sky130_fd_sc_hd__mux2_1
*I *1531:X O *D sky130_fd_sc_hd__dlygate4sd3_1
*CAP
1 *1372:A1 0.000419846
2 *1375:A0 0.000862301
3 *1531:X 0
4 *243:4 0.00128215
5 *1372:A1 *1301:B 3.4222e-05
6 *1372:A1 *1304:C1 0.000239813
7 *1372:A1 *1512:A 0
8 *1375:A0 *1271:C1 0.000163278
9 *1375:A0 *1375:S 2.68464e-05
10 *1375:A0 *1377:A0 0.000116165
11 *1375:A0 *263:10 0.000136877
12 *1375:A0 *296:16 9.01984e-05
13 *1375:A1 *1375:A0 1.52418e-05
14 *1446:RESET_B *1375:A0 0.000211562
15 *194:64 *1375:A0 5.43761e-05
16 *199:30 *1372:A1 3.8923e-05
*RES
1 *1531:X *243:4 1.6 
2 *243:4 *1375:A0 20.045 
3 *243:4 *1372:A1 11.06 
*END

*D_NET *244 0.00239923
*CONN
*I *1405:A0 I *D sky130_fd_sc_hd__mux2_1
*I *1361:A1 I *D sky130_fd_sc_hd__mux2_1
*I *1532:X O *D sky130_fd_sc_hd__dlygate4sd3_1
*CAP
1 *1405:A0 0
2 *1361:A1 0.000561969
3 *1532:X 9.88561e-05
4 *244:10 0.000660825
5 *1361:A1 *1361:A0 2.30292e-05
6 *1361:A1 *1552:A 0.000393029
7 *1361:A1 *273:42 1.26626e-05
8 *1361:A1 *273:50 0.000122885
9 *244:10 *1292:B 2.75145e-05
10 *244:10 *273:42 2.42236e-05
11 *1405:A1 *244:10 7.23533e-05
12 *1419:D *1361:A1 0.000401879
13 *1464:D *1361:A1 0
14 *71:16 *244:10 0
15 *182:26 *1361:A1 0
16 *182:26 *244:10 0
17 *201:44 *1361:A1 0
*RES
1 *1532:X *244:10 5.43 
2 *244:10 *1361:A1 16.14 
3 *244:10 *1405:A0 3.6 
*END

*D_NET *245 0.00198273
*CONN
*I *1370:A1 I *D sky130_fd_sc_hd__mux2_1
*I *1373:A0 I *D sky130_fd_sc_hd__mux2_1
*I *1533:X O *D sky130_fd_sc_hd__dlygate4sd3_1
*CAP
1 *1370:A1 0.000137111
2 *1373:A0 0
3 *1533:X 0.000240761
4 *245:12 0.000377872
5 *1370:A1 *1370:A0 4.99619e-05
6 *1370:A1 *262:14 7.23635e-05
7 *1370:A1 *262:28 8.8266e-05
8 *245:12 *1432:D 0
9 *245:12 *262:28 4.82919e-05
10 *245:12 *281:33 0
11 *245:12 *281:98 0
12 *1296:A *1370:A1 0.000417001
13 *1466:A *1370:A1 0.000424978
14 *1466:A *245:12 4.99619e-05
15 *200:26 *245:12 2.65028e-05
16 *200:35 *245:12 4.9653e-05
*RES
1 *1533:X *245:12 9.725 
2 *245:12 *1373:A0 1.6 
3 *245:12 *1370:A1 8.035 
*END

*D_NET *246 0.000388194
*CONN
*I *1432:D I *D sky130_fd_sc_hd__dfrtp_1
*I *1534:X O *D sky130_fd_sc_hd__dlygate4sd3_1
*CAP
1 *1432:D 0.000126881
2 *1534:X 0.000126881
3 *1432:D *301:16 4.61658e-05
4 *1296:A *1432:D 8.8266e-05
5 *200:26 *1432:D 0
6 *245:12 *1432:D 0
*RES
1 *1534:X *1432:D 9.375 
*END

*D_NET *247 0.00142024
*CONN
*I *1356:A0 I *D sky130_fd_sc_hd__mux2_1
*I *1395:A1 I *D sky130_fd_sc_hd__mux2_1
*I *1535:X O *D sky130_fd_sc_hd__dlygate4sd3_1
*CAP
1 *1356:A0 0.00032908
2 *1395:A1 0.00012251
3 *1535:X 7.741e-05
4 *247:8 0.000529
5 *1356:A0 *1414:D 4.10476e-05
6 *1395:A1 *1395:A0 5.83121e-06
7 *1395:A1 *259:6 4.66826e-05
8 *1395:S *1395:A1 9.37731e-05
9 *1395:S *247:8 0.000153794
10 *1537:A *1356:A0 2.11084e-05
*RES
1 *1535:X *247:8 5.49 
2 *247:8 *1395:A1 5.52 
3 *247:8 *1356:A0 8.19 
*END

*D_NET *248 0.000409189
*CONN
*I *1414:D I *D sky130_fd_sc_hd__dfrtp_1
*I *1537:X O *D sky130_fd_sc_hd__dlygate4sd3_1
*CAP
1 *1414:D 0.000135994
2 *1537:X 0.000135994
3 *1414:D *315:29 4.91189e-05
4 *1356:A0 *1414:D 4.10476e-05
5 *1395:S *1414:D 4.70343e-05
*RES
1 *1537:X *1414:D 9.72 
*END

*D_NET *249 0.00278906
*CONN
*I *1367:A1 I *D sky130_fd_sc_hd__mux2_1
*I *1370:A0 I *D sky130_fd_sc_hd__mux2_1
*I *1538:X O *D sky130_fd_sc_hd__dlygate4sd3_1
*CAP
1 *1367:A1 0.000208262
2 *1370:A0 0.000437121
3 *1538:X 0
4 *249:4 0.000645382
5 *1370:A0 *1305:A2 7.33703e-05
6 *1370:A0 *1538:A 0.000122337
7 *1370:A0 *307:10 0.000116165
8 *1370:A0 *307:23 2.04411e-05
9 *1278:C *1370:A0 0.000111909
10 *1296:A *1370:A0 0.000216185
11 *1317:B *1370:A0 2.60908e-05
12 *1367:A0 *1367:A1 5.53774e-05
13 *1370:A1 *1370:A0 4.99619e-05
14 *1425:D *1367:A1 8.23457e-05
15 *1466:A *1370:A0 0.000200615
16 *1483:A *1370:A0 8.65961e-05
17 *70:65 *1370:A0 6.26945e-05
18 *105:12 *1370:A0 0.000104662
19 *188:42 *1370:A0 0.000169542
*RES
1 *1538:X *249:4 1.6 
2 *249:4 *1370:A0 17.84 
3 *249:4 *1367:A1 4.855 
*END

*D_NET *250 0.0012214
*CONN
*I *1376:A0 I *D sky130_fd_sc_hd__mux2_1
*I *1539:X O *D sky130_fd_sc_hd__dlygate4sd3_1
*CAP
1 *1376:A0 0.000286245
2 *1539:X 0.000286245
3 *1376:A0 *1539:A 4.82919e-05
4 *1376:A0 *262:28 0.000269057
5 *1376:A0 *262:36 8.8266e-05
6 *1376:A0 *298:21 4.99619e-05
7 *1376:A0 *301:10 1.1561e-05
8 *1435:RESET_B *1376:A0 2.20732e-05
9 *1465:CLK *1376:A0 0.000116165
10 *1540:A *1376:A0 2.30292e-05
11 *193:102 *1376:A0 2.05056e-05
*RES
1 *1539:X *1376:A0 13.185 
*END

*D_NET *251 0.0122122
*CONN
*I *1374:S I *D sky130_fd_sc_hd__mux2_1
*I *1386:S I *D sky130_fd_sc_hd__mux2_1
*I *1384:S I *D sky130_fd_sc_hd__mux2_1
*I *1383:B I *D sky130_fd_sc_hd__or2_1
*I *1385:S I *D sky130_fd_sc_hd__mux2_1
*I *1375:S I *D sky130_fd_sc_hd__mux2_1
*I *1378:S I *D sky130_fd_sc_hd__mux2_1
*I *1377:S I *D sky130_fd_sc_hd__mux2_1
*I *1380:S I *D sky130_fd_sc_hd__mux2_1
*I *1371:S I *D sky130_fd_sc_hd__mux2_1
*I *1500:X O *D sky130_fd_sc_hd__clkbuf_4
*CAP
1 *1374:S 0
2 *1386:S 0.000468478
3 *1384:S 0
4 *1383:B 0.000447972
5 *1385:S 0
6 *1375:S 1.45076e-05
7 *1378:S 0
8 *1377:S 0.000117196
9 *1380:S 0.00021308
10 *1371:S 4.16119e-05
11 *1500:X 0.000283698
12 *251:100 0.000983102
13 *251:96 0.00108253
14 *251:87 0.000293044
15 *251:45 0.000567432
16 *251:41 0.00072935
17 *251:31 0.000586523
18 *251:29 0.000594671
19 *251:23 0.000506634
20 *251:10 0.000531216
21 *1371:S *1374:A0 0.000162318
22 *1375:S *296:16 2.68464e-05
23 *1377:S *1281:C1 0.000158297
24 *1377:S *1377:A0 0.000124895
25 *1377:S *1380:A0 0
26 *1380:S *1281:C1 0.000185398
27 *1380:S *1380:A0 4.92062e-05
28 *1380:S *1380:A1 0.000176836
29 *1386:S *1386:A1 0.000112631
30 *251:10 *1374:A0 2.92496e-05
31 *251:10 *281:98 4.19797e-05
32 *251:23 *1374:A0 0.000500239
33 *251:29 *1374:A0 5.88334e-05
34 *251:41 *1251:A 8.30853e-06
35 *251:41 *1551:A 0
36 *251:41 *296:18 0
37 *251:41 *297:8 0.000104599
38 *1299:B1 *251:41 2.19463e-05
39 *1375:A0 *1375:S 2.68464e-05
40 *1378:A0 *251:41 0.000112963
41 *1378:A0 *251:45 0.000123955
42 *1384:A0 *1383:B 7.60965e-05
43 *1384:A0 *251:100 2.05056e-05
44 *1385:A0 *1386:S 6.55406e-05
45 *1385:A0 *251:96 1.1561e-05
46 *1385:A1 *251:100 0.000113255
47 *1386:A0 *1386:S 8.8266e-05
48 *1433:CLK *251:31 6.28843e-05
49 *1433:CLK *251:41 4.43871e-06
50 *1433:D *251:29 0.000234674
51 *1434:D *251:31 0
52 *1434:D *251:87 0
53 *1441:RESET_B *1380:S 0
54 *1444:D *1383:B 8.31173e-05
55 *1445:RESET_B *251:96 6.90457e-05
56 *1446:CLK *251:87 5.46763e-05
57 *1446:CLK *251:96 0.000187064
58 *1446:D *1386:S 0.000142661
59 *1469:A *251:29 0.000104379
60 *1470:A *251:29 0.000121634
61 *1477:A *251:10 0.000347023
62 *1513:A *1386:S 3.00381e-05
63 *1575:A *1377:S 0.000124895
64 *77:12 *1380:S 0
65 *77:12 *251:45 7.61941e-05
66 *179:8 *251:29 8.65961e-05
67 *179:19 *251:31 1.1561e-05
68 *179:19 *251:87 0.000128197
69 *194:64 *1371:S 0.000162318
70 *194:64 *251:10 0.000130714
71 *194:64 *251:41 0
72 *199:36 *251:87 4.71215e-05
73 *199:36 *251:96 1.08056e-05
74 *199:100 *251:87 7.06865e-05
75 *218:19 *251:45 4.66826e-05
76 *229:57 *251:45 1.31297e-05
*RES
1 *1500:X *251:10 8.445 
2 *251:10 *1371:S 5.49 
3 *251:10 *251:23 6.59 
4 *251:23 *251:29 8.675 
5 *251:29 *251:31 1.635 
6 *251:31 *251:41 9.605 
7 *251:41 *251:45 6.59 
8 *251:45 *1380:S 8.52 
9 *251:45 *1377:S 6.63 
10 *251:41 *1378:S 1.6 
11 *251:31 *1375:S 4.05 
12 *251:29 *251:87 4.995 
13 *251:87 *1385:S 3.6 
14 *251:87 *251:96 2.4 
15 *251:96 *251:100 10.04 
16 *251:100 *1383:B 13.115 
17 *251:100 *1384:S 1.6 
18 *251:96 *1386:S 13.17 
19 *251:23 *1374:S 1.6 
*END

*D_NET *252 0.000537708
*CONN
*I *1435:D I *D sky130_fd_sc_hd__dfrtp_1
*I *1540:X O *D sky130_fd_sc_hd__dlygate4sd3_1
*CAP
1 *1435:D 0.000226632
2 *1540:X 0.000226632
3 *176:34 *1435:D 0
4 *193:74 *1435:D 8.44437e-05
*RES
1 *1540:X *1435:D 11.07 
*END

*D_NET *253 0.00212117
*CONN
*I *1363:A0 I *D sky130_fd_sc_hd__mux2_1
*I *1357:A1 I *D sky130_fd_sc_hd__mux2_1
*I *1541:X O *D sky130_fd_sc_hd__dlygate4sd3_1
*CAP
1 *1363:A0 0.000317024
2 *1357:A1 0.000147117
3 *1541:X 0.000228586
4 *253:10 0.000692727
5 *1357:A1 *1357:A0 0
6 *1357:S *1357:A1 5.53249e-06
7 *1415:D *1357:A1 0
8 *1415:D *1363:A0 2.49755e-05
9 *1415:RESET_B *1363:A0 0.000465398
10 *1421:CLK *1357:A1 0
11 *1421:CLK *253:10 0
12 *1421:RESET_B *1357:A1 0
13 *1421:RESET_B *253:10 0.000239813
14 *184:88 *1357:A1 0
*RES
1 *1541:X *253:10 6.9 
2 *253:10 *1357:A1 6 
3 *253:10 *1363:A0 9.915 
*END

*D_NET *254 0.000630145
*CONN
*I *1421:D I *D sky130_fd_sc_hd__dfrtp_1
*I *1542:X O *D sky130_fd_sc_hd__dlygate4sd3_1
*CAP
1 *1421:D 0.000279277
2 *1542:X 0.000279277
3 *1421:CLK *1421:D 7.15908e-05
*RES
1 *1542:X *1421:D 10.6275 
*END

*D_NET *255 0.000598508
*CONN
*I *1366:A0 I *D sky130_fd_sc_hd__mux2_1
*I *1543:X O *D sky130_fd_sc_hd__dlygate4sd3_1
*CAP
1 *1366:A0 4.45874e-05
2 *1543:X 4.45874e-05
3 *1366:A0 *1389:A1 0.000229825
4 *1366:A0 *330:25 8.8266e-05
5 *186:104 *1366:A0 0.000191243
*RES
1 *1543:X *1366:A0 6.065 
*END

*D_NET *256 0.000450508
*CONN
*I *1424:D I *D sky130_fd_sc_hd__dfrtp_1
*I *1544:X O *D sky130_fd_sc_hd__dlygate4sd3_1
*CAP
1 *1424:D 0.000163068
2 *1544:X 0.000163068
3 *1424:D *1519:A 4.18603e-06
4 *1388:S *1424:D 0.000120186
*RES
1 *1544:X *1424:D 9.72 
*END

*D_NET *257 0.00241978
*CONN
*I *1371:A1 I *D sky130_fd_sc_hd__mux2_1
*I *1374:A0 I *D sky130_fd_sc_hd__mux2_1
*I *1545:X O *D sky130_fd_sc_hd__dlygate4sd3_1
*CAP
1 *1371:A1 0
2 *1374:A0 0.000223503
3 *1545:X 6.17252e-05
4 *257:6 0.000285228
5 *1374:A0 *281:98 0.000101317
6 *257:6 *1545:A 0.000272085
7 *1371:S *1374:A0 0.000162318
8 *1470:A *1374:A0 0.00053598
9 *1546:A *257:6 8.8266e-05
10 *189:61 *257:6 0.000101031
11 *251:10 *1374:A0 2.92496e-05
12 *251:23 *1374:A0 0.000500239
13 *251:29 *1374:A0 5.88334e-05
*RES
1 *1545:X *257:6 4.12 
2 *257:6 *1374:A0 13.715 
3 *257:6 *1371:A1 1.6 
*END

*D_NET *258 0.000497342
*CONN
*I *1430:D I *D sky130_fd_sc_hd__dfrtp_1
*I *1546:X O *D sky130_fd_sc_hd__dlygate4sd3_1
*CAP
1 *1430:D 0.000153814
2 *1546:X 0.000153814
3 *180:10 *1430:D 5.02217e-05
4 *180:20 *1430:D 4.40446e-05
5 *190:81 *1430:D 9.54469e-05
*RES
1 *1546:X *1430:D 10.155 
*END

*D_NET *259 0.00207795
*CONN
*I *1403:A1 I *D sky130_fd_sc_hd__mux2_1
*I *1395:A0 I *D sky130_fd_sc_hd__mux2_1
*I *1548:X O *D sky130_fd_sc_hd__dlygate4sd3_1
*CAP
1 *1403:A1 0.000789566
2 *1395:A0 3.15136e-05
3 *1548:X 0.000128882
4 *259:6 0.000949962
5 *1403:A1 *1359:A1 5.83121e-06
6 *1403:A1 *1391:A1 0
7 *1403:A1 *1463:D 7.4027e-05
8 *1392:A1 *1403:A1 0
9 *1395:A1 *1395:A0 5.83121e-06
10 *1395:A1 *259:6 4.66826e-05
11 *1395:S *1403:A1 3.09164e-05
12 *1451:D *1403:A1 0
13 *1451:RESET_B *1403:A1 0
14 *187:68 *1403:A1 1.47347e-05
*RES
1 *1548:X *259:6 3.775 
2 *259:6 *1395:A0 2.05 
3 *259:6 *1403:A1 17.885 
*END

*D_NET *260 0.00111083
*CONN
*I *1379:A0 I *D sky130_fd_sc_hd__mux2_1
*I *1549:X O *D sky130_fd_sc_hd__dlygate4sd3_1
*CAP
1 *1379:A0 0.000343206
2 *1549:X 0.000343206
3 *1379:A0 *262:42 8.49205e-05
4 *1379:A0 *298:10 0
5 *1438:RESET_B *1379:A0 0
6 *1550:A *1379:A0 0.00027597
7 *177:10 *1379:A0 6.35284e-05
*RES
1 *1549:X *1379:A0 14.175 
*END

*D_NET *261 0.000555926
*CONN
*I *1438:D I *D sky130_fd_sc_hd__dfrtp_1
*I *1550:X O *D sky130_fd_sc_hd__dlygate4sd3_1
*CAP
1 *1438:D 0.00015933
2 *1550:X 0.00015933
3 *1438:D *262:42 0.000157356
4 *1282:A *1438:D 2.49909e-05
5 *1442:RESET_B *1438:D 8.30853e-06
6 *193:55 *1438:D 4.66108e-05
*RES
1 *1550:X *1438:D 10.35 
*END

*D_NET *262 0.0153715
*CONN
*I *1370:S I *D sky130_fd_sc_hd__mux2_1
*I *1328:S I *D sky130_fd_sc_hd__mux2_1
*I *1327:S I *D sky130_fd_sc_hd__mux2_1
*I *1500:A I *D sky130_fd_sc_hd__clkbuf_4
*I *1387:S I *D sky130_fd_sc_hd__mux2_1
*I *1373:S I *D sky130_fd_sc_hd__mux2_1
*I *1376:S I *D sky130_fd_sc_hd__mux2_1
*I *1381:S I *D sky130_fd_sc_hd__mux2_1
*I *1379:S I *D sky130_fd_sc_hd__mux2_1
*I *1382:S I *D sky130_fd_sc_hd__mux2_1
*I *1501:X O *D sky130_fd_sc_hd__clkbuf_4
*CAP
1 *1370:S 0.000214164
2 *1328:S 0.000177531
3 *1327:S 0
4 *1500:A 0
5 *1387:S 0.000386609
6 *1373:S 0
7 *1376:S 0
8 *1381:S 0.000196988
9 *1379:S 0
10 *1382:S 7.27994e-05
11 *1501:X 0
12 *262:119 0.000438133
13 *262:109 0.000557494
14 *262:87 0.000989483
15 *262:42 0.000287722
16 *262:36 0.000826413
17 *262:28 0.000654378
18 *262:14 0.000263604
19 *262:10 0.000977491
20 *262:4 0.000433618
21 *1328:S *1328:A1 0.000138551
22 *1328:S *295:8 8.08153e-06
23 *1381:S *1381:A0 3.86607e-05
24 *1387:S *1260:C1 0
25 *1387:S *1426:D 0
26 *262:10 *281:33 0.000301375
27 *262:28 *301:10 4.19797e-05
28 *262:28 *301:16 0
29 *262:36 *1381:A0 8.52883e-05
30 *262:36 *1549:A 0.000104908
31 *262:36 *298:21 0.000248682
32 *262:87 *1252:A 0.000206123
33 *262:87 *1303:B1 0.000252977
34 *262:87 *281:33 0.000181863
35 *262:87 *281:98 0.00012489
36 *262:87 *302:21 9.14049e-05
37 *262:87 *302:32 0.000179015
38 *262:87 *304:10 0.000109517
39 *262:119 *1287:A2 0
40 *262:119 *294:10 0
41 *1242:A *1370:S 0
42 *1242:A *262:10 0.000109101
43 *1242:A *262:109 0.000122523
44 *1282:A *1381:S 0
45 *1282:A *262:36 0.000309998
46 *1282:C_N *1381:S 0
47 *1285:A1 *1328:S 4.82863e-05
48 *1286:B1 *1328:S 5.79217e-05
49 *1286:B1 *262:119 8.40213e-05
50 *1286:C1 *1328:S 0.000180541
51 *1296:A *262:14 4.66742e-05
52 *1296:A *262:28 0.000196124
53 *1304:A2 *262:87 5.0751e-05
54 *1317:A *262:87 8.14615e-05
55 *1327:A0 *1328:S 2.59981e-05
56 *1327:A0 *262:119 7.20581e-05
57 *1370:A1 *262:14 7.23635e-05
58 *1370:A1 *262:28 8.8266e-05
59 *1376:A0 *262:28 0.000269057
60 *1376:A0 *262:36 8.8266e-05
61 *1379:A0 *262:42 8.49205e-05
62 *1379:A1 *1382:S 5.34747e-05
63 *1379:A1 *262:42 3.45588e-05
64 *1407:RESET_B *262:119 0.000149766
65 *1426:RESET_B *1387:S 0
66 *1427:D *1387:S 6.74079e-05
67 *1438:D *262:42 0.000157356
68 *1441:CLK *1381:S 6.81237e-05
69 *1441:CLK *262:42 0.000127416
70 *1442:RESET_B *262:42 0.000160658
71 *1447:CLK *1387:S 3.09233e-05
72 *1448:CLK *1387:S 8.65961e-05
73 *1466:A *1381:S 0.000147176
74 *1466:A *262:28 0.000225283
75 *1477:A *262:87 0.000222014
76 *1493:A *1370:S 0
77 *1495:A *262:10 2.75229e-05
78 *1501:A *1370:S 0.000193571
79 *1501:A *262:119 5.16348e-05
80 *1534:A *262:28 4.42213e-05
81 *1540:A *262:28 0
82 *1550:A *262:42 0
83 *1567:A *1381:S 0
84 *70:10 *262:10 1.33293e-05
85 *177:10 *262:42 8.65961e-05
86 *177:85 *262:42 9.86611e-05
87 *180:10 *262:87 0
88 *180:20 *262:87 6.3462e-05
89 *180:47 *262:87 0
90 *180:49 *262:87 2.75229e-05
91 *180:64 *1387:S 0.000535818
92 *180:73 *1387:S 7.70758e-05
93 *180:90 *1387:S 0.000114492
94 *192:29 *1370:S 0
95 *193:27 *1382:S 0.000279787
96 *193:27 *262:42 7.49327e-05
97 *193:55 *262:36 0.000359568
98 *193:68 *262:36 0.000271308
99 *193:74 *262:28 0
100 *193:102 *262:28 0.000229825
101 *193:102 *262:36 0.000163204
102 *195:14 *262:119 0.000159957
103 *197:24 *1328:S 4.03082e-05
104 *197:35 *1328:S 5.18922e-05
105 *197:35 *262:119 5.23362e-05
106 *197:51 *262:119 2.49909e-05
107 *198:10 *262:10 0
108 *198:20 *262:10 7.45968e-05
109 *198:20 *262:119 0
110 *200:12 *1370:S 0
111 *200:12 *262:10 4.99619e-05
112 *200:12 *262:87 0
113 *229:36 *1381:S 4.77757e-05
114 *245:12 *262:28 4.82919e-05
*RES
1 *1501:X *262:4 1.6 
2 *262:4 *262:10 9.485 
3 *262:10 *262:14 2.795 
4 *262:14 *262:28 12.34 
5 *262:28 *262:36 13.865 
6 *262:36 *262:42 8.525 
7 *262:42 *1382:S 4.12 
8 *262:42 *1379:S 1.6 
9 *262:36 *1381:S 7.59 
10 *262:28 *1376:S 1.6 
11 *262:14 *1373:S 1.6 
12 *262:10 *262:87 17.165 
13 *262:87 *1387:S 14.915 
14 *262:87 *1500:A 1.6 
15 *262:4 *262:109 3.485 
16 *262:109 *262:119 7.79 
17 *262:119 *1327:S 1.6 
18 *262:119 *1328:S 10.58 
19 *262:109 *1370:S 7.53 
*END

*D_NET *263 0.00470603
*CONN
*I *1374:A1 I *D sky130_fd_sc_hd__mux2_1
*I *1377:A0 I *D sky130_fd_sc_hd__mux2_1
*I *1551:X O *D sky130_fd_sc_hd__dlygate4sd3_1
*CAP
1 *1374:A1 0
2 *1377:A0 0.00118807
3 *1551:X 0.000177124
4 *263:10 0.0013652
5 *1377:A0 *1270:B 1.1561e-05
6 *1377:A0 *1271:C1 0.000336837
7 *1377:A0 *1299:C1 8.26066e-05
8 *1377:A0 *272:12 1.82561e-05
9 *263:10 *1271:C1 0.000127373
10 *263:10 *300:8 1.86399e-05
11 *1270:A *1377:A0 0
12 *1271:B1 *1377:A0 5.16418e-05
13 *1271:B2 *1377:A0 0.000124895
14 *1299:A1 *1377:A0 2.49909e-05
15 *1299:B1 *1377:A0 0.0001249
16 *1300:B *1377:A0 0.000198939
17 *1375:A0 *1377:A0 0.000116165
18 *1375:A0 *263:10 0.000136877
19 *1377:S *1377:A0 0.000124895
20 *1437:CLK *1377:A0 0.000302566
21 *1437:D *1377:A0 2.75145e-05
22 *1437:RESET_B *1377:A0 2.43413e-05
23 *1446:RESET_B *1377:A0 0
24 *1575:A *1377:A0 0.000122642
25 *200:41 *1377:A0 0
*RES
1 *1551:X *263:10 6.72 
2 *263:10 *1377:A0 24.975 
3 *263:10 *1374:A1 3.6 
*END

*D_NET *264 0.000368847
*CONN
*I *1361:A0 I *D sky130_fd_sc_hd__mux2_1
*I *1552:X O *D sky130_fd_sc_hd__dlygate4sd3_1
*CAP
1 *1361:A0 9.04719e-05
2 *1552:X 9.04719e-05
3 *1361:A0 *1552:A 0.000164874
4 *1361:A1 *1361:A0 2.30292e-05
*RES
1 *1552:X *1361:A0 5.03 
*END

*D_NET *265 0.00172218
*CONN
*I *1362:A0 I *D sky130_fd_sc_hd__mux2_1
*I *1553:X O *D sky130_fd_sc_hd__dlygate4sd3_1
*CAP
1 *1362:A0 0.00039985
2 *1553:X 0.00039985
3 *1362:A0 *1290:C1 0.000304232
4 *1362:A0 *1420:D 9.71067e-05
5 *1289:B1 *1362:A0 1.52184e-05
6 *1290:B1 *1362:A0 8.49205e-05
7 *1290:B2 *1362:A0 2.75229e-05
8 *1362:S *1362:A0 4.21973e-05
9 *82:8 *1362:A0 8.08671e-05
10 *194:110 *1362:A0 0.000270415
*RES
1 *1553:X *1362:A0 15.435 
*END

*D_NET *266 0.000207136
*CONN
*I *1420:D I *D sky130_fd_sc_hd__dfrtp_1
*I *1554:X O *D sky130_fd_sc_hd__dlygate4sd3_1
*CAP
1 *1420:D 2.80288e-05
2 *1554:X 2.80288e-05
3 *1362:A0 *1420:D 9.71067e-05
4 *82:8 *1420:D 5.39718e-05
*RES
1 *1554:X *1420:D 8.325 
*END

*D_NET *267 0.0032908
*CONN
*I *1403:A0 I *D sky130_fd_sc_hd__mux2_1
*I *1359:A1 I *D sky130_fd_sc_hd__mux2_1
*I *1555:X O *D sky130_fd_sc_hd__dlygate4sd3_1
*CAP
1 *1403:A0 0
2 *1359:A1 0.000652112
3 *1555:X 0.000396812
4 *267:12 0.00104892
5 *1359:A1 *1243:A 4.67945e-05
6 *1359:A1 *1463:D 0
7 *1359:A1 *334:8 2.86265e-06
8 *267:12 *1417:D 0.000163204
9 *267:12 *1463:D 0.000137571
10 *267:12 *1555:A 4.47209e-05
11 *1403:A1 *1359:A1 5.83121e-06
12 *1451:RESET_B *267:12 0
13 *1452:CLK *1359:A1 2.75229e-05
14 *1452:D *1359:A1 7.06865e-05
15 *1462:CLK *267:12 8.65905e-05
16 *1462:D *1359:A1 6.86736e-05
17 *1462:D *267:12 0
18 *1556:A *1359:A1 0.000128008
19 *182:68 *1359:A1 6.5265e-05
20 *182:70 *1359:A1 5.42473e-05
21 *187:68 *1359:A1 0.000290973
22 *201:20 *267:12 0
*RES
1 *1555:X *267:12 13.055 
2 *267:12 *1359:A1 16.73 
3 *267:12 *1403:A0 1.6 
*END

*D_NET *268 0.00125289
*CONN
*I *1417:D I *D sky130_fd_sc_hd__dfrtp_1
*I *1556:X O *D sky130_fd_sc_hd__dlygate4sd3_1
*CAP
1 *1417:D 0.00044986
2 *1556:X 0.00044986
3 *1417:D *1555:A 9.70988e-05
4 *1462:CLK *1417:D 2.30292e-05
5 *182:76 *1417:D 6.98327e-05
6 *267:12 *1417:D 0.000163204
*RES
1 *1556:X *1417:D 13.2825 
*END

*D_NET *269 0.00418618
*CONN
*I *1404:A0 I *D sky130_fd_sc_hd__mux2_1
*I *1360:A1 I *D sky130_fd_sc_hd__mux2_1
*I *1557:X O *D sky130_fd_sc_hd__dlygate4sd3_1
*CAP
1 *1404:A0 0
2 *1360:A1 0.000301062
3 *1557:X 0.000301605
4 *269:6 0.000602667
5 *1360:A1 *1397:A1 8.4249e-05
6 *1360:A1 *1404:S 8.14393e-05
7 *1360:A1 *1529:A 0.0001249
8 *1360:A1 *1557:A 0.000276441
9 *1360:A1 *273:14 5.30673e-05
10 *1360:A1 *273:31 0.000108137
11 *1360:A1 *273:38 0.000158066
12 *269:6 *1557:A 0.000650892
13 *1241:A *1360:A1 4.82863e-05
14 *1265:B2 *1360:A1 0.000597945
15 *1265:B2 *269:6 3.57349e-05
16 *1397:A0 *1360:A1 0.000198934
17 *1485:A *1360:A1 0.000162311
18 *189:12 *1360:A1 0.0001249
19 *189:136 *1360:A1 0.000275548
*RES
1 *1557:X *269:6 7.57 
2 *269:6 *1360:A1 14.365 
3 *269:6 *1404:A0 1.6 
*END

*D_NET *270 0.000922834
*CONN
*I *1463:D I *D sky130_fd_sc_hd__dfrtp_1
*I *1559:X O *D sky130_fd_sc_hd__dlygate4sd3_1
*CAP
1 *1463:D 0.000289413
2 *1559:X 0.000289413
3 *1359:A1 *1463:D 0
4 *1403:A1 *1463:D 7.4027e-05
5 *1451:RESET_B *1463:D 0
6 *1462:D *1463:D 2.67022e-05
7 *1463:CLK *1463:D 6.73091e-05
8 *187:68 *1463:D 0
9 *203:22 *1463:D 3.83995e-05
10 *267:12 *1463:D 0.000137571
*RES
1 *1559:X *1463:D 12.2175 
*END

*D_NET *271 0.00054469
*CONN
*I *1360:A0 I *D sky130_fd_sc_hd__mux2_1
*I *1560:X O *D sky130_fd_sc_hd__dlygate4sd3_1
*CAP
1 *1360:A0 0.000183237
2 *1560:X 0.000183237
3 *1360:A0 *1293:A1 1.16578e-05
4 *1296:D *1360:A0 3.86607e-05
5 *189:12 *1360:A0 2.67022e-05
6 *189:18 *1360:A0 0.000101195
*RES
1 *1560:X *1360:A0 9.9 
*END

*D_NET *272 0.00211499
*CONN
*I *1377:A1 I *D sky130_fd_sc_hd__mux2_1
*I *1380:A0 I *D sky130_fd_sc_hd__mux2_1
*I *1561:X O *D sky130_fd_sc_hd__dlygate4sd3_1
*CAP
1 *1377:A1 0
2 *1380:A0 0.000299759
3 *1561:X 0.000300608
4 *272:12 0.000600367
5 *1380:A0 *1281:C1 0
6 *1380:A0 *1380:A1 3.23663e-05
7 *272:12 *1299:C1 0.000120652
8 *1377:A0 *272:12 1.82561e-05
9 *1377:S *1380:A0 0
10 *1380:S *1380:A0 4.92062e-05
11 *1437:CLK *272:12 0.000273872
12 *1437:RESET_B *272:12 2.67022e-05
13 *1441:RESET_B *1380:A0 0.000141606
14 *199:64 *1380:A0 0.000251595
*RES
1 *1561:X *272:12 10.025 
2 *272:12 *1380:A0 11.87 
3 *272:12 *1377:A1 1.6 
*END

*D_NET *273 0.0123178
*CONN
*I *1404:S I *D sky130_fd_sc_hd__mux2_1
*I *1391:S I *D sky130_fd_sc_hd__mux2_1
*I *1359:S I *D sky130_fd_sc_hd__mux2_1
*I *1405:S I *D sky130_fd_sc_hd__mux2_1
*I *1393:S I *D sky130_fd_sc_hd__mux2_1
*I *1361:S I *D sky130_fd_sc_hd__mux2_1
*I *1326:S I *D sky130_fd_sc_hd__mux2_1
*I *1394:S I *D sky130_fd_sc_hd__mux2_1
*I *1397:S I *D sky130_fd_sc_hd__mux2_1
*I *1360:S I *D sky130_fd_sc_hd__mux2_1
*I *1502:X O *D sky130_fd_sc_hd__clkbuf_4
*CAP
1 *1404:S 9.00124e-05
2 *1391:S 0.000541935
3 *1359:S 4.83222e-05
4 *1405:S 0
5 *1393:S 4.0361e-05
6 *1361:S 7.54487e-05
7 *1326:S 0
8 *1394:S 4.52475e-05
9 *1397:S 0
10 *1360:S 0
11 *1502:X 0.000215455
12 *273:98 4.83222e-05
13 *273:62 0.000680503
14 *273:54 0.000883049
15 *273:50 0.000983403
16 *273:42 0.00101594
17 *273:40 0.000787182
18 *273:38 0.000136643
19 *273:31 0.000321677
20 *273:14 0.000490501
21 *1359:S *1243:A 0.000198945
22 *1391:S *319:8 5.93963e-05
23 *1393:S *290:22 2.49909e-05
24 *1394:S *1394:A1 0.000113247
25 *1404:S *1529:A 0.0001249
26 *1404:S *1557:A 0.000163204
27 *273:14 *1397:A1 0
28 *273:31 *1397:A1 0.000122331
29 *273:42 *1307:B 8.13876e-05
30 *273:42 *319:8 9.34171e-06
31 *273:50 *1393:A1 9.29176e-05
32 *273:50 *290:22 4.83849e-05
33 *273:54 *1552:A 0
34 *273:54 *292:33 0
35 *273:62 *1245:A 4.82863e-05
36 *273:62 *325:6 0.000318091
37 *1241:A *1391:S 0
38 *1241:A *1404:S 4.66108e-05
39 *1296:C *1391:S 0.000133408
40 *1296:D *273:14 0.000115253
41 *1306:A *1391:S 0.000169473
42 *1311:B *1391:S 4.65607e-05
43 *1311:C *1391:S 0.000483796
44 *1317:C *1391:S 6.27529e-05
45 *1360:A1 *1404:S 8.14393e-05
46 *1360:A1 *273:14 5.30673e-05
47 *1360:A1 *273:31 0.000108137
48 *1360:A1 *273:38 0.000158066
49 *1361:A1 *273:42 1.26626e-05
50 *1361:A1 *273:50 0.000122885
51 *1391:A0 *1391:S 5.77162e-05
52 *1393:A0 *1393:S 2.49909e-05
53 *1393:A0 *273:50 0.000160635
54 *1394:A0 *1394:S 0.000197264
55 *1405:A1 *273:42 0.000437781
56 *1453:D *1393:S 7.30547e-05
57 *1453:D *273:54 9.30717e-05
58 *1454:RESET_B *273:62 0
59 *1457:RESET_B *273:14 8.23457e-05
60 *1462:RESET_B *273:50 0
61 *1464:RESET_B *273:42 6.44307e-05
62 *1464:RESET_B *273:50 6.57201e-05
63 *1472:A *1359:S 9.27495e-05
64 *1472:A *273:42 0
65 *1485:A *1404:S 0.000308724
66 *1485:A *273:31 0.000239699
67 *1485:A *273:38 0.000120655
68 *1504:A *1391:S 0.000267243
69 *1530:A *1391:S 0
70 *69:29 *1404:S 0.000114912
71 *181:12 *1393:S 3.76596e-05
72 *181:12 *273:54 3.86607e-05
73 *181:24 *273:62 0.000201508
74 *182:20 *1391:S 5.39181e-05
75 *182:20 *273:42 2.01214e-05
76 *182:26 *273:31 7.96104e-06
77 *187:8 *273:14 4.43871e-06
78 *201:44 *273:50 0.000124753
79 *244:10 *273:42 2.42236e-05
*RES
1 *1502:X *273:14 9.26 
2 *273:14 *1360:S 1.6 
3 *273:14 *273:31 9.16 
4 *273:31 *1397:S 1.6 
5 *273:31 *273:38 1.485 
6 *273:38 *273:40 2 
7 *273:40 *273:42 6.48 
8 *273:42 *273:50 15.04 
9 *273:50 *273:54 5.165 
10 *273:54 *273:62 14.71 
11 *273:62 *1394:S 3.43 
12 *273:62 *1326:S 1.6 
13 *273:54 *1361:S 2.86 
14 *273:50 *1393:S 4.92 
15 *273:42 *273:98 2 
16 *273:98 *1405:S 1.6 
17 *273:98 *1359:S 3.43 
18 *273:40 *1391:S 17.55 
19 *273:38 *1404:S 5.845 
*END

*D_NET *274 0.000688259
*CONN
*I *1365:A0 I *D sky130_fd_sc_hd__mux2_1
*I *1562:X O *D sky130_fd_sc_hd__dlygate4sd3_1
*CAP
1 *1365:A0 5.80475e-05
2 *1562:X 5.80475e-05
3 *1365:A0 *1312:B1 0.000122337
4 *1365:A0 *1365:A1 4.99619e-05
5 *176:86 *1365:A0 0.000312964
6 *186:25 *1365:A0 4.60584e-05
7 *186:40 *1365:A0 4.0843e-05
*RES
1 *1562:X *1365:A0 6.065 
*END

*D_NET *275 0.000807749
*CONN
*I *1396:A0 I *D sky130_fd_sc_hd__mux2_1
*I *1563:X O *D sky130_fd_sc_hd__dlygate4sd3_1
*CAP
1 *1396:A0 0.000319456
2 *1563:X 0.000319456
3 *1395:S *1396:A0 0.000161829
4 *1456:RESET_B *1396:A0 7.00889e-06
*RES
1 *1563:X *1396:A0 7.1 
*END

*D_NET *276 0.000990105
*CONN
*I *1368:A1 I *D sky130_fd_sc_hd__mux2_1
*I *1564:X O *D sky130_fd_sc_hd__dlygate4sd3_1
*CAP
1 *1368:A1 0.00010112
2 *1564:X 0.00010112
3 *1368:A1 *1368:A0 0.000198939
4 *1368:A1 *1564:A 0.000426636
5 *1261:A *1368:A1 9.69062e-05
6 *1261:C *1368:A1 1.70906e-05
7 *176:86 *1368:A1 4.82919e-05
*RES
1 *1564:X *1368:A1 7.445 
*END

*D_NET *277 0.000354579
*CONN
*I *1426:D I *D sky130_fd_sc_hd__dfrtp_1
*I *1565:X O *D sky130_fd_sc_hd__dlygate4sd3_1
*CAP
1 *1426:D 9.47276e-05
2 *1565:X 9.47276e-05
3 *1305:C1 *1426:D 4.66108e-05
4 *1387:S *1426:D 0
5 *1426:RESET_B *1426:D 0.000118513
*RES
1 *1565:X *1426:D 9.03 
*END

*D_NET *278 0.000648377
*CONN
*I *1382:A0 I *D sky130_fd_sc_hd__mux2_1
*I *1566:X O *D sky130_fd_sc_hd__dlygate4sd3_1
*CAP
1 *1382:A0 0.000260904
2 *1566:X 0.000260904
3 *1279:A *1382:A0 0.00012657
4 *1379:A1 *1382:A0 0
5 *240:23 *1382:A0 0
*RES
1 *1566:X *1382:A0 11.25 
*END

*D_NET *279 0.000563842
*CONN
*I *1381:A0 I *D sky130_fd_sc_hd__mux2_1
*I *1567:X O *D sky130_fd_sc_hd__dlygate4sd3_1
*CAP
1 *1381:A0 0.000188006
2 *1567:X 0.000188006
3 *1282:A *1381:A0 6.38806e-05
4 *1381:S *1381:A0 3.86607e-05
5 *262:36 *1381:A0 8.52883e-05
*RES
1 *1567:X *1381:A0 9.9 
*END

*D_NET *280 0.00110336
*CONN
*I *1327:A1 I *D sky130_fd_sc_hd__mux2_1
*I *1568:X O *D sky130_fd_sc_hd__dlygate4sd3_1
*CAP
1 *1327:A1 0.000361082
2 *1568:X 0.000361082
3 *1327:A1 *1286:A2 1.2818e-05
4 *1327:A1 *1520:A 3.23663e-05
5 *1285:A1 *1327:A1 1.47347e-05
6 *1286:B1 *1327:A1 0.000244219
7 *1327:A0 *1327:A1 4.66108e-05
8 *190:14 *1327:A1 3.04507e-05
*RES
1 *1568:X *1327:A1 8.255 
*END

*D_NET *281 0.0224651
*CONN
*I *1293:A1 I *D sky130_fd_sc_hd__a22o_1
*I *1294:A1 I *D sky130_fd_sc_hd__o221a_1
*I *1239:A I *D sky130_fd_sc_hd__inv_2
*I *1315:A1 I *D sky130_fd_sc_hd__o221a_1
*I *1260:A1 I *D sky130_fd_sc_hd__o221a_1
*I *1304:A1 I *D sky130_fd_sc_hd__o221a_1
*I *1281:A1 I *D sky130_fd_sc_hd__o221a_1
*I *1380:A1 I *D sky130_fd_sc_hd__mux2_1
*I *1280:A1 I *D sky130_fd_sc_hd__a22o_1
*I *1341:B2 I *D sky130_fd_sc_hd__o32a_1
*I *1409:Q O *D sky130_fd_sc_hd__dfrtp_4
*CAP
1 *1293:A1 0.000301302
2 *1294:A1 0
3 *1239:A 0.000126591
4 *1315:A1 0.000420607
5 *1260:A1 0.000330647
6 *1304:A1 0
7 *1281:A1 0
8 *1380:A1 0.000483169
9 *1280:A1 0
10 *1341:B2 0.000660275
11 *1409:Q 0
12 *281:154 0.000334209
13 *281:139 0.00206524
14 *281:107 0.00106377
15 *281:98 0.00104211
16 *281:66 0.000651525
17 *281:49 0.00127212
18 *281:33 0.00285841
19 *281:23 0.00305337
20 *281:6 0.000782858
21 *1239:A *1294:C1 0
22 *1260:A1 *305:10 5.02217e-05
23 *1260:A1 *305:16 3.67779e-05
24 *281:23 *1284:B 0.000141592
25 *281:33 *1284:B 0
26 *281:33 *1525:A 0.000114492
27 *281:33 *301:10 0
28 *281:98 *1252:A 0.000198279
29 *281:98 *1303:B1 0.000254637
30 *281:98 *302:21 8.28738e-05
31 *281:98 *302:32 0.000172151
32 *281:139 *1328:A1 0.000258998
33 *281:139 *293:10 0
34 *281:139 *293:19 0
35 *1256:A *1260:A1 0
36 *1260:B2 *1260:A1 4.18603e-06
37 *1261:B *1260:A1 2.34345e-05
38 *1261:C *1260:A1 0.000157602
39 *1278:A *1260:A1 1.01661e-05
40 *1280:A2 *281:66 8.35106e-05
41 *1280:B2 *281:66 5.33591e-05
42 *1281:B1 *1380:A1 1.33293e-05
43 *1281:B1 *281:66 4.66108e-05
44 *1281:B2 *1380:A1 0.000124895
45 *1281:B2 *281:66 1.05984e-05
46 *1284:A *281:23 5.42473e-05
47 *1294:A2 *1293:A1 0.000287319
48 *1296:D *1239:A 0.000141526
49 *1296:D *281:154 1.64078e-05
50 *1300:A_N *281:49 8.65961e-05
51 *1300:C *281:49 1.93834e-05
52 *1304:A2 *281:98 0
53 *1304:B1 *281:98 0
54 *1305:C1 *281:107 0.000224532
55 *1315:B1 *1315:A1 3.00381e-05
56 *1315:B2 *1315:A1 1.74557e-05
57 *1317:A *281:49 4.00541e-06
58 *1320:A_N *281:139 0.000388207
59 *1341:A1 *1341:B2 4.00541e-06
60 *1341:A3 *1341:B2 3.23663e-05
61 *1341:B1 *1341:B2 0.000142574
62 *1360:A0 *1293:A1 1.16578e-05
63 *1374:A0 *281:98 0.000101317
64 *1380:A0 *1380:A1 3.23663e-05
65 *1380:S *1380:A1 0.000176836
66 *1407:D *281:33 0.000117825
67 *1408:CLK *281:33 7.35813e-05
68 *1408:D *1341:B2 1.98869e-05
69 *1408:D *281:33 0
70 *1435:RESET_B *281:33 0
71 *1465:D *281:33 0
72 *1492:A *281:139 0
73 *1494:A *1260:A1 0
74 *1494:A *1315:A1 9.66021e-05
75 *1521:A *281:23 0
76 *1565:A *1260:A1 0
77 *71:16 *1293:A1 1.19928e-05
78 *77:12 *1380:A1 1.71013e-05
79 *146:56 *1341:B2 6.6564e-05
80 *176:18 *281:33 3.54456e-05
81 *176:18 *281:139 2.97249e-05
82 *176:28 *281:33 0.000146092
83 *180:64 *281:98 0
84 *183:8 *1315:A1 3.83995e-05
85 *183:22 *1260:A1 0
86 *188:42 *1260:A1 0
87 *189:12 *281:154 1.07655e-05
88 *189:18 *1293:A1 4.8315e-05
89 *189:77 *281:49 0.000556968
90 *189:77 *281:66 2.47079e-05
91 *190:14 *281:139 4.19967e-05
92 *190:96 *281:98 0
93 *192:81 *1239:A 4.80285e-05
94 *194:64 *281:98 0
95 *194:74 *281:98 0.0001249
96 *197:12 *1341:B2 0.000108039
97 *197:12 *281:23 1.22676e-05
98 *197:24 *281:23 0
99 *198:20 *281:33 0
100 *198:32 *281:33 0
101 *198:44 *1341:B2 0.000143501
102 *198:44 *281:23 7.97852e-05
103 *199:6 *281:107 0.000349592
104 *199:30 *281:98 1.97758e-05
105 *199:30 *281:107 0.000198186
106 *200:35 *281:98 0
107 *204:27 *281:139 0.000269538
108 *229:36 *1380:A1 7.06865e-05
109 *245:12 *281:33 0
110 *245:12 *281:98 0
111 *251:10 *281:98 4.19797e-05
112 *262:10 *281:33 0.000301375
113 *262:87 *281:33 0.000181863
114 *262:87 *281:98 0.00012489
*RES
1 *1409:Q *281:6 3.6 
2 *281:6 *1341:B2 13.785 
3 *281:6 *281:23 5.42 
4 *281:23 *281:33 19.6925 
5 *281:33 *281:49 13.5143 
6 *281:49 *1280:A1 1.6 
7 *281:49 *281:66 3.465 
8 *281:66 *1380:A1 12.92 
9 *281:66 *1281:A1 1.6 
10 *281:33 *281:98 16.8425 
11 *281:98 *1304:A1 1.6 
12 *281:98 *281:107 7.965 
13 *281:107 *1260:A1 11.57 
14 *281:107 *1315:A1 8.185 
15 *281:23 *281:139 16.3631 
16 *281:139 *1239:A 6.4125 
17 *281:139 *281:154 2.4875 
18 *281:154 *1294:A1 1.6 
19 *281:154 *1293:A1 6.34 
*END

*D_NET *282 0.00420339
*CONN
*I *1491:A I *D sky130_fd_sc_hd__dlymetal6s2s_1
*I *1490:A I *D sky130_fd_sc_hd__buf_2
*I *1410:Q O *D sky130_fd_sc_hd__dfrtp_1
*CAP
1 *1491:A 0.000939236
2 *1490:A 0.000244935
3 *1410:Q 0.000259575
4 *282:10 0.00144375
5 *1491:A *1285:A2 0.000130463
6 *1491:A *1525:A 4.99619e-05
7 *1491:A *294:10 3.39454e-05
8 *1407:CLK *1491:A 0.000196376
9 *1408:CLK *1490:A 0.000199833
10 *1410:CLK *282:10 2.75145e-05
11 *1410:RESET_B *282:10 7.94673e-05
12 *1465:D *1491:A 7.44453e-05
13 *178:8 *282:10 0
14 *178:56 *282:10 0
15 *178:69 *1491:A 0
16 *178:84 *1491:A 0
17 *195:14 *1491:A 0.000321399
18 *198:20 *1491:A 8.07842e-05
19 *198:32 *1491:A 6.95422e-05
20 *198:32 *282:10 5.21627e-05
*RES
1 *1410:Q *282:10 7.41 
2 *282:10 *1490:A 7.845 
3 *282:10 *1491:A 19.125 
*END

*D_NET *283 0.000202521
*CONN
*I *1489:A I *D sky130_fd_sc_hd__buf_2
*I *1411:Q O *D sky130_fd_sc_hd__dfrtp_1
*CAP
1 *1489:A 4.92169e-05
2 *1411:Q 4.92169e-05
3 *193:8 *1489:A 1.83847e-05
4 *197:79 *1489:A 8.57024e-05
*RES
1 *1411:Q *1489:A 4.355 
*END

*D_NET *284 0.000284396
*CONN
*I *1319:B I *D sky130_fd_sc_hd__or2_2
*I *1320:X O *D sky130_fd_sc_hd__and2b_1
*CAP
1 *1319:B 9.09629e-05
2 *1320:X 9.09629e-05
3 *1460:CLK *1319:B 9.71067e-05
4 *146:12 *1319:B 0
5 *146:23 *1319:B 5.36384e-06
*RES
1 *1320:X *1319:B 8.775 
*END

*D_NET *285 0.0052409
*CONN
*I *1399:A I *D sky130_fd_sc_hd__and3_1
*I *1330:A I *D sky130_fd_sc_hd__nor2_1
*I *1333:A1 I *D sky130_fd_sc_hd__a21oi_1
*I *1339:A1 I *D sky130_fd_sc_hd__a22o_1
*I *1345:A1 I *D sky130_fd_sc_hd__a211o_1
*I *1246:A I *D sky130_fd_sc_hd__inv_2
*I *1331:A I *D sky130_fd_sc_hd__nor2_1
*I *1400:A1 I *D sky130_fd_sc_hd__a21oi_1
*I *1459:Q O *D sky130_fd_sc_hd__dfrtp_4
*CAP
1 *1399:A 9.40768e-05
2 *1330:A 0
3 *1333:A1 0.000305836
4 *1339:A1 0.000102199
5 *1345:A1 1.15106e-05
6 *1246:A 0.000118585
7 *1331:A 2.56751e-05
8 *1400:A1 0
9 *1459:Q 0.000151801
10 *285:83 0.000430232
11 *285:64 0.00027135
12 *285:35 0.000187593
13 *285:33 0.000209657
14 *285:27 0.000349598
15 *285:21 0.000418255
16 *285:10 0.000325951
17 *1331:A *1331:B 3.26889e-05
18 *1331:A *287:24 5.78206e-05
19 *1399:A *1399:B 3.45679e-05
20 *1399:A *286:27 2.8185e-05
21 *285:10 *286:10 5.21046e-05
22 *285:21 *1338:A1 0
23 *285:21 *286:10 2.97561e-05
24 *285:21 *286:21 6.81237e-05
25 *285:21 *286:27 3.96554e-05
26 *285:21 *286:46 4.55864e-06
27 *285:21 *287:16 0
28 *285:27 *1338:A1 4.82919e-05
29 *285:27 *286:27 4.80285e-05
30 *285:33 *287:16 0
31 *285:33 *287:20 0.000302981
32 *285:35 *287:20 1.08758e-05
33 *285:35 *287:24 0.000227261
34 *1334:B *1246:A 0
35 *1338:B1 *285:33 0.00018866
36 *1338:B1 *285:35 4.35348e-05
37 *1338:B1 *285:64 1.02348e-05
38 *1339:A2 *1339:A1 1.92187e-05
39 *1339:A2 *285:33 1.71013e-05
40 *1339:A2 *285:64 1.01152e-05
41 *1339:B1 *1339:A1 9.85506e-06
42 *1339:B2 *285:27 2.75229e-05
43 *1340:B *1399:A 5.83121e-06
44 *1340:B *285:27 9.43463e-05
45 *1340:B *285:83 0
46 *1341:A1 *1333:A1 6.47129e-05
47 *1341:A1 *285:83 0.000123225
48 *1341:A2 *1333:A1 7.55531e-06
49 *1345:A2 *285:33 8.8266e-05
50 *1345:B1 *1331:A 0
51 *1345:B1 *1345:A1 5.4155e-06
52 *1401:A *1399:A 0
53 *1459:CLK *285:33 6.36273e-05
54 *1459:CLK *285:64 1.37442e-05
55 *1459:CLK *285:83 3.98952e-05
56 *1459:RESET_B *285:10 0.000200615
57 *147:29 *1331:A 2.75145e-05
58 *147:29 *285:35 9.66106e-05
59 *151:8 *1333:A1 9.60785e-05
*RES
1 *1459:Q *285:10 6.555 
2 *285:10 *1400:A1 3.6 
3 *285:10 *285:21 4.91 
4 *285:21 *285:27 5.225 
5 *285:27 *285:33 7.265 
6 *285:33 *285:35 2.175 
7 *285:35 *1331:A 2.41 
8 *285:35 *1246:A 7.235 
9 *285:33 *1345:A1 1.96 
10 *285:27 *285:64 0.87 
11 *285:64 *1339:A1 5.205 
12 *285:64 *285:83 4.52 
13 *285:83 *1333:A1 5.425 
14 *285:83 *1330:A 1.6 
15 *285:21 *1399:A 3.445 
*END

*D_NET *286 0.00629953
*CONN
*I *1399:B I *D sky130_fd_sc_hd__and3_1
*I *1248:A I *D sky130_fd_sc_hd__inv_2
*I *1329:B I *D sky130_fd_sc_hd__nor2_1
*I *1343:A2 I *D sky130_fd_sc_hd__a22o_1
*I *1353:A I *D sky130_fd_sc_hd__nor2_1
*I *1349:B1 I *D sky130_fd_sc_hd__o21a_1
*I *1338:A2 I *D sky130_fd_sc_hd__a21o_1
*I *1400:B1 I *D sky130_fd_sc_hd__a21oi_1
*I *1460:Q O *D sky130_fd_sc_hd__dfrtp_4
*CAP
1 *1399:B 0.000110709
2 *1248:A 0
3 *1329:B 0
4 *1343:A2 1.86072e-05
5 *1353:A 0.000128251
6 *1349:B1 9.83814e-05
7 *1338:A2 0
8 *1400:B1 0
9 *1460:Q 0.000209574
10 *286:68 0.000396602
11 *286:66 0.000274097
12 *286:58 0.000255922
13 *286:46 0.000698558
14 *286:27 0.000677462
15 *286:21 0.000349019
16 *286:10 0.000298578
17 *1349:B1 *289:34 0
18 *1349:B1 *289:41 0
19 *286:27 *1338:A1 3.98712e-05
20 *286:46 *1344:A 1.79536e-05
21 *1329:A *286:66 7.63204e-05
22 *1332:A *286:58 1.16578e-05
23 *1332:B *286:46 0.00013637
24 *1333:B1 *286:58 4.92062e-05
25 *1339:B1 *286:58 0.000215289
26 *1341:A2 *286:58 4.80182e-05
27 *1342:B *286:58 6.28765e-05
28 *1342:B *286:66 0.00011686
29 *1343:B2 *286:68 4.77719e-05
30 *1345:C1 *286:46 1.03833e-05
31 *1345:C1 *286:58 0
32 *1347:A3 *1353:A 0.000123589
33 *1348:A2_N *286:58 0.00014453
34 *1353:B *1353:A 0.000292102
35 *1398:B *1353:A 0.000271334
36 *1399:A *1399:B 3.45679e-05
37 *1399:A *286:27 2.8185e-05
38 *1459:RESET_B *286:10 0.000239813
39 *146:52 *1399:B 1.7386e-05
40 *146:94 *1353:A 4.54719e-05
41 *146:127 *1353:A 1.19928e-05
42 *148:21 *1349:B1 1.52352e-05
43 *150:21 *286:58 4.66108e-05
44 *150:38 *286:58 8.49205e-05
45 *152:20 *1343:A2 9.13936e-06
46 *152:20 *1349:B1 7.00889e-06
47 *152:20 *286:58 9.53428e-06
48 *152:20 *286:66 2.7529e-05
49 *152:20 *286:68 0.000138845
50 *152:28 *1349:B1 4.66826e-05
51 *155:19 *1353:A 0.000114492
52 *285:10 *286:10 5.21046e-05
53 *285:21 *286:10 2.97561e-05
54 *285:21 *286:21 6.81237e-05
55 *285:21 *286:27 3.96554e-05
56 *285:21 *286:46 4.55864e-06
57 *285:27 *286:27 4.80285e-05
*RES
1 *1460:Q *286:10 7.92 
2 *286:10 *1400:B1 3.6 
3 *286:10 *286:21 3.635 
4 *286:21 *286:27 4.355 
5 *286:27 *1338:A2 3.6 
6 *286:27 *286:46 4.377 
7 *286:46 *286:58 9.31 
8 *286:58 *286:66 6.085 
9 *286:66 *286:68 2.865 
10 *286:68 *1349:B1 3.1 
11 *286:68 *1353:A 10.67 
12 *286:66 *1343:A2 1.96 
13 *286:58 *1329:B 1.6 
14 *286:46 *1248:A 1.6 
15 *286:21 *1399:B 3.085 
*END

*D_NET *287 0.00650975
*CONN
*I *1338:A1 I *D sky130_fd_sc_hd__a21o_1
*I *1247:A I *D sky130_fd_sc_hd__inv_2
*I *1344:A I *D sky130_fd_sc_hd__nor2_1
*I *1331:B I *D sky130_fd_sc_hd__nor2_1
*I *1337:A2 I *D sky130_fd_sc_hd__a211o_1
*I *1351:A I *D sky130_fd_sc_hd__nand2_1
*I *1461:Q O *D sky130_fd_sc_hd__dfrtp_2
*CAP
1 *1338:A1 7.14083e-05
2 *1247:A 0
3 *1344:A 0.000196598
4 *1331:B 2.15002e-05
5 *1337:A2 1.92442e-05
6 *1351:A 0.000398456
7 *1461:Q 0.000218911
8 *287:26 0.000527778
9 *287:24 0.000353967
10 *287:20 0.000746149
11 *287:16 0.000387665
12 *287:12 0.000350823
13 *1337:A2 *1337:B1 4.00541e-06
14 *1351:A *1337:B1 2.2923e-05
15 *1351:A *1337:C1 4.40028e-05
16 *1351:A *288:10 1.94892e-05
17 *1351:A *288:14 0.000115886
18 *1351:A *288:30 3.69334e-05
19 *1351:A *288:41 2.37321e-05
20 *1249:A *1351:A 8.65961e-05
21 *1331:A *1331:B 3.26889e-05
22 *1331:A *287:24 5.78206e-05
23 *1332:B *1344:A 8.03811e-05
24 *1333:B1 *1344:A 4.94404e-05
25 *1338:B1 *1338:A1 0.000130057
26 *1338:B1 *287:16 5.16418e-05
27 *1338:B1 *287:20 4.85494e-05
28 *1339:B2 *1344:A 7.16199e-05
29 *1340:B *1338:A1 2.75229e-05
30 *1342:A *287:26 0.000124473
31 *1345:A2 *1344:A 4.92014e-05
32 *1345:B1 *1331:B 0
33 *1345:C1 *1344:A 9.11909e-05
34 *1398:B *1351:A 1.08758e-05
35 *1398:B *287:26 0.000185053
36 *1400:A2 *287:12 0.000103375
37 *1400:A2 *287:20 1.37328e-05
38 *1401:B *287:12 0.000352161
39 *1402:A *287:12 0.00029068
40 *1402:B *287:12 8.65905e-05
41 *1459:CLK *1344:A 0
42 *11:29 *1351:A 0.00010686
43 *75:10 *287:12 5.78262e-05
44 *75:10 *287:20 1.33293e-05
45 *147:29 *1331:B 4.93177e-05
46 *147:29 *1351:A 3.0807e-05
47 *147:29 *287:24 1.12578e-05
48 *147:29 *287:26 8.99895e-05
49 *285:21 *1338:A1 0
50 *285:21 *287:16 0
51 *285:27 *1338:A1 4.82919e-05
52 *285:33 *287:16 0
53 *285:33 *287:20 0.000302981
54 *285:35 *287:20 1.08758e-05
55 *285:35 *287:24 0.000227261
56 *286:27 *1338:A1 3.98712e-05
57 *286:46 *1344:A 1.79536e-05
*RES
1 *1461:Q *287:12 9.69 
2 *287:12 *287:16 2.87 
3 *287:16 *287:20 4.86 
4 *287:20 *287:24 3.225 
5 *287:24 *287:26 3.21 
6 *287:26 *1351:A 13.19 
7 *287:26 *1337:A2 1.96 
8 *287:24 *1331:B 2.53 
9 *287:20 *1344:A 10.295 
10 *287:16 *1247:A 1.6 
11 *287:12 *1338:A1 5.685 
*END

*D_NET *288 0.00326568
*CONN
*I *1336:C1 I *D sky130_fd_sc_hd__o211a_1
*I *1335:B1 I *D sky130_fd_sc_hd__o21ai_1
*I *1352:B1 I *D sky130_fd_sc_hd__a32o_1
*I *1346:B I *D sky130_fd_sc_hd__nand2_1
*I *1350:B I *D sky130_fd_sc_hd__or4_1
*I *1337:C1 I *D sky130_fd_sc_hd__a211o_1
*I *1536:A I *D sky130_fd_sc_hd__dlygate4sd3_1
*I *1412:Q O *D sky130_fd_sc_hd__dfrtp_2
*CAP
1 *1336:C1 7.09833e-05
2 *1335:B1 0
3 *1352:B1 1.04051e-05
4 *1346:B 0.000106439
5 *1350:B 0
6 *1337:C1 2.7231e-05
7 *1536:A 0
8 *1412:Q 0.000325521
9 *288:45 0.000144633
10 *288:43 4.76795e-05
11 *288:41 0.000237081
12 *288:30 0.000226474
13 *288:14 6.40807e-05
14 *288:10 0.000442638
15 *1337:C1 *1337:B1 0.000117777
16 *1346:B *1346:A 0.000274069
17 *288:14 *1337:B1 0.000198618
18 *288:41 *1336:B1 0
19 *288:41 *1346:A 1.52184e-05
20 *288:41 *289:47 7.44453e-05
21 *288:45 *1346:A 0.000105743
22 *288:45 *1352:B2 4.82863e-05
23 *1335:A1 *288:41 1.70935e-05
24 *1335:A2 *1336:C1 0.000101035
25 *1335:A2 *1352:B1 0
26 *1336:A2 *1336:C1 5.6793e-06
27 *1350:C *288:41 0.000117832
28 *1351:A *1337:C1 4.40028e-05
29 *1351:A *288:10 1.94892e-05
30 *1351:A *288:14 0.000115886
31 *1351:A *288:30 3.69334e-05
32 *1351:A *288:41 2.37321e-05
33 *1352:A1 *1346:B 2.92e-05
34 *1352:A1 *288:45 3.40841e-05
35 *1352:A2 *288:41 0
36 *1412:D *288:10 3.45588e-05
37 *11:29 *288:10 0
38 *152:28 *288:41 0
39 *152:39 *1336:C1 9.3792e-05
40 *155:10 *288:10 0
41 *155:10 *288:30 0
42 *155:10 *288:41 0
43 *166:12 *1336:C1 5.83121e-06
44 *166:12 *288:43 2.75145e-05
45 *166:12 *288:45 2.16917e-05
*RES
1 *1412:Q *288:10 7.755 
2 *288:10 *288:14 3.83 
3 *288:14 *1536:A 1.6 
4 *288:14 *1337:C1 2.755 
5 *288:10 *288:30 1.38 
6 *288:30 *1350:B 3.6 
7 *288:30 *288:41 4.91 
8 *288:41 *288:43 0.45 
9 *288:43 *288:45 1.3125 
10 *288:45 *1346:B 4.3075 
11 *288:45 *1352:B1 1.96 
12 *288:43 *1335:B1 1.6 
13 *288:41 *1336:C1 4.15 
*END

*D_NET *289 0.00479488
*CONN
*I *1337:B1 I *D sky130_fd_sc_hd__a211o_1
*I *1351:B I *D sky130_fd_sc_hd__nand2_1
*I *1336:B1 I *D sky130_fd_sc_hd__o211a_1
*I *1346:A I *D sky130_fd_sc_hd__nand2_1
*I *1352:B2 I *D sky130_fd_sc_hd__a32o_1
*I *1350:A I *D sky130_fd_sc_hd__or4_1
*I *1323:A I *D sky130_fd_sc_hd__nand2_1
*I *1322:A I *D sky130_fd_sc_hd__or2_1
*I *1413:Q O *D sky130_fd_sc_hd__dfrtp_2
*CAP
1 *1337:B1 0.000170502
2 *1351:B 0
3 *1336:B1 0.000190699
4 *1346:A 0.000161951
5 *1352:B2 1.17533e-05
6 *1350:A 0
7 *1323:A 0
8 *1322:A 9.69485e-05
9 *1413:Q 0
10 *289:47 0.000293985
11 *289:41 0.000328755
12 *289:34 9.91366e-05
13 *289:28 0.000100288
14 *289:21 3.39688e-05
15 *289:10 0.000192457
16 *289:4 0.000250969
17 *1249:A *1337:B1 7.22354e-05
18 *1322:B *1322:A 4.82863e-05
19 *1324:B *1322:A 3.23663e-05
20 *1335:A1 *1336:B1 3.60024e-06
21 *1337:A2 *1337:B1 4.00541e-06
22 *1337:C1 *1337:B1 0.000117777
23 *1346:B *1346:A 0.000274069
24 *1349:B1 *289:34 0
25 *1349:B1 *289:41 0
26 *1350:C *1336:B1 0
27 *1350:D *1336:B1 4.89295e-05
28 *1351:A *1337:B1 2.2923e-05
29 *1352:A1 *1352:B2 2.75145e-05
30 *1352:A2 *289:10 4.9968e-05
31 *1352:A2 *289:28 1.46744e-05
32 *1352:A2 *289:34 0.000122337
33 *1352:A2 *289:47 0
34 *1352:A3 *1322:A 1.16578e-05
35 *1352:A3 *289:21 1.91597e-05
36 *1352:A3 *289:28 5.05521e-05
37 *1352:A3 *289:34 1.61831e-05
38 *1352:A3 *289:47 0
39 *11:29 *1322:A 2.28628e-05
40 *11:29 *289:10 3.60648e-05
41 *11:29 *289:21 4.66108e-05
42 *11:29 *289:28 3.57349e-05
43 *11:29 *289:34 0
44 *147:29 *1337:B1 0.00060874
45 *148:21 *1336:B1 5.61333e-05
46 *148:21 *289:34 6.43067e-05
47 *152:28 *1336:B1 6.89789e-05
48 *166:12 *1346:A 0.000387891
49 *197:93 *1346:A 0
50 *197:93 *289:10 0.000157595
51 *288:14 *1337:B1 0.000198618
52 *288:41 *1336:B1 0
53 *288:41 *1346:A 1.52184e-05
54 *288:41 *289:47 7.44453e-05
55 *288:45 *1346:A 0.000105743
56 *288:45 *1352:B2 4.82863e-05
*RES
1 *1413:Q *289:4 1.6 
2 *289:4 *289:10 5.89 
3 *289:10 *1322:A 3.445 
4 *289:10 *289:21 0.45 
5 *289:21 *1323:A 1.6 
6 *289:21 *289:28 0.795 
7 *289:28 *289:34 2.55 
8 *289:34 *1350:A 1.6 
9 *289:34 *289:41 0.36 
10 *289:41 *289:47 4.43 
11 *289:47 *1352:B2 4.05 
12 *289:47 *1346:A 8.73 
13 *289:41 *1336:B1 9.065 
14 *289:28 *1351:B 1.6 
15 *289:4 *1337:B1 7.84 
*END

*D_NET *290 0.00659194
*CONN
*I *1359:A0 I *D sky130_fd_sc_hd__mux2_1
*I *1273:A2_N I *D sky130_fd_sc_hd__o2bb2a_1
*I *1276:A2 I *D sky130_fd_sc_hd__o221a_1
*I *1326:A1 I *D sky130_fd_sc_hd__mux2_1
*I *1417:Q O *D sky130_fd_sc_hd__dfrtp_1
*CAP
1 *1359:A0 7.86458e-05
2 *1273:A2_N 0.000143233
3 *1276:A2 3.22026e-05
4 *1326:A1 0.000203158
5 *1417:Q 0
6 *290:28 0.000378959
7 *290:22 0.00157844
8 *290:4 0.00137026
9 *1273:A2_N *1276:C1 7.21296e-06
10 *1276:A2 *1276:C1 1.52184e-05
11 *1326:A1 *1276:C1 5.99925e-05
12 *1326:A1 *1394:A1 0.000109931
13 *1326:A1 *324:19 0.000109249
14 *1359:A0 *1243:A 4.19967e-05
15 *1359:A0 *322:12 0.000138544
16 *290:22 *1276:C1 2.66935e-05
17 *290:22 *1393:A1 0.00021315
18 *290:22 *1505:A 0.000141323
19 *290:28 *1276:C1 8.49205e-05
20 *1276:A1 *1273:A2_N 0.000344388
21 *1276:A1 *290:28 3.09179e-05
22 *1326:A0 *1326:A1 0
23 *1328:A0 *1276:A2 0
24 *1393:A0 *290:22 4.30866e-05
25 *1393:S *290:22 2.49909e-05
26 *1394:A0 *1326:A1 0.000227218
27 *1406:CLK *1326:A1 6.28765e-05
28 *1464:RESET_B *1359:A0 0
29 *1516:A *1326:A1 4.82919e-05
30 *176:60 *290:28 1.03323e-05
31 *181:18 *1326:A1 1.19928e-05
32 *181:24 *1326:A1 2.12295e-05
33 *182:76 *1359:A0 0
34 *191:10 *1273:A2_N 5.4003e-05
35 *201:32 *290:22 0
36 *201:44 *290:22 0.000396577
37 *201:78 *1273:A2_N 0.000463829
38 *201:78 *290:22 7.06865e-05
39 *273:50 *290:22 4.83849e-05
*RES
1 *1417:Q *290:4 1.6 
2 *290:4 *290:22 20.24 
3 *290:22 *290:28 5.83 
4 *290:28 *1326:A1 9.45 
5 *290:28 *1276:A2 4.215 
6 *290:22 *1273:A2_N 9.06 
7 *290:4 *1359:A0 7.49 
*END

*D_NET *291 0.002913
*CONN
*I *1244:A I *D sky130_fd_sc_hd__inv_2
*I *1560:A I *D sky130_fd_sc_hd__dlygate4sd3_1
*I *1273:B1 I *D sky130_fd_sc_hd__o2bb2a_1
*I *1568:A I *D sky130_fd_sc_hd__dlygate4sd3_1
*I *1418:Q O *D sky130_fd_sc_hd__dfrtp_1
*CAP
1 *1244:A 8.48484e-05
2 *1560:A 5.13254e-06
3 *1273:B1 0
4 *1568:A 0.000307249
5 *1418:Q 0
6 *291:31 0.000218058
7 *291:21 0.000372268
8 *291:4 0.000381743
9 *1568:A *1287:A2 1.19928e-05
10 *1273:A1_N *291:31 2.36938e-05
11 *1274:A *1568:A 5.16348e-05
12 *1277:A2 *1244:A 0.000175412
13 *1277:A2 *291:31 0.000113691
14 *1277:B1 *291:31 2.76356e-05
15 *1277:C1 *1568:A 0
16 *1277:C1 *291:31 2.99555e-05
17 *1287:A1 *1568:A 4.66108e-05
18 *1287:B1 *1568:A 9.54469e-05
19 *1287:C1 *1568:A 7.16166e-05
20 *1296:B *1568:A 8.22234e-06
21 *1487:A *1244:A 9.93194e-05
22 *1487:A *291:31 4.15215e-05
23 *189:18 *1560:A 4.99619e-05
24 *189:18 *291:31 4.99619e-05
25 *190:46 *1244:A 2.54606e-05
26 *190:46 *291:31 0
27 *192:53 *1568:A 0.000239709
28 *195:56 *1560:A 3.83041e-05
29 *195:56 *291:31 0.000343555
*RES
1 *1418:Q *291:4 1.6 
2 *291:4 *1568:A 10.85 
3 *291:4 *291:21 2.795 
4 *291:21 *291:31 7.4 
5 *291:31 *1273:B1 1.6 
6 *291:31 *1560:A 2.05 
7 *291:21 *1244:A 6.51 
*END

*D_NET *292 0.00622005
*CONN
*I *1275:B I *D sky130_fd_sc_hd__nor2_1
*I *1274:B I *D sky130_fd_sc_hd__and2_1
*I *1328:A1 I *D sky130_fd_sc_hd__mux2_1
*I *1552:A I *D sky130_fd_sc_hd__dlygate4sd3_1
*I *1419:Q O *D sky130_fd_sc_hd__dfrtp_1
*CAP
1 *1275:B 0
2 *1274:B 0
3 *1328:A1 0.000268203
4 *1552:A 0.000216128
5 *1419:Q 3.58965e-05
6 *292:45 0.000534159
7 *292:33 0.000916764
8 *292:8 0.000902832
9 *1328:A1 *1276:C1 3.26889e-05
10 *292:33 *1294:C1 0
11 *292:33 *1393:A1 0
12 *292:45 *1520:A 0.000193842
13 *1274:A *292:45 0.000140912
14 *1276:B2 *292:33 1.91597e-05
15 *1276:B2 *292:45 0.000151574
16 *1277:C1 *292:45 0
17 *1326:A0 *1328:A1 9.91257e-05
18 *1328:A0 *292:45 0.000117832
19 *1328:S *1328:A1 0.000138551
20 *1361:A0 *1552:A 0.000164874
21 *1361:A1 *1552:A 0.000393029
22 *1418:CLK *292:33 0
23 *1419:CLK *292:33 0
24 *1453:D *292:33 8.03844e-05
25 *1453:RESET_B *292:8 2.75145e-05
26 *1472:A *292:33 3.66286e-05
27 *1506:A *292:33 6.28765e-05
28 *176:18 *1328:A1 0.000304433
29 *176:60 *1328:A1 6.90876e-05
30 *176:60 *292:33 0.000658594
31 *181:12 *292:33 0
32 *192:70 *292:33 1.56428e-05
33 *192:70 *292:45 8.18041e-05
34 *197:24 *1328:A1 0.000138551
35 *201:44 *292:33 0
36 *201:78 *292:33 0.000159964
37 *273:54 *1552:A 0
38 *273:54 *292:33 0
39 *281:139 *1328:A1 0.000258998
*RES
1 *1419:Q *292:8 4.05 
2 *292:8 *1552:A 8.79 
3 *292:8 *292:33 19.605 
4 *292:33 *292:45 10.69 
5 *292:45 *1328:A1 14.27 
6 *292:45 *1274:B 1.6 
7 *292:33 *1275:B 1.6 
*END

*D_NET *293 0.00179205
*CONN
*I *1285:A2 I *D sky130_fd_sc_hd__o22ai_1
*I *1286:A2 I *D sky130_fd_sc_hd__a221o_1
*I *1515:A I *D sky130_fd_sc_hd__dlygate4sd3_1
*I *1406:Q O *D sky130_fd_sc_hd__dfrtp_1
*CAP
1 *1285:A2 0.000259398
2 *1286:A2 3.75469e-06
3 *1515:A 0
4 *1406:Q 0.0002016
5 *293:19 0.000376234
6 *293:10 0.000314682
7 *1286:B2 *293:10 4.82863e-05
8 *1327:A1 *1286:A2 1.2818e-05
9 *1328:A0 *293:10 5.32978e-05
10 *1491:A *1285:A2 0.000130463
11 *1492:A *1285:A2 6.81237e-05
12 *1492:A *293:10 7.3664e-05
13 *1492:A *293:19 8.07863e-05
14 *190:14 *1285:A2 0.000114492
15 *190:14 *1286:A2 1.2818e-05
16 *195:14 *1285:A2 4.16353e-05
17 *281:139 *293:10 0
18 *281:139 *293:19 0
*RES
1 *1406:Q *293:10 6.72 
2 *293:10 *1515:A 3.6 
3 *293:10 *293:19 1.89 
4 *293:19 *1286:A2 3.72375 
5 *293:19 *1285:A2 7.755 
*END

*D_NET *294 0.00233171
*CONN
*I *1558:A I *D sky130_fd_sc_hd__dlygate4sd3_1
*I *1283:B I *D sky130_fd_sc_hd__or2_1
*I *1284:B I *D sky130_fd_sc_hd__nand2_1
*I *1407:Q O *D sky130_fd_sc_hd__dfrtp_1
*CAP
1 *1558:A 0.000207362
2 *1283:B 0
3 *1284:B 0.000221392
4 *1407:Q 0
5 *294:10 0.000631265
6 *294:4 0.000617235
7 *1558:A *1287:A2 0.000116165
8 *1284:A *1284:B 0
9 *1287:B1 *1558:A 7.65428e-05
10 *1407:RESET_B *294:10 7.81924e-05
11 *1408:D *1284:B 0
12 *1491:A *294:10 3.39454e-05
13 *1492:A *1558:A 0.000116165
14 *176:28 *1284:B 0
15 *176:28 *294:10 0
16 *195:14 *1284:B 0
17 *195:14 *1558:A 6.95065e-05
18 *195:14 *294:10 1.38178e-05
19 *198:20 *294:10 0
20 *198:44 *1284:B 8.53113e-06
21 *262:119 *294:10 0
22 *281:23 *1284:B 0.000141592
23 *281:33 *1284:B 0
*RES
1 *1407:Q *294:4 1.6 
2 *294:4 *294:10 7.685 
3 *294:10 *1284:B 7.53 
4 *294:10 *1283:B 3.6 
5 *294:4 *1558:A 9.155 
*END

*D_NET *295 0.00370792
*CONN
*I *1287:A2 I *D sky130_fd_sc_hd__a211o_1
*I *1285:B1 I *D sky130_fd_sc_hd__o22ai_1
*I *1520:A I *D sky130_fd_sc_hd__dlygate4sd3_1
*I *1408:Q O *D sky130_fd_sc_hd__dfrtp_1
*CAP
1 *1287:A2 0.000402143
2 *1285:B1 0
3 *1520:A 0.000319048
4 *1408:Q 6.79118e-05
5 *295:23 0.00047133
6 *295:8 0.000456147
7 *1242:A *1287:A2 8.53113e-06
8 *1274:A *1520:A 8.40269e-05
9 *1285:A1 *1520:A 0.000122337
10 *1285:A1 *295:23 0
11 *1285:B2 *1287:A2 8.71001e-05
12 *1286:B2 *295:8 0.000115464
13 *1286:C1 *295:8 0.000113797
14 *1287:A1 *1287:A2 0.000174971
15 *1287:C1 *1520:A 0.000233786
16 *1296:B *1287:A2 4.66742e-05
17 *1327:A0 *295:8 0
18 *1327:A1 *1520:A 3.23663e-05
19 *1328:S *295:8 8.08153e-06
20 *1492:A *1287:A2 5.65549e-05
21 *1492:A *295:8 2.23407e-05
22 *1492:A *295:23 6.28843e-05
23 *1558:A *1287:A2 0.000116165
24 *1568:A *1287:A2 1.19928e-05
25 *70:27 *1287:A2 0.000278233
26 *190:14 *1520:A 8.40213e-05
27 *192:70 *1520:A 0.000138175
28 *262:119 *1287:A2 0
29 *292:45 *1520:A 0.000193842
*RES
1 *1408:Q *295:8 5.49 
2 *295:8 *1520:A 11.415 
3 *295:8 *295:23 1.38 
4 *295:23 *1285:B1 3.6 
5 *295:23 *1287:A2 12.24 
*END

*D_NET *296 0.0033565
*CONN
*I *1551:A I *D sky130_fd_sc_hd__dlygate4sd3_1
*I *1299:A2 I *D sky130_fd_sc_hd__o221a_1
*I *1298:A2 I *D sky130_fd_sc_hd__a22o_1
*I *1436:Q O *D sky130_fd_sc_hd__dfrtp_1
*CAP
1 *1551:A 0.00022019
2 *1299:A2 0
3 *1298:A2 0.000119483
4 *1436:Q 0.000551541
5 *296:18 0.000168451
6 *296:16 0.000820699
7 *1551:A *1271:C1 0
8 *1298:A1 *1298:A2 2.75145e-05
9 *1298:B1 *1298:A2 7.00889e-06
10 *1375:A0 *296:16 9.01984e-05
11 *1375:A1 *296:16 0.000122083
12 *1375:S *296:16 2.68464e-05
13 *1433:D *1551:A 0.000116151
14 *1561:A *296:16 0.000310864
15 *176:34 *1298:A2 0.0001032
16 *176:34 *1551:A 0.000243764
17 *176:34 *296:18 7.63047e-05
18 *179:19 *1551:A 0
19 *194:43 *1298:A2 0.000187071
20 *194:64 *1298:A2 9.50342e-06
21 *194:64 *296:16 4.66108e-05
22 *194:64 *296:18 0.000109009
23 *251:41 *1551:A 0
24 *251:41 *296:18 0
*RES
1 *1436:Q *296:16 13.425 
2 *296:16 *296:18 1.635 
3 *296:18 *1298:A2 6.9 
4 *296:18 *1299:A2 3.6 
5 *296:16 *1551:A 8.595 
*END

*D_NET *297 0.000726174
*CONN
*I *1528:A I *D sky130_fd_sc_hd__dlygate4sd3_1
*I *1251:A I *D sky130_fd_sc_hd__inv_2
*I *1437:Q O *D sky130_fd_sc_hd__dfrtp_1
*CAP
1 *1528:A 3.56363e-05
2 *1251:A 0.000108066
3 *1437:Q 3.47692e-05
4 *297:8 0.000178472
5 *1298:B1 *1528:A 5.83121e-06
6 *1299:B1 *1251:A 4.27715e-05
7 *1299:B1 *297:8 0.000114201
8 *78:8 *1251:A 9.35189e-05
9 *251:41 *1251:A 8.30853e-06
10 *251:41 *297:8 0.000104599
*RES
1 *1437:Q *297:8 4.98 
2 *297:8 *1251:A 5.745 
3 *297:8 *1528:A 4.05 
*END

*D_NET *298 0.00252783
*CONN
*I *1376:A1 I *D sky130_fd_sc_hd__mux2_1
*I *1297:B I *D sky130_fd_sc_hd__xnor2_1
*I *1549:A I *D sky130_fd_sc_hd__dlygate4sd3_1
*I *1438:Q O *D sky130_fd_sc_hd__dfrtp_1
*CAP
1 *1376:A1 0
2 *1297:B 0.000136406
3 *1549:A 7.67356e-05
4 *1438:Q 9.10708e-05
5 *298:21 0.000344232
6 *298:10 0.000375632
7 *1297:B *301:16 1.1561e-05
8 *1296:A *1297:B 0.000350486
9 *1376:A0 *298:21 4.99619e-05
10 *1379:A0 *298:10 0
11 *1466:A *1297:B 0.000205372
12 *1540:A *1297:B 0.000116165
13 *1540:A *298:21 0.000197269
14 *193:74 *1297:B 5.93844e-05
15 *194:21 *298:10 0.000159964
16 *262:36 *1549:A 0.000104908
17 *262:36 *298:21 0.000248682
*RES
1 *1438:Q *298:10 7.49 
2 *298:10 *1549:A 3.1 
3 *298:10 *298:21 4.59 
4 *298:21 *1297:B 10.7 
5 *298:21 *1376:A1 1.6 
*END

*D_NET *299 0.00257723
*CONN
*I *1545:A I *D sky130_fd_sc_hd__dlygate4sd3_1
*I *1268:A2 I *D sky130_fd_sc_hd__a22oi_1
*I *1272:A2 I *D sky130_fd_sc_hd__o211a_1
*I *1433:Q O *D sky130_fd_sc_hd__dfrtp_1
*CAP
1 *1545:A 0.000146539
2 *1268:A2 0
3 *1272:A2 0.00016753
4 *1433:Q 7.57987e-05
5 *299:23 0.000160384
6 *299:8 0.000257174
7 *1545:A *1371:A0 8.40213e-05
8 *299:8 *1268:B1 4.66108e-05
9 *1268:A1 *1545:A 9.82483e-05
10 *1268:A1 *299:8 1.08758e-05
11 *1268:A1 *299:23 5.24047e-05
12 *1268:B2 *299:8 4.82919e-05
13 *1272:B1 *1272:A2 0.000382989
14 *1546:A *1545:A 0.000135652
15 *189:61 *1545:A 8.65851e-05
16 *189:61 *299:8 5.58206e-05
17 *189:61 *299:23 2.47173e-05
18 *190:81 *1545:A 0.000345638
19 *190:96 *1272:A2 0
20 *194:64 *1272:A2 0
21 *194:64 *299:8 2.80029e-05
22 *200:35 *1272:A2 9.78647e-05
23 *257:6 *1545:A 0.000272085
*RES
1 *1433:Q *299:8 3.445 
2 *299:8 *1272:A2 10.4 
3 *299:8 *299:23 0.585 
4 *299:23 *1268:A2 1.6 
5 *299:23 *1545:A 8.125 
*END

*D_NET *300 0.0029094
*CONN
*I *1531:A I *D sky130_fd_sc_hd__dlygate4sd3_1
*I *1268:B1 I *D sky130_fd_sc_hd__a22oi_1
*I *1271:A2 I *D sky130_fd_sc_hd__o221a_1
*I *1434:Q O *D sky130_fd_sc_hd__dfrtp_1
*CAP
1 *1531:A 7.12637e-05
2 *1268:B1 1.36534e-05
3 *1271:A2 0.000135879
4 *1434:Q 0.000623133
5 *300:10 0.000388448
6 *300:8 0.000933312
7 *1272:B1 *1271:A2 0.000158297
8 *1272:B1 *300:10 5.16418e-05
9 *1272:C1 *1271:A2 2.75229e-05
10 *1446:RESET_B *1531:A 4.11112e-05
11 *1446:RESET_B *300:10 0.000139927
12 *189:61 *1271:A2 4.43871e-06
13 *189:61 *300:10 4.84393e-05
14 *189:63 *1271:A2 7.36562e-05
15 *189:77 *1271:A2 1.71013e-05
16 *194:64 *1268:B1 4.66108e-05
17 *194:64 *1531:A 0
18 *194:64 *300:10 0
19 *200:41 *1271:A2 6.97118e-05
20 *263:10 *300:8 1.86399e-05
21 *299:8 *1268:B1 4.66108e-05
*RES
1 *1434:Q *300:8 10.26 
2 *300:8 *300:10 5.205 
3 *300:10 *1271:A2 6.975 
4 *300:10 *1268:B1 4.05 
5 *300:8 *1531:A 4.98 
*END

*D_NET *301 0.00401656
*CONN
*I *1539:A I *D sky130_fd_sc_hd__dlygate4sd3_1
*I *1373:A1 I *D sky130_fd_sc_hd__mux2_1
*I *1270:B I *D sky130_fd_sc_hd__nor2_1
*I *1269:B I *D sky130_fd_sc_hd__and2_1
*I *1435:Q O *D sky130_fd_sc_hd__dfrtp_1
*CAP
1 *1539:A 0.000182538
2 *1373:A1 0.000144868
3 *1270:B 0.000206471
4 *1269:B 2.89866e-05
5 *1435:Q 0
6 *301:16 0.000685313
7 *301:10 0.000745945
8 *301:4 0.00033376
9 *1271:B1 *1270:B 0.000139245
10 *1271:B2 *1270:B 8.88631e-05
11 *1297:B *301:16 1.1561e-05
12 *1300:B *1270:B 0
13 *1300:C *301:16 3.90266e-05
14 *1376:A0 *1539:A 4.82919e-05
15 *1376:A0 *301:10 1.1561e-05
16 *1377:A0 *1270:B 1.1561e-05
17 *1432:D *301:16 4.61658e-05
18 *1435:RESET_B *1539:A 4.65515e-05
19 *1465:CLK *301:10 0.000138551
20 *1465:D *301:10 4.94404e-05
21 *1466:A *1373:A1 0.000239813
22 *1466:A *301:16 0.000312182
23 *1540:A *301:16 5.33085e-05
24 *189:63 *1270:B 5.11148e-06
25 *189:77 *1269:B 4.66108e-05
26 *189:77 *1270:B 9.23621e-05
27 *189:77 *301:16 0.000178034
28 *190:100 *1269:B 8.40213e-05
29 *200:26 *301:16 0
30 *200:35 *301:16 0
31 *200:41 *1270:B 4.43871e-06
32 *262:28 *301:10 4.19797e-05
33 *262:28 *301:16 0
34 *281:33 *301:10 0
*RES
1 *1435:Q *301:4 1.6 
2 *301:4 *301:10 7.165 
3 *301:10 *301:16 9.56 
4 *301:16 *1269:B 4.395 
5 *301:16 *1270:B 8.1 
6 *301:10 *1373:A1 3.775 
7 *301:4 *1539:A 4.48 
*END

*D_NET *302 0.00597437
*CONN
*I *1252:A I *D sky130_fd_sc_hd__inv_2
*I *1564:A I *D sky130_fd_sc_hd__dlygate4sd3_1
*I *1371:A0 I *D sky130_fd_sc_hd__mux2_1
*I *1303:B1 I *D sky130_fd_sc_hd__o2bb2a_1
*I *1430:Q O *D sky130_fd_sc_hd__dfrtp_1
*CAP
1 *1252:A 5.05678e-05
2 *1564:A 0.00072629
3 *1371:A0 2.01995e-05
4 *1303:B1 0.000228112
5 *1430:Q 0.000285649
6 *302:32 0.000830711
7 *302:21 0.000107039
8 *302:8 0.000546748
9 *1303:B1 *304:25 0.000313852
10 *1564:A *1365:A1 4.82919e-05
11 *1564:A *1368:A0 1.61831e-05
12 *1564:A *305:16 0.000449989
13 *1278:C *1303:B1 2.39856e-05
14 *1368:A1 *1564:A 0.000426636
15 *1430:RESET_B *302:8 4.11729e-05
16 *1545:A *1371:A0 8.40213e-05
17 *1565:A *1564:A 4.41463e-05
18 *176:86 *1564:A 0.000122706
19 *190:81 *1371:A0 8.40213e-05
20 *200:41 *302:8 8.65905e-05
21 *262:87 *1252:A 0.000206123
22 *262:87 *1303:B1 0.000252977
23 *262:87 *302:21 9.14049e-05
24 *262:87 *302:32 0.000179015
25 *281:98 *1252:A 0.000198279
26 *281:98 *1303:B1 0.000254637
27 *281:98 *302:21 8.28738e-05
28 *281:98 *302:32 0.000172151
*RES
1 *1430:Q *302:8 6.81 
2 *302:8 *1303:B1 10.065 
3 *302:8 *302:21 1.125 
4 *302:21 *1371:A0 4.395 
5 *302:21 *302:32 2.145 
6 *302:32 *1564:A 17.28 
7 *302:32 *1252:A 6 
*END

*D_NET *303 0.00106851
*CONN
*I *1526:A I *D sky130_fd_sc_hd__dlygate4sd3_1
*I *1302:B I *D sky130_fd_sc_hd__nor2_1
*I *1301:B I *D sky130_fd_sc_hd__and2_1
*I *1431:Q O *D sky130_fd_sc_hd__dfrtp_1
*CAP
1 *1526:A 5.24295e-05
2 *1302:B 1.86282e-05
3 *1301:B 0.000100842
4 *1431:Q 0
5 *303:10 0.000231909
6 *303:4 0.000164868
7 *1301:B *1512:A 0
8 *1372:A0 *1302:B 0.0001249
9 *1372:A1 *1301:B 3.4222e-05
10 *1372:S *1302:B 0.0001249
11 *1431:CLK *1526:A 2.11084e-05
12 *1431:CLK *303:10 3.82323e-06
13 *194:74 *1301:B 0
14 *199:30 *1301:B 4.9968e-05
15 *200:64 *1301:B 9.50342e-06
16 *200:64 *303:10 0.000131408
17 *237:10 *303:10 0
*RES
1 *1431:Q *303:4 1.6 
2 *303:4 *303:10 4.085 
3 *303:10 *1301:B 5.49 
4 *303:10 *1302:B 4.74 
5 *303:4 *1526:A 2.665 
*END

*D_NET *304 0.00245113
*CONN
*I *1305:A2 I *D sky130_fd_sc_hd__o211a_1
*I *1303:A2_N I *D sky130_fd_sc_hd__o2bb2a_1
*I *1533:A I *D sky130_fd_sc_hd__dlygate4sd3_1
*I *1432:Q O *D sky130_fd_sc_hd__dfrtp_1
*CAP
1 *1305:A2 0.000262108
2 *1303:A2_N 0
3 *1533:A 0
4 *1432:Q 4.21252e-05
5 *304:25 0.000487439
6 *304:10 0.000267456
7 *1305:A2 *307:23 9.387e-06
8 *1278:C *1305:A2 4.66108e-05
9 *1278:C *304:25 0.000200878
10 *1303:A1_N *1305:A2 0.000264057
11 *1303:A1_N *304:25 0
12 *1303:B1 *304:25 0.000313852
13 *1303:B2 *304:25 3.97433e-05
14 *1305:A1 *1305:A2 9.53428e-06
15 *1305:B1 *1305:A2 5.37755e-05
16 *1370:A0 *1305:A2 7.33703e-05
17 *70:65 *1305:A2 3.64998e-06
18 *180:20 *304:10 0.000139238
19 *188:42 *1305:A2 9.31861e-05
20 *190:58 *1305:A2 8.54813e-06
21 *190:58 *304:25 2.66586e-05
22 *262:87 *304:10 0.000109517
*RES
1 *1432:Q *304:10 7.235 
2 *304:10 *1533:A 1.6 
3 *304:10 *304:25 5.775 
4 *304:25 *1303:A2_N 1.6 
5 *304:25 *1305:A2 10.31 
*END

*D_NET *305 0.00341768
*CONN
*I *1368:A0 I *D sky130_fd_sc_hd__mux2_1
*I *1365:A1 I *D sky130_fd_sc_hd__mux2_1
*I *1257:A2 I *D sky130_fd_sc_hd__o22a_1
*I *1253:A I *D sky130_fd_sc_hd__inv_2
*I *1426:Q O *D sky130_fd_sc_hd__dfrtp_1
*CAP
1 *1368:A0 9.16512e-05
2 *1365:A1 8.17411e-05
3 *1257:A2 0
4 *1253:A 8.7255e-05
5 *1426:Q 0.000231015
6 *305:22 0.000133343
7 *305:16 0.000369121
8 *305:10 0.000563958
9 *305:16 *1257:B1 0.000153816
10 *305:22 *1257:B1 2.92496e-05
11 *1257:B2 *1253:A 1.51429e-05
12 *1260:A1 *305:10 5.02217e-05
13 *1260:A1 *305:16 3.67779e-05
14 *1260:A2 *1253:A 5.56995e-05
15 *1261:B *305:16 4.66108e-05
16 *1365:A0 *1365:A1 4.99619e-05
17 *1368:A1 *1368:A0 0.000198939
18 *1494:A *305:22 4.49939e-05
19 *1564:A *1365:A1 4.82919e-05
20 *1564:A *1368:A0 1.61831e-05
21 *1564:A *305:16 0.000449989
22 *1565:A *1368:A0 8.40213e-05
23 *1565:A *305:10 0
24 *176:86 *1365:A1 0.000126404
25 *186:25 *1365:A1 0.000201508
26 *186:25 *305:22 8.08153e-06
27 *188:42 *305:16 0
28 *188:59 *305:16 0
29 *189:30 *1253:A 8.19902e-05
30 *189:51 *1253:A 4.00541e-06
31 *190:142 *1365:A1 6.29663e-05
32 *190:142 *305:22 9.47454e-05
*RES
1 *1426:Q *305:10 6.555 
2 *305:10 *305:16 7.115 
3 *305:16 *305:22 5.38 
4 *305:22 *1253:A 3.91 
5 *305:22 *1257:A2 1.6 
6 *305:16 *1365:A1 4.93 
7 *305:10 *1368:A0 5.775 
*END

*D_NET *306 0.0051606
*CONN
*I *1366:A1 I *D sky130_fd_sc_hd__mux2_1
*I *1369:A0 I *D sky130_fd_sc_hd__mux2_1
*I *1256:B I *D sky130_fd_sc_hd__nand2_1
*I *1257:B1 I *D sky130_fd_sc_hd__o22a_1
*I *1427:Q O *D sky130_fd_sc_hd__dfrtp_1
*CAP
1 *1366:A1 4.62282e-05
2 *1369:A0 0.000390806
3 *1256:B 8.58055e-05
4 *1257:B1 0.000343919
5 *1427:Q 0.000244435
6 *306:14 0.000621012
7 *306:12 0.000639645
8 *306:8 0.000348215
9 *1366:A1 *330:12 8.23457e-05
10 *306:8 *330:12 8.40213e-05
11 *306:12 *1315:C1 9.766e-05
12 *306:14 *1315:C1 8.97486e-05
13 *1256:A *1256:B 1.24244e-05
14 *1256:A *1257:B1 7.23533e-05
15 *1257:B2 *1257:B1 1.08758e-05
16 *1260:A2 *1257:B1 4.82863e-05
17 *1388:S *306:12 3.09164e-05
18 *1423:D *1257:B1 0
19 *1424:CLK *1369:A0 2.49909e-05
20 *1424:CLK *306:12 0.000198286
21 *1424:CLK *306:14 5.23362e-05
22 *1494:A *1257:B1 0.0002459
23 *1494:A *306:14 4.8866e-05
24 *176:86 *1257:B1 0.000149611
25 *183:16 *1256:B 0
26 *183:16 *1257:B1 0
27 *183:16 *306:14 0
28 *183:22 *1256:B 8.23457e-05
29 *183:22 *1257:B1 4.83612e-05
30 *186:104 *1366:A1 3.70488e-05
31 *189:61 *1257:B1 1.91597e-05
32 *194:89 *1369:A0 0.000821928
33 *305:16 *1257:B1 0.000153816
34 *305:22 *1257:B1 2.92496e-05
*RES
1 *1427:Q *306:8 5.515 
2 *306:8 *306:12 4.4 
3 *306:12 *306:14 3.93 
4 *306:14 *1257:B1 14.89 
5 *306:14 *1256:B 5.1 
6 *306:12 *1369:A0 11.76 
7 *306:8 *1366:A1 2.755 
*END

*D_NET *307 0.00150782
*CONN
*I *1259:B I *D sky130_fd_sc_hd__nor2_1
*I *1258:B I *D sky130_fd_sc_hd__and2_1
*I *1538:A I *D sky130_fd_sc_hd__dlygate4sd3_1
*I *1428:Q O *D sky130_fd_sc_hd__dfrtp_1
*CAP
1 *1259:B 3.02564e-05
2 *1258:B 0.000101617
3 *1538:A 2.4628e-05
4 *1428:Q 0.000104801
5 *307:23 0.000244748
6 *307:10 0.000242303
7 *1259:A *1258:B 9.53094e-05
8 *1278:D *1258:B 1.85674e-05
9 *1305:A2 *307:23 9.387e-06
10 *1317:A *307:10 3.31103e-05
11 *1317:B *307:10 7.23602e-05
12 *1370:A0 *1538:A 0.000122337
13 *1370:A0 *307:10 0.000116165
14 *1370:A0 *307:23 2.04411e-05
15 *70:65 *1538:A 0.000122337
16 *105:12 *307:10 2.23407e-05
17 *105:12 *307:23 6.9232e-05
18 *176:86 *307:23 0
19 *188:42 *307:23 5.78818e-05
*RES
1 *1428:Q *307:10 5.775 
2 *307:10 *1538:A 4.74 
3 *307:10 *307:23 4.4 
4 *307:23 *1258:B 3.805 
5 *307:23 *1259:B 2.05 
*END

*D_NET *308 0.00322998
*CONN
*I *1362:A1 I *D sky130_fd_sc_hd__mux2_1
*I *1254:A I *D sky130_fd_sc_hd__inv_2
*I *1562:A I *D sky130_fd_sc_hd__dlygate4sd3_1
*I *1312:B1 I *D sky130_fd_sc_hd__o2bb2a_1
*I *1423:Q O *D sky130_fd_sc_hd__dfrtp_1
*CAP
1 *1362:A1 0.000215117
2 *1254:A 0.000273924
3 *1562:A 1.44745e-05
4 *1312:B1 0.00018321
5 *1423:Q 0
6 *308:12 0.000308563
7 *308:8 0.000460492
8 *308:4 0.000290805
9 *1312:A1_N *1312:B1 4.82863e-05
10 *1316:C1 *1254:A 0
11 *1316:C1 *1312:B1 8.07785e-05
12 *1316:C1 *308:12 0
13 *1362:S *1362:A1 1.7386e-05
14 *1365:A0 *1312:B1 0.000122337
15 *1422:CLK *1312:B1 4.08514e-05
16 *1425:RESET_B *1312:B1 0.000332802
17 *1449:CLK *1254:A 0
18 *1473:A *1254:A 0
19 *1473:A *308:12 0
20 *1474:A *308:12 0
21 *1482:A *1312:B1 0.000122325
22 *176:86 *1312:B1 8.95933e-05
23 *176:86 *1562:A 5.05521e-05
24 *186:40 *1312:B1 0.000275553
25 *186:40 *1562:A 7.66083e-05
26 *189:30 *1312:B1 0.000181369
27 *195:56 *308:12 0
28 *202:69 *1254:A 4.49498e-05
*RES
1 *1423:Q *308:4 1.6 
2 *308:4 *308:8 2.795 
3 *308:8 *308:12 3.635 
4 *308:12 *1312:B1 13.19 
5 *308:12 *1562:A 2.395 
6 *308:8 *1254:A 8.295 
7 *308:4 *1362:A1 4.12 
*END

*D_NET *309 0.00311307
*CONN
*I *1363:A1 I *D sky130_fd_sc_hd__mux2_1
*I *1543:A I *D sky130_fd_sc_hd__dlygate4sd3_1
*I *1313:B I *D sky130_fd_sc_hd__nor2_1
*I *1314:B I *D sky130_fd_sc_hd__and2_1
*I *1424:Q O *D sky130_fd_sc_hd__dfrtp_1
*CAP
1 *1363:A1 0.000182302
2 *1543:A 0
3 *1313:B 1.71692e-05
4 *1314:B 0.00018471
5 *1424:Q 9.6167e-05
6 *309:42 0.000182302
7 *309:14 0.000367847
8 *309:8 0.000262135
9 *1363:A1 *1389:A1 0.000238137
10 *1314:A *1313:B 0
11 *1315:A2 *1314:B 4.85494e-05
12 *1315:A2 *309:14 2.7441e-05
13 *1315:B1 *1314:B 0
14 *1363:S *1363:A1 2.75229e-05
15 *1389:A0 *1363:A1 0.00046618
16 *1449:CLK *309:8 0
17 *1449:CLK *309:14 0
18 *1480:A *1313:B 4.00541e-06
19 *1480:A *1314:B 0.000126058
20 *186:100 *1363:A1 0.000338332
21 *186:104 *1363:A1 9.66106e-05
22 *194:89 *1314:B 2.75145e-05
23 *194:102 *1313:B 0
24 *194:102 *1314:B 0.000239813
25 *194:102 *309:14 0.000174857
26 *194:110 *1313:B 5.4155e-06
*RES
1 *1424:Q *309:8 4.98 
2 *309:8 *309:14 5.285 
3 *309:14 *1314:B 9.74 
4 *309:14 *1313:B 1.96 
5 *309:8 *309:42 2 
6 *309:42 *1543:A 1.6 
7 *309:42 *1363:A1 8.95 
*END

*D_NET *310 0.00373943
*CONN
*I *1312:A2_N I *D sky130_fd_sc_hd__o2bb2a_1
*I *1524:A I *D sky130_fd_sc_hd__dlygate4sd3_1
*I *1316:A2 I *D sky130_fd_sc_hd__o211a_1
*I *1425:Q O *D sky130_fd_sc_hd__dfrtp_1
*CAP
1 *1312:A2_N 0.000374816
2 *1524:A 0.000582887
3 *1316:A2 6.51748e-05
4 *1425:Q 6.4091e-05
5 *310:21 0.00105142
6 *310:8 0.000222982
7 *1524:A *1522:A 6.6564e-05
8 *1524:A *313:8 9.27495e-05
9 *1278:B *1316:A2 0.000206804
10 *1316:B1 *1316:A2 3.80787e-05
11 *1316:C1 *1312:A2_N 6.26489e-05
12 *1316:C1 *310:21 7.55313e-05
13 *1367:A0 *1316:A2 5.78185e-05
14 *1422:D *1312:A2_N 0
15 *1422:D *1524:A 0.000165698
16 *1422:RESET_B *1524:A 4.46293e-05
17 *1482:A *1312:A2_N 0.000459361
18 *1482:A *1524:A 2.08625e-05
19 *189:30 *310:8 3.39064e-05
20 *189:30 *310:21 5.12017e-06
21 *195:56 *1312:A2_N 0
22 *195:56 *310:8 0
23 *195:56 *310:21 0
24 *236:8 *1524:A 4.82919e-05
*RES
1 *1425:Q *310:8 4.725 
2 *310:8 *1316:A2 5.79 
3 *310:8 *310:21 1.89 
4 *310:21 *1524:A 12.465 
5 *310:21 *1312:A2_N 9.225 
*END

*D_NET *311 0.00421951
*CONN
*I *1553:A I *D sky130_fd_sc_hd__dlygate4sd3_1
*I *1356:A1 I *D sky130_fd_sc_hd__mux2_1
*I *1290:A2 I *D sky130_fd_sc_hd__o221a_1
*I *1289:A2 I *D sky130_fd_sc_hd__a22o_1
*I *1420:Q O *D sky130_fd_sc_hd__dfrtp_1
*CAP
1 *1553:A 5.10751e-05
2 *1356:A1 0.000280349
3 *1290:A2 0.000117526
4 *1289:A2 2.51931e-05
5 *1420:Q 4.43379e-05
6 *311:18 0.00034606
7 *311:12 0.000792728
8 *311:8 0.000404452
9 *311:18 *1288:B 3.25831e-05
10 *1288:A *311:18 2.8185e-05
11 *1290:A1 *1289:A2 4.66108e-05
12 *1290:A1 *311:12 0
13 *1291:A *1356:A1 0.000460265
14 *1291:A *311:18 0.000353049
15 *1364:S *311:18 2.00092e-05
16 *1390:A1 *311:12 0
17 *1474:A *311:18 0.000124007
18 *184:10 *311:12 5.16418e-05
19 *184:32 *311:12 0.00015046
20 *184:47 *311:12 0.000240087
21 *184:88 *1553:A 4.40899e-05
22 *184:88 *311:12 4.87458e-05
23 *186:59 *1290:A2 0.000149766
24 *186:59 *311:18 0.000139933
25 *202:28 *1290:A2 8.71001e-05
26 *202:28 *311:12 0
27 *202:28 *311:18 0.000114753
28 *202:95 *1553:A 4.19884e-05
29 *202:95 *311:12 2.45182e-05
*RES
1 *1420:Q *311:8 4.05 
2 *311:8 *311:12 8.99 
3 *311:12 *311:18 8.3 
4 *311:18 *1289:A2 4.05 
5 *311:18 *1290:A2 5.94 
6 *311:12 *1356:A1 6.88 
7 *311:8 *1553:A 4.98 
*END

*D_NET *312 0.00334949
*CONN
*I *1541:A I *D sky130_fd_sc_hd__dlygate4sd3_1
*I *1255:A I *D sky130_fd_sc_hd__inv_2
*I *1421:Q O *D sky130_fd_sc_hd__dfrtp_1
*CAP
1 *1541:A 0.000832447
2 *1255:A 0.00055998
3 *1421:Q 0
4 *312:4 0.00139243
5 *1255:A *1290:C1 0.000125874
6 *1389:A0 *1255:A 0
7 *1421:CLK *1541:A 0.000163175
8 *1421:RESET_B *1541:A 5.05437e-05
9 *1424:RESET_B *1255:A 0.000161837
10 *1449:CLK *1255:A 0
11 *1449:RESET_B *1255:A 4.57347e-05
12 *1449:RESET_B *1541:A 1.74678e-05
13 *1509:A *1255:A 0
*RES
1 *1421:Q *312:4 1.6 
2 *312:4 *1255:A 14.45 
3 *312:4 *1541:A 15.5 
*END

*D_NET *313 0.00141075
*CONN
*I *1522:A I *D sky130_fd_sc_hd__dlygate4sd3_1
*I *1288:B I *D sky130_fd_sc_hd__xor2_1
*I *1422:Q O *D sky130_fd_sc_hd__dfrtp_1
*CAP
1 *1522:A 0.000191611
2 *1288:B 8.7988e-05
3 *1422:Q 5.78899e-05
4 *313:8 0.000337489
5 *1358:A1 *1288:B 4.9968e-05
6 *1364:A0 *1288:B 0.000108232
7 *1364:S *1288:B 4.43871e-06
8 *1416:RESET_B *1288:B 1.0183e-05
9 *1422:RESET_B *1522:A 0.000123225
10 *1422:RESET_B *313:8 0.00015896
11 *1474:A *1288:B 0
12 *1524:A *1522:A 6.6564e-05
13 *1524:A *313:8 9.27495e-05
14 *202:28 *1288:B 4.41468e-05
15 *234:8 *1522:A 4.47209e-05
16 *311:18 *1288:B 3.25831e-05
*RES
1 *1422:Q *313:8 3.445 
2 *313:8 *1288:B 7.745 
3 *313:8 *1522:A 5.5 
*END

*D_NET *314 0.00439214
*CONN
*I *1535:A I *D sky130_fd_sc_hd__dlygate4sd3_1
*I *1262:A I *D sky130_fd_sc_hd__nand2_1
*I *1265:A1 I *D sky130_fd_sc_hd__o22a_1
*I *1414:Q O *D sky130_fd_sc_hd__dfrtp_1
*CAP
1 *1535:A 0.000588397
2 *1262:A 0.000108312
3 *1265:A1 6.1528e-05
4 *1414:Q 0.000182981
5 *314:14 0.000394948
6 *314:6 0.000996486
7 *1262:A *1265:B1 0.000124895
8 *1265:A1 *1263:A 0
9 *314:14 *1265:B1 0
10 *1262:B *1262:A 0.000348268
11 *1262:B *1265:A1 2.16917e-05
12 *1262:B *314:14 1.49498e-05
13 *1267:A *1262:A 2.75229e-05
14 *1267:C *1262:A 1.95128e-05
15 *1278:B *1262:A 9.80943e-06
16 *1278:B *1265:A1 5.8667e-05
17 *1291:B *314:6 6.31208e-05
18 *1291:B *314:14 0.000378968
19 *1291:C_N *314:14 0.000406764
20 *1414:RESET_B *1535:A 0.000482937
21 *187:88 *314:14 4.21334e-05
22 *187:101 *314:14 0
23 *191:40 *1265:A1 2.75145e-05
24 *191:47 *1265:A1 2.42043e-05
25 *191:51 *314:14 8.53113e-06
*RES
1 *1414:Q *314:6 3.775 
2 *314:6 *314:14 10.84 
3 *314:14 *1265:A1 3.205 
4 *314:14 *1262:A 5.17 
5 *314:6 *1535:A 9.22 
*END

*D_NET *315 0.0037919
*CONN
*I *1396:A1 I *D sky130_fd_sc_hd__mux2_1
*I *1240:A I *D sky130_fd_sc_hd__inv_2
*I *1265:B1 I *D sky130_fd_sc_hd__o22a_1
*I *1357:A0 I *D sky130_fd_sc_hd__mux2_1
*I *1415:Q O *D sky130_fd_sc_hd__dfrtp_1
*CAP
1 *1396:A1 3.64111e-05
2 *1240:A 0
3 *1265:B1 0.000173264
4 *1357:A0 0.000471989
5 *1415:Q 0
6 *315:29 0.000476917
7 *315:23 0.000647919
8 *315:4 0.000779845
9 *1265:B1 *1391:A1 2.30292e-05
10 *315:23 *1510:A 6.55328e-05
11 *315:23 *332:16 0.000113265
12 *315:29 *1391:A1 7.98508e-05
13 *315:29 *332:16 0.000152186
14 *1262:A *1265:B1 0.000124895
15 *1265:B2 *1265:B1 0
16 *1266:A1 *1265:B1 4.82919e-05
17 *1267:C *1265:B1 0.000180919
18 *1278:B *1265:B1 7.60965e-05
19 *1291:C_N *1265:B1 2.97004e-06
20 *1357:A1 *1357:A0 0
21 *1357:S *1357:A0 0
22 *1395:S *1396:A1 8.65905e-05
23 *1395:S *315:29 0
24 *1414:CLK *315:23 0
25 *1414:D *315:29 4.91189e-05
26 *1421:RESET_B *1357:A0 0.000139933
27 *1421:RESET_B *315:23 0
28 *1456:D *315:23 0
29 *1456:RESET_B *315:23 0
30 *202:26 *315:29 6.28765e-05
31 *314:14 *1265:B1 0
*RES
1 *1415:Q *315:4 1.6 
2 *315:4 *1357:A0 12.275 
3 *315:4 *315:23 7.46 
4 *315:23 *315:29 8.675 
5 *315:29 *1265:B1 9.935 
6 *315:29 *1240:A 1.6 
7 *315:23 *1396:A1 4.395 
*END

*D_NET *316 0.00462385
*CONN
*I *1264:A I *D sky130_fd_sc_hd__nor2_1
*I *1263:A I *D sky130_fd_sc_hd__and2_1
*I *1358:A0 I *D sky130_fd_sc_hd__mux2_1
*I *1397:A1 I *D sky130_fd_sc_hd__mux2_1
*I *1416:Q O *D sky130_fd_sc_hd__dfrtp_1
*CAP
1 *1264:A 0.000114511
2 *1263:A 0.000195575
3 *1358:A0 0
4 *1397:A1 0.00049321
5 *1416:Q 0.000158507
6 *316:38 0.000541307
7 *316:31 0.000231221
8 *316:10 0.000651717
9 *1263:B *1263:A 8.65961e-05
10 *1265:A1 *1263:A 0
11 *1278:B *1263:A 0.00037762
12 *1278:B *316:10 0.000139469
13 *1358:A1 *316:10 0.000139238
14 *1360:A1 *1397:A1 8.4249e-05
15 *1367:A0 *316:10 0.000200615
16 *1416:CLK *1263:A 2.49909e-05
17 *1416:RESET_B *1263:A 0
18 *1416:RESET_B *316:10 2.54151e-05
19 *1455:CLK *1263:A 0.000114492
20 *1455:CLK *1264:A 6.71882e-05
21 *1457:CLK *1397:A1 8.82978e-05
22 *1457:D *1397:A1 8.70878e-05
23 *1482:A *1397:A1 0
24 *1482:A *316:10 0
25 *1485:A *1397:A1 2.05056e-05
26 *1523:A *1264:A 1.12578e-05
27 *1523:A *316:38 0.00013439
28 *1530:A *1397:A1 0.000162311
29 *182:20 *1397:A1 0
30 *182:26 *1397:A1 9.44791e-05
31 *187:27 *1397:A1 0
32 *187:52 *316:38 8.28539e-05
33 *191:40 *1263:A 8.86894e-05
34 *191:40 *316:10 8.57237e-05
35 *273:14 *1397:A1 0
36 *273:31 *1397:A1 0.000122331
*RES
1 *1416:Q *316:10 8.7 
2 *316:10 *1397:A1 13.365 
3 *316:10 *316:31 2 
4 *316:31 *1358:A0 1.6 
5 *316:31 *316:38 4.245 
6 *316:38 *1263:A 10.895 
7 *316:38 *1264:A 3.445 
*END

*D_NET *317 0.00269678
*CONN
*I *1548:A I *D sky130_fd_sc_hd__dlygate4sd3_1
*I *1306:B I *D sky130_fd_sc_hd__or2_1
*I *1309:A2 I *D sky130_fd_sc_hd__a22o_1
*I *1455:Q O *D sky130_fd_sc_hd__dfrtp_1
*CAP
1 *1548:A 0.000149757
2 *1306:B 0.000134513
3 *1309:A2 0.000608115
4 *1455:Q 0
5 *317:23 0.000317467
6 *317:4 0.000641312
7 *1306:B *1571:A 5.53249e-06
8 *1309:A2 *318:20 9.29529e-05
9 *1455:CLK *1309:A2 0.000160641
10 *1455:RESET_B *1309:A2 0.000120741
11 *1455:RESET_B *317:23 3.66286e-05
12 *187:68 *1309:A2 0.000123225
13 *203:50 *1306:B 0.0001274
14 *203:60 *1306:B 1.07797e-05
15 *203:60 *1548:A 0.000167716
*RES
1 *1455:Q *317:4 1.6 
2 *317:4 *1309:A2 10.57 
3 *317:4 *317:23 2.45 
4 *317:23 *1306:B 6.51 
5 *317:23 *1548:A 7.02 
*END

*D_NET *318 0.00560731
*CONN
*I *1563:A I *D sky130_fd_sc_hd__dlygate4sd3_1
*I *1309:B1 I *D sky130_fd_sc_hd__a22o_1
*I *1310:A2 I *D sky130_fd_sc_hd__o221a_1
*I *1404:A1 I *D sky130_fd_sc_hd__mux2_1
*I *1456:Q O *D sky130_fd_sc_hd__dfrtp_1
*CAP
1 *1563:A 6.23969e-05
2 *1309:B1 1.41437e-05
3 *1310:A2 4.96798e-05
4 *1404:A1 0.000102942
5 *1456:Q 8.38602e-05
6 *318:22 0.000277515
7 *318:20 0.00135694
8 *318:8 0.00136416
9 *1310:A2 *1308:B 0
10 *1310:A2 *1310:C1 0
11 *1265:B2 *1404:A1 1.1561e-05
12 *1265:B2 *318:22 0.000105799
13 *1306:A *1309:B1 5.16418e-05
14 *1306:A *318:22 9.30717e-05
15 *1309:A2 *318:20 9.29529e-05
16 *1309:B2 *1404:A1 1.43521e-05
17 *1309:B2 *318:22 0.00010645
18 *1310:B1 *1404:A1 0.000183811
19 *1310:B2 *1310:A2 1.83756e-05
20 *1311:A_N *318:20 0.000158066
21 *1455:CLK *318:20 0.000216386
22 *1455:RESET_B *318:20 7.44217e-05
23 *1456:RESET_B *1563:A 8.65905e-05
24 *1456:RESET_B *318:8 0
25 *1456:RESET_B *318:20 0.000164679
26 *69:29 *1404:A1 6.292e-05
27 *187:52 *1309:B1 4.31106e-05
28 *187:52 *318:22 8.53113e-06
29 *203:50 *318:20 9.84957e-05
30 *203:60 *318:20 0.000704453
*RES
1 *1456:Q *318:8 4.98 
2 *318:8 *318:20 25.645 
3 *318:20 *318:22 3.42 
4 *318:22 *1404:A1 6 
5 *318:22 *1310:A2 4.41 
6 *318:20 *1309:B1 4.215 
7 *318:8 *1563:A 4.74 
*END

*D_NET *319 0.00165882
*CONN
*I *1308:B I *D sky130_fd_sc_hd__and2_1
*I *1529:A I *D sky130_fd_sc_hd__dlygate4sd3_1
*I *1307:B I *D sky130_fd_sc_hd__nor2_1
*I *1457:Q O *D sky130_fd_sc_hd__dfrtp_1
*CAP
1 *1308:B 0.000141245
2 *1529:A 1.86282e-05
3 *1307:B 0.000186446
4 *1457:Q 0
5 *319:8 0.000283492
6 *319:4 0.000219664
7 *1307:B *321:14 0.00023635
8 *1241:A *319:8 3.78981e-05
9 *1308:A *1308:B 4.27071e-05
10 *1310:A2 *1308:B 0
11 *1360:A1 *1529:A 0.0001249
12 *1391:S *319:8 5.93963e-05
13 *1404:S *1529:A 0.0001249
14 *1457:RESET_B *1308:B 0
15 *1472:A *1307:B 3.59531e-06
16 *182:8 *1307:B 8.88715e-05
17 *192:106 *1307:B 0
18 *273:42 *1307:B 8.13876e-05
19 *273:42 *319:8 9.34171e-06
*RES
1 *1457:Q *319:4 1.6 
2 *319:4 *319:8 3.635 
3 *319:8 *1307:B 7.665 
4 *319:8 *1529:A 4.74 
5 *319:4 *1308:B 4.06 
*END

*D_NET *320 0.00374015
*CONN
*I *1555:A I *D sky130_fd_sc_hd__dlygate4sd3_1
*I *1243:A I *D sky130_fd_sc_hd__inv_2
*I *1462:Q O *D sky130_fd_sc_hd__dfrtp_1
*CAP
1 *1555:A 0.000679575
2 *1243:A 0.000345281
3 *1462:Q 3.20559e-05
4 *320:8 0.00105691
5 *1243:A *334:8 0.000563648
6 *1359:A0 *1243:A 4.19967e-05
7 *1359:A1 *1243:A 4.67945e-05
8 *1359:S *1243:A 0.000198945
9 *1417:D *1555:A 9.70988e-05
10 *1462:CLK *1555:A 0.000113237
11 *1462:RESET_B *1243:A 7.91123e-05
12 *1462:RESET_B *320:8 6.24871e-05
13 *1464:D *1243:A 4.99619e-05
14 *1464:RESET_B *1243:A 0
15 *1472:A *1243:A 0.000151123
16 *182:76 *1243:A 0
17 *182:76 *1555:A 0.000153125
18 *201:32 *1555:A 2.40712e-05
19 *267:12 *1555:A 4.47209e-05
*RES
1 *1462:Q *320:8 4.3425 
2 *320:8 *1243:A 13.2675 
3 *320:8 *1555:A 14.0775 
*END

*D_NET *321 0.0047021
*CONN
*I *1557:A I *D sky130_fd_sc_hd__dlygate4sd3_1
*I *1293:B1 I *D sky130_fd_sc_hd__a22o_1
*I *1294:B1 I *D sky130_fd_sc_hd__o221a_1
*I *1463:Q O *D sky130_fd_sc_hd__dfrtp_1
*CAP
1 *1557:A 0.000569045
2 *1293:B1 2.91465e-05
3 *1294:B1 0.000175542
4 *1463:Q 0.000175683
5 *321:14 0.000385452
6 *321:10 0.000925492
7 *321:10 *322:12 8.65905e-05
8 *1294:A2 *1294:B1 0.000120436
9 *1295:C_N *1294:B1 9.39078e-05
10 *1307:B *321:14 0.00023635
11 *1310:B1 *1557:A 0
12 *1310:B1 *321:14 0.000461935
13 *1360:A1 *1557:A 0.000276441
14 *1404:S *1557:A 0.000163204
15 *1463:RESET_B *321:10 1.81873e-05
16 *1472:A *1557:A 0
17 *1472:A *321:10 0
18 *1559:A *1557:A 2.75229e-05
19 *71:16 *1293:B1 9.72742e-06
20 *71:16 *1294:B1 6.01505e-05
21 *182:8 *321:14 9.01848e-05
22 *182:68 *321:10 0
23 *189:18 *1294:B1 0
24 *192:106 *1557:A 0.000143746
25 *203:22 *321:10 2.46265e-06
26 *269:6 *1557:A 0.000650892
*RES
1 *1463:Q *321:10 6.63 
2 *321:10 *321:14 7.625 
3 *321:14 *1294:B1 5.65 
4 *321:14 *1293:B1 2.41 
5 *321:10 *1557:A 16.2 
*END

*D_NET *322 0.00146756
*CONN
*I *1532:A I *D sky130_fd_sc_hd__dlygate4sd3_1
*I *1292:B I *D sky130_fd_sc_hd__xor2_1
*I *1464:Q O *D sky130_fd_sc_hd__dfrtp_1
*CAP
1 *1532:A 0
2 *1292:B 0.000253634
3 *1464:Q 0.000227411
4 *322:12 0.000481045
5 *1359:A0 *322:12 0.000138544
6 *1463:RESET_B *322:12 1.08758e-05
7 *1464:RESET_B *1292:B 4.66108e-05
8 *1464:RESET_B *322:12 0.000112349
9 *1472:A *322:12 5.21714e-05
10 *192:81 *1292:B 3.08151e-05
11 *244:10 *1292:B 2.75145e-05
12 *321:10 *322:12 8.65905e-05
*RES
1 *1464:Q *322:12 10.16 
2 *322:12 *1292:B 5.515 
3 *322:12 *1532:A 1.6 
*END

*D_NET *323 0.00269274
*CONN
*I *1547:A I *D sky130_fd_sc_hd__dlygate4sd3_1
*I *1281:C1 I *D sky130_fd_sc_hd__o221a_1
*I *1443:Q O *D sky130_fd_sc_hd__dfrtp_1
*CAP
1 *1547:A 0.000253007
2 *1281:C1 0.000421371
3 *1443:Q 0
4 *323:6 0.000674377
5 *1281:C1 *1299:C1 0.00013053
6 *1547:A *1299:C1 9.49203e-05
7 *1377:S *1281:C1 0.000158297
8 *1380:A0 *1281:C1 0
9 *1380:S *1281:C1 0.000185398
10 *1443:RESET_B *1547:A 0.000103192
11 *1444:RESET_B *1547:A 0.000385011
12 *1561:A *1281:C1 0.000192862
13 *77:12 *1281:C1 0
14 *199:62 *1281:C1 0
15 *199:64 *1281:C1 0
16 *218:19 *1281:C1 9.37731e-05
*RES
1 *1443:Q *323:6 3.6 
2 *323:6 *1281:C1 13.14 
3 *323:6 *1547:A 9.81 
*END

*D_NET *324 0.00354096
*CONN
*I *1276:C1 I *D sky130_fd_sc_hd__o221a_1
*I *1505:A I *D sky130_fd_sc_hd__dlygate4sd3_1
*I *1394:A1 I *D sky130_fd_sc_hd__mux2_1
*I *1453:Q O *D sky130_fd_sc_hd__dfrtp_1
*CAP
1 *1276:C1 0.000227883
2 *1505:A 0.00013684
3 *1394:A1 0.000465722
4 *1453:Q 4.98455e-05
5 *324:19 0.000507053
6 *324:6 0.000657898
7 *1273:A2_N *1276:C1 7.21296e-06
8 *1276:A1 *1276:C1 5.83121e-06
9 *1276:A2 *1276:C1 1.52184e-05
10 *1276:B1 *1276:C1 0.000176532
11 *1286:C1 *1505:A 8.67385e-05
12 *1326:A0 *1276:C1 4.66108e-05
13 *1326:A1 *1276:C1 5.99925e-05
14 *1326:A1 *1394:A1 0.000109931
15 *1326:A1 *324:19 0.000109249
16 *1328:A1 *1276:C1 3.26889e-05
17 *1394:A0 *1394:A1 4.07182e-05
18 *1394:A0 *324:19 1.44259e-05
19 *1394:S *1394:A1 0.000113247
20 *1516:A *1394:A1 0.000123225
21 *1516:A *324:6 8.65961e-05
22 *1516:A *324:19 7.38004e-05
23 *176:60 *1276:C1 0.000140765
24 *201:78 *1276:C1 0
25 *201:78 *324:19 0
26 *290:22 *1276:C1 2.66935e-05
27 *290:22 *1505:A 0.000141323
28 *290:28 *1276:C1 8.49205e-05
*RES
1 *1453:Q *324:6 2.395 
2 *324:6 *1394:A1 7.84 
3 *324:6 *324:19 4.91 
4 *324:19 *1505:A 6.81 
5 *324:19 *1276:C1 9.51 
*END

*D_NET *325 0.00127652
*CONN
*I *1245:A I *D sky130_fd_sc_hd__inv_2
*I *1569:A I *D sky130_fd_sc_hd__dlygate4sd3_1
*I *1454:Q O *D sky130_fd_sc_hd__dfrtp_1
*CAP
1 *1245:A 0.000253517
2 *1569:A 0
3 *1454:Q 0.000109698
4 *325:6 0.000363215
5 *1394:A0 *1245:A 0
6 *1516:A *1245:A 2.98447e-05
7 *181:12 *1245:A 0
8 *201:62 *1245:A 1.79483e-05
9 *201:78 *1245:A 0.000135916
10 *273:62 *1245:A 4.82863e-05
11 *273:62 *325:6 0.000318091
*RES
1 *1454:Q *325:6 4.465 
2 *325:6 *1569:A 1.6 
3 *325:6 *1245:A 9.98 
*END

*D_NET *326 0.00324216
*CONN
*I *1507:A I *D sky130_fd_sc_hd__dlygate4sd3_1
*I *1299:C1 I *D sky130_fd_sc_hd__o221a_1
*I *1444:Q O *D sky130_fd_sc_hd__dfrtp_1
*CAP
1 *1507:A 0.000245547
2 *1299:C1 0.000948673
3 *1444:Q 0
4 *326:6 0.00119422
5 *1281:C1 *1299:C1 0.00013053
6 *1299:B1 *1299:C1 2.38002e-05
7 *1377:A0 *1299:C1 8.26066e-05
8 *1384:A1 *1507:A 0
9 *1385:A1 *1299:C1 1.71013e-05
10 *1385:A1 *1507:A 5.20968e-05
11 *1437:CLK *1299:C1 0
12 *1437:D *1299:C1 2.75145e-05
13 *1437:RESET_B *1299:C1 7.95799e-05
14 *1443:RESET_B *1299:C1 0
15 *1445:CLK *1299:C1 7.67465e-05
16 *1445:CLK *1507:A 9.3062e-06
17 *1547:A *1299:C1 9.49203e-05
18 *1561:A *1299:C1 7.44375e-05
19 *199:100 *1299:C1 0
20 *219:10 *1507:A 6.44307e-05
21 *272:12 *1299:C1 0.000120652
*RES
1 *1444:Q *326:6 3.6 
2 *326:6 *1299:C1 19.86 
3 *326:6 *1507:A 8.16 
*END

*D_NET *327 0.0033901
*CONN
*I *1271:C1 I *D sky130_fd_sc_hd__o221a_1
*I *1386:A1 I *D sky130_fd_sc_hd__mux2_1
*I *1518:A I *D sky130_fd_sc_hd__dlygate4sd3_1
*I *1445:Q O *D sky130_fd_sc_hd__dfrtp_1
*CAP
1 *1271:C1 0.000631517
2 *1386:A1 0.000224706
3 *1518:A 0
4 *1445:Q 0.000159722
5 *327:10 0.000342439
6 *327:6 0.000908972
7 *1270:A *1271:C1 4.18603e-06
8 *1375:A0 *1271:C1 0.000163278
9 *1377:A0 *1271:C1 0.000336837
10 *1385:A0 *327:10 0
11 *1386:A0 *1386:A1 4.99619e-05
12 *1386:S *1386:A1 0.000112631
13 *1446:CLK *327:6 3.00381e-05
14 *1446:D *1386:A1 0.000132089
15 *1446:D *327:10 0.000166346
16 *1446:RESET_B *1271:C1 0
17 *1551:A *1271:C1 0
18 *176:34 *1271:C1 0
19 *263:10 *1271:C1 0.000127373
*RES
1 *1445:Q *327:6 3.43 
2 *327:6 *327:10 4.655 
3 *327:10 *1518:A 3.6 
4 *327:10 *1386:A1 7.41 
5 *327:6 *1271:C1 17.315 
*END

*D_NET *328 0.00176199
*CONN
*I *1512:A I *D sky130_fd_sc_hd__dlygate4sd3_1
*I *1304:C1 I *D sky130_fd_sc_hd__o221a_1
*I *1446:Q O *D sky130_fd_sc_hd__dfrtp_1
*CAP
1 *1512:A 0.000311554
2 *1304:C1 0.000188432
3 *1446:Q 0
4 *328:6 0.000499986
5 *1301:B *1512:A 0
6 *1304:B1 *1304:C1 3.54536e-05
7 *1372:A1 *1304:C1 0.000239813
8 *1372:A1 *1512:A 0
9 *1387:A1 *1512:A 8.65961e-05
10 *1431:D *1512:A 7.23533e-05
11 *1446:RESET_B *1304:C1 0
12 *1446:RESET_B *1512:A 0
13 *1447:RESET_B *1512:A 0
14 *194:64 *1304:C1 4.66108e-05
15 *194:74 *1304:C1 4.21757e-05
16 *199:30 *1304:C1 0.000239012
17 *200:64 *1512:A 0
*RES
1 *1446:Q *328:6 3.6 
2 *328:6 *1304:C1 8.985 
3 *328:6 *1512:A 9.09 
*END

*D_NET *329 0.00258
*CONN
*I *1517:A I *D sky130_fd_sc_hd__dlygate4sd3_1
*I *1260:C1 I *D sky130_fd_sc_hd__o221a_1
*I *1447:Q O *D sky130_fd_sc_hd__dfrtp_1
*CAP
1 *1517:A 3.55506e-05
2 *1260:C1 0.000805908
3 *1447:Q 4.43494e-05
4 *329:6 0.000885808
5 *1305:C1 *1260:C1 0.000281639
6 *1387:A0 *1260:C1 0.000186092
7 *1387:S *1260:C1 0
8 *1426:RESET_B *1260:C1 0.000248254
9 *1427:D *1260:C1 0
10 *1427:RESET_B *1260:C1 0
11 *1447:CLK *1260:C1 0
12 *1546:A *1260:C1 4.80285e-05
13 *180:10 *1260:C1 0
14 *180:47 *1260:C1 0
15 *180:64 *1260:C1 0
16 *188:59 *1260:C1 0
17 *189:61 *1260:C1 4.43682e-05
*RES
1 *1447:Q *329:6 2.05 
2 *329:6 *1260:C1 21.305 
3 *329:6 *1517:A 2.215 
*END

*D_NET *330 0.00368182
*CONN
*I *1389:A1 I *D sky130_fd_sc_hd__mux2_1
*I *1519:A I *D sky130_fd_sc_hd__dlygate4sd3_1
*I *1315:C1 I *D sky130_fd_sc_hd__o221a_1
*I *1448:Q O *D sky130_fd_sc_hd__dfrtp_1
*CAP
1 *1389:A1 0.000293408
2 *1519:A 0.000384862
3 *1315:C1 0.000171163
4 *1448:Q 0.000143626
5 *330:25 0.000739259
6 *330:12 0.000375778
7 *1315:B1 *1315:C1 0.000230869
8 *1363:A1 *1389:A1 0.000238137
9 *1366:A0 *1389:A1 0.000229825
10 *1366:A0 *330:25 8.8266e-05
11 *1366:A1 *330:12 8.23457e-05
12 *1388:A0 *1519:A 0
13 *1388:S *1315:C1 5.16348e-05
14 *1388:S *1519:A 0
15 *1424:CLK *330:12 9.54469e-05
16 *1424:D *1519:A 4.18603e-06
17 *1544:A *1389:A1 0.000164874
18 *1544:A *1519:A 0
19 *186:104 *1389:A1 0.000106899
20 *186:104 *330:25 9.80943e-06
21 *306:8 *330:12 8.40213e-05
22 *306:12 *1315:C1 9.766e-05
23 *306:14 *1315:C1 8.97486e-05
*RES
1 *1448:Q *330:12 8.21 
2 *330:12 *1315:C1 10.04 
3 *330:12 *330:25 1.14 
4 *330:25 *1519:A 11.87 
5 *330:25 *1389:A1 8.26 
*END

*D_NET *331 0.00254104
*CONN
*I *1508:A I *D sky130_fd_sc_hd__dlygate4sd3_1
*I *1290:C1 I *D sky130_fd_sc_hd__o221a_1
*I *1449:Q O *D sky130_fd_sc_hd__dfrtp_1
*CAP
1 *1508:A 0.000127135
2 *1290:C1 0.000443821
3 *1449:Q 2.62388e-05
4 *331:6 0.000597195
5 *1255:A *1290:C1 0.000125874
6 *1362:A0 *1290:C1 0.000304232
7 *1389:A0 *1290:C1 9.37731e-05
8 *1389:A0 *1508:A 0
9 *1390:A1 *1290:C1 0
10 *1424:RESET_B *1290:C1 6.02811e-05
11 *1449:RESET_B *1290:C1 8.07616e-05
12 *1449:RESET_B *331:6 4.82919e-05
13 *1542:A *1508:A 0.000124752
14 *186:40 *1290:C1 0
15 *186:59 *1290:C1 4.9968e-05
16 *186:98 *1290:C1 0.000458721
*RES
1 *1449:Q *331:6 2.05 
2 *331:6 *1290:C1 15.98 
3 *331:6 *1508:A 8.255 
*END

*D_NET *332 0.004614
*CONN
*I *1510:A I *D sky130_fd_sc_hd__dlygate4sd3_1
*I *1391:A1 I *D sky130_fd_sc_hd__mux2_1
*I *1266:C1 I *D sky130_fd_sc_hd__o221a_1
*I *1450:Q O *D sky130_fd_sc_hd__dfrtp_1
*CAP
1 *1510:A 3.79693e-05
2 *1391:A1 0.000515488
3 *1266:C1 0.000470262
4 *1450:Q 6.36519e-05
5 *332:16 0.00135597
6 *332:8 0.00047184
7 *1265:B1 *1391:A1 2.30292e-05
8 *1266:A1 *1266:C1 0.000381859
9 *1266:A1 *1391:A1 3.83041e-05
10 *1266:A2 *1266:C1 0.000123225
11 *1267:C *1391:A1 8.08153e-06
12 *1291:C_N *332:16 0.000169574
13 *1296:C *1266:C1 1.23238e-05
14 *1390:A0 *332:16 0
15 *1395:S *1391:A1 0
16 *1403:A1 *1391:A1 0
17 *1421:RESET_B *1510:A 6.18754e-05
18 *1421:RESET_B *332:16 3.05373e-05
19 *1450:RESET_B *332:8 5.30732e-05
20 *1455:D *1391:A1 0.000269952
21 *202:26 *332:16 0.000116158
22 *315:23 *1510:A 6.55328e-05
23 *315:23 *332:16 0.000113265
24 *315:29 *1391:A1 7.98508e-05
25 *315:29 *332:16 0.000152186
*RES
1 *1450:Q *332:8 4.395 
2 *332:8 *332:16 10.82 
3 *332:16 *1266:C1 7.84 
4 *332:16 *1391:A1 13.82 
5 *332:8 *1510:A 4.98 
*END

*D_NET *333 0.00170894
*CONN
*I *1571:A I *D sky130_fd_sc_hd__dlygate4sd3_1
*I *1310:C1 I *D sky130_fd_sc_hd__o221a_1
*I *1451:Q O *D sky130_fd_sc_hd__dfrtp_1
*CAP
1 *1571:A 6.35102e-05
2 *1310:C1 0.000723125
3 *1451:Q 0
4 *333:4 0.000786635
5 *1306:B *1571:A 5.53249e-06
6 *1310:A2 *1310:C1 0
7 *1392:A1 *1571:A 0.000114492
8 *1451:CLK *1310:C1 1.56428e-05
9 *203:50 *1571:A 0
*RES
1 *1451:Q *333:4 1.6 
2 *333:4 *1310:C1 9.565 
3 *333:4 *1571:A 6.98 
*END

*D_NET *334 0.00643784
*CONN
*I *1511:A I *D sky130_fd_sc_hd__dlygate4sd3_1
*I *1294:C1 I *D sky130_fd_sc_hd__o221a_1
*I *1393:A1 I *D sky130_fd_sc_hd__mux2_1
*I *1452:Q O *D sky130_fd_sc_hd__dfrtp_1
*CAP
1 *1511:A 0.000350348
2 *1294:C1 0.000224269
3 *1393:A1 0.000113925
4 *1452:Q 0
5 *334:8 0.00168237
6 *334:4 0.00169453
7 *1239:A *1294:C1 0
8 *1243:A *334:8 0.000563648
9 *1295:B *1294:C1 9.47454e-05
10 *1295:C_N *1294:C1 3.50033e-05
11 *1296:D *1294:C1 0
12 *1359:A1 *334:8 2.86265e-06
13 *1393:A0 *1393:A1 3.00381e-05
14 *1419:CLK *1393:A1 4.43871e-06
15 *1464:D *334:8 0.0001249
16 *1472:A *334:8 3.27443e-05
17 *1499:A *1511:A 0
18 *1506:A *1294:C1 2.4997e-05
19 *1506:A *1393:A1 4.05358e-05
20 *1506:A *334:8 4.80285e-05
21 *1556:A *1511:A 0.000279787
22 *1556:A *334:8 0.000583307
23 *1573:A *1511:A 0
24 *182:26 *1294:C1 0.000132451
25 *182:26 *1393:A1 5.65627e-05
26 *189:12 *1294:C1 1.22762e-05
27 *203:10 *1511:A 0
28 *273:50 *1393:A1 9.29176e-05
29 *290:22 *1393:A1 0.00021315
30 *292:33 *1294:C1 0
31 *292:33 *1393:A1 0
*RES
1 *1452:Q *334:4 1.6 
2 *334:4 *334:8 20.045 
3 *334:8 *1393:A1 7.5 
4 *334:8 *1294:C1 8.55 
5 *334:4 *1511:A 11.57 
*END

*D_NET *335 0.000695399
*CONN
*I *1503:A I *D sky130_fd_sc_hd__dlygate4sd3_1
*I *1429:Q O *D sky130_fd_sc_hd__dfrtp_1
*CAP
1 *1503:A 0.000187691
2 *1429:Q 0.000187691
3 *1429:RESET_B *1503:A 0.000201503
4 *193:21 *1503:A 0.000118513
*RES
1 *1429:Q *1503:A 10.41 
*END

*D_NET *336 0.00041766
*CONN
*I *1514:A I *D sky130_fd_sc_hd__dlygate4sd3_1
*I *1439:Q O *D sky130_fd_sc_hd__dfrtp_1
*CAP
1 *1514:A 8.93703e-05
2 *1439:Q 8.93703e-05
3 *197:51 *1514:A 0.000238919
*RES
1 *1439:Q *1514:A 5.375 
*END

*D_NET *337 0.000546924
*CONN
*I *1525:A I *D sky130_fd_sc_hd__dlygate4sd3_1
*I *1458:Q O *D sky130_fd_sc_hd__dfrtp_1
*CAP
1 *1525:A 0.000144843
2 *1458:Q 0.000144843
3 *1491:A *1525:A 4.99619e-05
4 *197:51 *1525:A 4.66108e-05
5 *198:32 *1525:A 4.61744e-05
6 *281:33 *1525:A 0.000114492
*RES
1 *1458:Q *1525:A 9.93 
*END

*D_NET *338 0.00113224
*CONN
*I *1325:A I *D sky130_fd_sc_hd__and4_1
*I *1465:Q O *D sky130_fd_sc_hd__dfrtp_1
*CAP
1 *1325:A 0.000211144
2 *1465:Q 0.000211144
3 *192:8 *1325:A 4.82919e-05
4 *192:53 *1325:A 0.000124007
5 *204:35 *1325:A 3.74161e-05
6 *204:39 *1325:A 0.000500239
*RES
1 *1465:Q *1325:A 8.135 
*END
