*SPEF "ieee 1481-1999"
*DESIGN "rng_top"
*DATE "21:54:18 Thursday March 12, 2026"
*VENDOR "The OpenROAD Project"
*PROGRAM "OpenROAD"
*VERSION "edf00dff99f6c40d67a30c0e22a8191c5d2ed9d6"
*DESIGN_FLOW "NAME_SCOPE LOCAL" "PIN_CAP NONE"
*DIVIDER /
*DELIMITER :
*BUS_DELIMITER []
*T_UNIT 1 NS
*C_UNIT 1 PF
*R_UNIT 1 OHM
*L_UNIT 1 HENRY

*NAME_MAP
*3 clk_i
*4 num_to_send_o[0]
*5 num_to_send_o[1]
*6 num_to_send_o[2]
*7 req_num_i
*8 rst_i
*9 wr_i
*10 _000_
*11 _001_
*12 _002_
*13 _003_
*14 _004_
*15 _005_
*16 _006_
*17 _007_
*18 _008_
*19 _009_
*20 _010_
*21 _011_
*22 _012_
*23 _013_
*24 _014_
*25 _015_
*26 _016_
*27 _017_
*28 _018_
*29 _019_
*30 _020_
*31 _021_
*32 _022_
*33 _023_
*34 _024_
*35 _025_
*36 _026_
*37 _027_
*38 _028_
*39 _029_
*40 _030_
*41 _031_
*42 _032_
*43 _033_
*44 _034_
*45 _035_
*46 _036_
*47 _037_
*48 _038_
*49 _039_
*50 _040_
*51 _041_
*52 _042_
*53 _043_
*54 _044_
*55 _045_
*56 _046_
*57 _047_
*58 _048_
*59 _049_
*60 _050_
*61 _051_
*62 _052_
*63 _053_
*64 _054_
*65 _055_
*66 _056_
*67 _057_
*68 _058_
*69 _059_
*70 _060_
*71 _061_
*72 _062_
*73 _063_
*74 _064_
*75 _065_
*76 _066_
*77 _067_
*78 _068_
*79 _069_
*80 _070_
*81 _071_
*82 _072_
*83 _073_
*84 _074_
*85 _075_
*86 _076_
*87 _077_
*88 _078_
*89 clknet_0_clk_i
*90 clknet_2_0__leaf_clk_i
*91 clknet_2_1__leaf_clk_i
*92 clknet_2_2__leaf_clk_i
*93 clknet_2_3__leaf_clk_i
*94 net1
*95 net10
*96 net11
*97 net12
*98 net13
*99 net14
*100 net15
*101 net16
*102 net17
*103 net18
*104 net19
*105 net2
*106 net20
*107 net21
*108 net22
*109 net23
*110 net24
*111 net25
*112 net26
*113 net27
*114 net28
*115 net29
*116 net3
*117 net30
*118 net31
*119 net32
*120 net33
*121 net34
*122 net35
*123 net36
*124 net37
*125 net38
*126 net39
*127 net4
*128 net40
*129 net41
*130 net42
*131 net43
*132 net44
*133 net45
*134 net46
*135 net47
*136 net48
*137 net49
*138 net5
*139 net50
*140 net51
*141 net52
*142 net53
*143 net54
*144 net55
*145 net56
*146 net57
*147 net58
*148 net6
*149 net7
*150 net8
*151 net9
*152 num_i_bar\[0\]
*153 num_i_bar\[1\]
*154 num_i_bar\[2\]
*155 req_num
*156 rng_rd\.cache\[0\]
*157 rng_rd\.cache\[1\]
*158 rng_rd\.cache\[2\]
*159 rng_rd\.ram_1\[0\]
*160 rng_rd\.ram_1\[1\]
*161 rng_rd\.ram_1\[2\]
*162 rng_rd\.ram_2\[0\]
*163 rng_rd\.ram_2\[1\]
*164 rng_rd\.ram_2\[2\]
*165 rng_rd\.ram_3\[0\]
*166 rng_rd\.ram_3\[1\]
*167 rng_rd\.ram_3\[2\]
*168 rng_rd\.ram_4\[0\]
*169 rng_rd\.ram_4\[1\]
*170 rng_rd\.ram_4\[2\]
*171 rng_rd\.ram_5\[0\]
*172 rng_rd\.ram_5\[1\]
*173 rng_rd\.ram_5\[2\]
*174 rng_rd\.ram_6\[0\]
*175 rng_rd\.ram_6\[1\]
*176 rng_rd\.ram_6\[2\]
*177 rng_rd\.ram_7\[0\]
*178 rng_rd\.ram_7\[1\]
*179 rng_rd\.ram_7\[2\]
*180 rng_rd\.req_num
*181 rng_rd\.wr_ff1
*182 rng_rd\.wr_ff2
*183 rng_rd\.wr_ff2_d
*184 rng_rd\.wr_pulse
*185 FILLER_0_109
*186 FILLER_0_111
*187 FILLER_0_113
*188 FILLER_0_15
*189 FILLER_0_27
*190 FILLER_0_29
*191 FILLER_0_3
*192 FILLER_0_41
*193 FILLER_0_53
*194 FILLER_0_55
*195 FILLER_0_57
*196 FILLER_0_69
*197 FILLER_0_81
*198 FILLER_0_83
*199 FILLER_0_85
*200 FILLER_0_97
*201 FILLER_10_104
*202 FILLER_10_122
*203 FILLER_10_124
*204 FILLER_10_15
*205 FILLER_10_19
*206 FILLER_10_29
*207 FILLER_10_3
*208 FILLER_10_41
*209 FILLER_10_53
*210 FILLER_10_55
*211 FILLER_10_82
*212 FILLER_10_85
*213 FILLER_10_92
*214 FILLER_11_104
*215 FILLER_11_121
*216 FILLER_11_15
*217 FILLER_11_24
*218 FILLER_11_3
*219 FILLER_11_54
*220 FILLER_11_91
*221 FILLER_12_123
*222 FILLER_12_23
*223 FILLER_12_27
*224 FILLER_12_29
*225 FILLER_12_33
*226 FILLER_12_82
*227 FILLER_12_85
*228 FILLER_12_97
*229 FILLER_13_113
*230 FILLER_13_122
*231 FILLER_13_124
*232 FILLER_13_28
*233 FILLER_13_30
*234 FILLER_13_57
*235 FILLER_13_59
*236 FILLER_13_7
*237 FILLER_14_121
*238 FILLER_14_22
*239 FILLER_14_26
*240 FILLER_14_3
*241 FILLER_14_44
*242 FILLER_14_58
*243 FILLER_14_67
*244 FILLER_14_71
*245 FILLER_14_80
*246 FILLER_14_99
*247 FILLER_15_109
*248 FILLER_15_111
*249 FILLER_15_113
*250 FILLER_15_20
*251 FILLER_15_24
*252 FILLER_15_28
*253 FILLER_15_3
*254 FILLER_15_46
*255 FILLER_15_48
*256 FILLER_15_54
*257 FILLER_15_57
*258 FILLER_15_66
*259 FILLER_15_70
*260 FILLER_16_107
*261 FILLER_16_11
*262 FILLER_16_119
*263 FILLER_16_123
*264 FILLER_16_27
*265 FILLER_16_3
*266 FILLER_16_56
*267 FILLER_16_64
*268 FILLER_16_73
*269 FILLER_16_81
*270 FILLER_16_83
*271 FILLER_16_85
*272 FILLER_16_96
*273 FILLER_16_98
*274 FILLER_17_107
*275 FILLER_17_111
*276 FILLER_17_113
*277 FILLER_17_19
*278 FILLER_17_40
*279 FILLER_17_65
*280 FILLER_17_7
*281 FILLER_17_83
*282 FILLER_17_9
*283 FILLER_18_100
*284 FILLER_18_112
*285 FILLER_18_124
*286 FILLER_18_23
*287 FILLER_18_27
*288 FILLER_18_38
*289 FILLER_18_59
*290 FILLER_18_63
*291 FILLER_19_105
*292 FILLER_19_109
*293 FILLER_19_111
*294 FILLER_19_113
*295 FILLER_19_51
*296 FILLER_19_55
*297 FILLER_19_66
*298 FILLER_19_68
*299 FILLER_19_78
*300 FILLER_19_82
*301 FILLER_19_93
*302 FILLER_1_105
*303 FILLER_1_109
*304 FILLER_1_111
*305 FILLER_1_113
*306 FILLER_1_16
*307 FILLER_1_3
*308 FILLER_1_40
*309 FILLER_1_52
*310 FILLER_1_57
*311 FILLER_1_69
*312 FILLER_1_7
*313 FILLER_1_81
*314 FILLER_1_93
*315 FILLER_20_113
*316 FILLER_20_3
*317 FILLER_20_38
*318 FILLER_20_42
*319 FILLER_20_7
*320 FILLER_21_111
*321 FILLER_21_113
*322 FILLER_21_15
*323 FILLER_21_3
*324 FILLER_21_32
*325 FILLER_21_36
*326 FILLER_21_46
*327 FILLER_21_57
*328 FILLER_21_59
*329 FILLER_21_76
*330 FILLER_21_78
*331 FILLER_21_87
*332 FILLER_21_99
*333 FILLER_22_109
*334 FILLER_22_111
*335 FILLER_22_113
*336 FILLER_22_15
*337 FILLER_22_27
*338 FILLER_22_29
*339 FILLER_22_3
*340 FILLER_22_37
*341 FILLER_22_42
*342 FILLER_22_54
*343 FILLER_22_57
*344 FILLER_22_69
*345 FILLER_22_81
*346 FILLER_22_83
*347 FILLER_22_85
*348 FILLER_22_97
*349 FILLER_2_109
*350 FILLER_2_26
*351 FILLER_2_3
*352 FILLER_2_37
*353 FILLER_2_49
*354 FILLER_2_5
*355 FILLER_2_61
*356 FILLER_2_73
*357 FILLER_2_81
*358 FILLER_2_83
*359 FILLER_2_85
*360 FILLER_2_97
*361 FILLER_3_109
*362 FILLER_3_111
*363 FILLER_3_121
*364 FILLER_3_3
*365 FILLER_3_51
*366 FILLER_3_55
*367 FILLER_3_57
*368 FILLER_3_69
*369 FILLER_3_81
*370 FILLER_4_32
*371 FILLER_4_53
*372 FILLER_4_65
*373 FILLER_5_3
*374 FILLER_5_57
*375 FILLER_5_7
*376 FILLER_5_86
*377 FILLER_5_9
*378 FILLER_6_100
*379 FILLER_6_27
*380 FILLER_6_3
*381 FILLER_6_49
*382 FILLER_6_56
*383 FILLER_6_78
*384 FILLER_6_82
*385 FILLER_6_94
*386 FILLER_7_111
*387 FILLER_7_122
*388 FILLER_7_124
*389 FILLER_7_34
*390 FILLER_7_50
*391 FILLER_7_54
*392 FILLER_7_57
*393 FILLER_7_6
*394 FILLER_7_61
*395 FILLER_8_122
*396 FILLER_8_124
*397 FILLER_8_23
*398 FILLER_8_27
*399 FILLER_8_29
*400 FILLER_8_56
*401 FILLER_8_60
*402 FILLER_8_82
*403 FILLER_8_85
*404 FILLER_8_94
*405 FILLER_9_102
*406 FILLER_9_113
*407 FILLER_9_115
*408 FILLER_9_124
*409 FILLER_9_15
*410 FILLER_9_3
*411 FILLER_9_57
*412 FILLER_9_69
*413 FILLER_9_73
*414 FILLER_9_75
*415 FILLER_9_84
*416 FILLER_9_92
*417 PHY_EDGE_ROW_0_Left_23
*418 PHY_EDGE_ROW_0_Right_0
*419 PHY_EDGE_ROW_10_Left_33
*420 PHY_EDGE_ROW_10_Right_10
*421 PHY_EDGE_ROW_11_Left_34
*422 PHY_EDGE_ROW_11_Right_11
*423 PHY_EDGE_ROW_12_Left_35
*424 PHY_EDGE_ROW_12_Right_12
*425 PHY_EDGE_ROW_13_Left_36
*426 PHY_EDGE_ROW_13_Right_13
*427 PHY_EDGE_ROW_14_Left_37
*428 PHY_EDGE_ROW_14_Right_14
*429 PHY_EDGE_ROW_15_Left_38
*430 PHY_EDGE_ROW_15_Right_15
*431 PHY_EDGE_ROW_16_Left_39
*432 PHY_EDGE_ROW_16_Right_16
*433 PHY_EDGE_ROW_17_Left_40
*434 PHY_EDGE_ROW_17_Right_17
*435 PHY_EDGE_ROW_18_Left_41
*436 PHY_EDGE_ROW_18_Right_18
*437 PHY_EDGE_ROW_19_Left_42
*438 PHY_EDGE_ROW_19_Right_19
*439 PHY_EDGE_ROW_1_Left_24
*440 PHY_EDGE_ROW_1_Right_1
*441 PHY_EDGE_ROW_20_Left_43
*442 PHY_EDGE_ROW_20_Right_20
*443 PHY_EDGE_ROW_21_Left_44
*444 PHY_EDGE_ROW_21_Right_21
*445 PHY_EDGE_ROW_22_Left_45
*446 PHY_EDGE_ROW_22_Right_22
*447 PHY_EDGE_ROW_2_Left_25
*448 PHY_EDGE_ROW_2_Right_2
*449 PHY_EDGE_ROW_3_Left_26
*450 PHY_EDGE_ROW_3_Right_3
*451 PHY_EDGE_ROW_4_Left_27
*452 PHY_EDGE_ROW_4_Right_4
*453 PHY_EDGE_ROW_5_Left_28
*454 PHY_EDGE_ROW_5_Right_5
*455 PHY_EDGE_ROW_6_Left_29
*456 PHY_EDGE_ROW_6_Right_6
*457 PHY_EDGE_ROW_7_Left_30
*458 PHY_EDGE_ROW_7_Right_7
*459 PHY_EDGE_ROW_8_Left_31
*460 PHY_EDGE_ROW_8_Right_8
*461 PHY_EDGE_ROW_9_Left_32
*462 PHY_EDGE_ROW_9_Right_9
*463 TAP_TAPCELL_ROW_0_46
*464 TAP_TAPCELL_ROW_0_47
*465 TAP_TAPCELL_ROW_0_48
*466 TAP_TAPCELL_ROW_0_49
*467 TAP_TAPCELL_ROW_10_68
*468 TAP_TAPCELL_ROW_10_69
*469 TAP_TAPCELL_ROW_11_70
*470 TAP_TAPCELL_ROW_11_71
*471 TAP_TAPCELL_ROW_12_72
*472 TAP_TAPCELL_ROW_12_73
*473 TAP_TAPCELL_ROW_13_74
*474 TAP_TAPCELL_ROW_13_75
*475 TAP_TAPCELL_ROW_14_76
*476 TAP_TAPCELL_ROW_14_77
*477 TAP_TAPCELL_ROW_15_78
*478 TAP_TAPCELL_ROW_15_79
*479 TAP_TAPCELL_ROW_16_80
*480 TAP_TAPCELL_ROW_16_81
*481 TAP_TAPCELL_ROW_17_82
*482 TAP_TAPCELL_ROW_17_83
*483 TAP_TAPCELL_ROW_18_84
*484 TAP_TAPCELL_ROW_18_85
*485 TAP_TAPCELL_ROW_19_86
*486 TAP_TAPCELL_ROW_19_87
*487 TAP_TAPCELL_ROW_1_50
*488 TAP_TAPCELL_ROW_1_51
*489 TAP_TAPCELL_ROW_20_88
*490 TAP_TAPCELL_ROW_20_89
*491 TAP_TAPCELL_ROW_21_90
*492 TAP_TAPCELL_ROW_21_91
*493 TAP_TAPCELL_ROW_22_92
*494 TAP_TAPCELL_ROW_22_93
*495 TAP_TAPCELL_ROW_22_94
*496 TAP_TAPCELL_ROW_22_95
*497 TAP_TAPCELL_ROW_2_52
*498 TAP_TAPCELL_ROW_2_53
*499 TAP_TAPCELL_ROW_3_54
*500 TAP_TAPCELL_ROW_3_55
*501 TAP_TAPCELL_ROW_4_56
*502 TAP_TAPCELL_ROW_4_57
*503 TAP_TAPCELL_ROW_5_58
*504 TAP_TAPCELL_ROW_5_59
*505 TAP_TAPCELL_ROW_6_60
*506 TAP_TAPCELL_ROW_6_61
*507 TAP_TAPCELL_ROW_7_62
*508 TAP_TAPCELL_ROW_7_63
*509 TAP_TAPCELL_ROW_8_64
*510 TAP_TAPCELL_ROW_8_65
*511 TAP_TAPCELL_ROW_9_66
*512 TAP_TAPCELL_ROW_9_67
*513 _079_
*514 _080_
*515 _081_
*516 _082_
*517 _083_
*518 _084_
*519 _085_
*520 _086_
*521 _087_
*522 _088_
*523 _089_
*524 _090_
*525 _091_
*526 _092_
*527 _093_
*528 _094_
*529 _095_
*530 _096_
*531 _097_
*532 _098_
*533 _099_
*534 _100_
*535 _101_
*536 _102_
*537 _103_
*538 _104_
*539 _105_
*540 _106_
*541 _107_
*542 _108_
*543 _109_
*544 _110_
*545 _111_
*546 _112_
*547 _113_
*548 _114_
*549 _115_
*550 _116_
*551 _117_
*552 _118_
*553 _119_
*554 _120_
*555 _121_
*556 _122_
*557 _123_
*558 _124_
*559 _125_
*560 _126_
*561 _127_
*562 _128_
*563 _129_
*564 _130_
*565 _131_
*566 _132_
*567 _133_
*568 _134_
*569 _135_
*570 _136_
*571 _137_
*572 _138_
*573 _139_
*574 _140_
*575 _141_
*576 _142_
*577 _143_
*578 _144_
*579 _145_
*580 _146_
*581 _147_
*582 _148_
*583 _149_
*584 _150_
*585 _151_
*586 _152_
*587 _153_
*588 _154_
*589 _155_
*590 _156_
*591 _157_
*592 _158_
*593 _159_
*594 _160_
*595 _161_
*596 _162_
*597 _163_
*598 _164_
*599 _165_
*600 _166_
*601 _167_
*602 _168_
*603 _169_
*604 _170_
*605 _171_
*606 _172_
*607 _173_
*608 _174_
*609 _175_
*610 _176_
*611 _177_
*612 _178_
*613 _179_
*614 _180_
*615 _181_
*616 _182_
*617 _183_
*618 _184_
*619 _185_
*620 _186_
*621 _187_
*622 _188_
*623 _189_
*624 _190_
*625 _191_
*626 _192_
*627 _193_
*628 clkbuf_0_clk_i
*629 clkbuf_2_0__f_clk_i
*630 clkbuf_2_1__f_clk_i
*631 clkbuf_2_2__f_clk_i
*632 clkbuf_2_3__f_clk_i
*633 clkload0
*634 clkload1
*635 fanout10
*636 fanout11
*637 fanout12
*638 fanout13
*639 fanout14
*640 fanout15
*641 fanout16
*642 fanout17
*643 fanout7
*644 fanout8
*645 fanout9
*646 hold1
*647 hold10
*648 hold11
*649 hold12
*650 hold13
*651 hold14
*652 hold15
*653 hold16
*654 hold17
*655 hold18
*656 hold19
*657 hold2
*658 hold20
*659 hold21
*660 hold22
*661 hold23
*662 hold24
*663 hold25
*664 hold26
*665 hold27
*666 hold28
*667 hold29
*668 hold3
*669 hold30
*670 hold31
*671 hold32
*672 hold33
*673 hold34
*674 hold35
*675 hold36
*676 hold37
*677 hold38
*678 hold39
*679 hold4
*680 hold40
*681 hold41
*682 hold5
*683 hold6
*684 hold7
*685 hold8
*686 hold9
*687 input1
*688 input2
*689 input3
*690 output4
*691 output5
*692 output6

*PORTS
clk_i I
num_to_send_o[0] O
num_to_send_o[1] O
num_to_send_o[2] O
req_num_i I
rst_i I
wr_i I

*D_NET *3 0.00793847
*CONN
*P clk_i I
*I *628:A I *D sky130_fd_sc_hd__clkbuf_16
*CAP
1 clk_i 0.00342432
2 *628:A 0
3 *3:13 0.00342432
4 *3:13 num_to_send_o[2] 0
5 *3:13 *577:S 0
6 *3:13 *610:RESET_B 0
7 *3:13 *643:A 0
8 *3:13 *81:12 0.000338964
9 *3:13 *83:10 0
10 *3:13 *95:107 3.3746e-05
11 *3:13 *97:29 0
12 *3:13 *97:76 0
13 *3:13 *101:22 0
14 *3:13 *128:10 0.000407227
15 *3:13 *135:21 0
16 *3:13 *163:16 0
17 *3:13 *164:8 0.000114092
18 *3:13 *165:8 0
19 *3:13 *184:14 0.0001958
*RES
1 clk_i *3:13 36.1397 
2 *3:13 *628:A 38 
*END

*D_NET *4 0.000754229
*CONN
*P num_to_send_o[0] O
*I *690:X O *D sky130_fd_sc_hd__buf_2
*CAP
1 num_to_send_o[0] 9.38147e-05
2 *690:X 0.000255794
3 *4:14 0.000349609
4 *4:14 *613:CLK 5.50106e-05
*RES
1 *690:X *4:14 49.9 
2 *4:14 num_to_send_o[0] 0.382667 
*END

*D_NET *5 0.00106408
*CONN
*P num_to_send_o[1] O
*I *691:X O *D sky130_fd_sc_hd__buf_2
*CAP
1 num_to_send_o[1] 0.000532042
2 *691:X 0.000532042
*RES
1 *691:X num_to_send_o[1] 48.5643 
*END

*D_NET *6 0.000794967
*CONN
*P num_to_send_o[2] O
*I *692:X O *D sky130_fd_sc_hd__buf_2
*CAP
1 num_to_send_o[2] 9.38147e-05
2 *692:X 0.000303669
3 *6:14 0.000397484
4 *3:13 num_to_send_o[2] 0
*RES
1 *692:X *6:14 49.9 
2 *6:14 num_to_send_o[2] 0.382667 
*END

*D_NET *7 0.00101097
*CONN
*P req_num_i I
*I *687:A I *D sky130_fd_sc_hd__clkbuf_1
*CAP
1 req_num_i 0.000502397
2 *687:A 0.000502397
3 *687:A *515:A 6.17437e-06
*RES
1 req_num_i *687:A 48.5643 
*END

*D_NET *8 0.000466906
*CONN
*P rst_i I
*I *688:A I *D sky130_fd_sc_hd__buf_1
*CAP
1 rst_i 0.000220782
2 *688:A 0.000220782
3 *688:A *684:A 2.5343e-05
*RES
1 rst_i *688:A 47.0789 
*END

*D_NET *9 0.000622312
*CONN
*P wr_i I
*I *689:A I *D sky130_fd_sc_hd__buf_1
*CAP
1 wr_i 0.000311156
2 *689:A 0.000311156
*RES
1 wr_i *689:A 49.8062 
*END

*D_NET *10 0.0019739
*CONN
*I *623:D I *D sky130_fd_sc_hd__dfrtp_1
*I *559:Y O *D sky130_fd_sc_hd__inv_2
*CAP
1 *623:D 0.000492767
2 *559:Y 0.000263439
3 *10:8 0.000756206
4 *623:D *587:B 2.64616e-05
5 *623:D *623:RESET_B 0.000131432
6 *623:D *99:37 0.000180224
7 *10:8 *587:B 6.25829e-05
8 *10:8 *593:RESET_B 0
9 *10:8 *686:A 6.07929e-05
10 *10:8 *112:14 0
11 *10:8 *116:27 0
*RES
1 *559:Y *10:8 42.7229 
2 *10:8 *623:D 47.1971 
*END

*D_NET *11 0.000846754
*CONN
*I *627:D I *D sky130_fd_sc_hd__dfrtp_1
*I *560:X O *D sky130_fd_sc_hd__and2b_1
*CAP
1 *627:D 0
2 *560:X 0.000191126
3 *11:10 0.000191126
4 *11:10 *90:49 0.000138718
5 *11:10 *104:8 0.000187067
6 *11:10 *149:39 0.000138718
*RES
1 *560:X *11:10 41.9564 
2 *11:10 *627:D 38 
*END

*D_NET *12 0.000492652
*CONN
*I *593:D I *D sky130_fd_sc_hd__dfrtp_1
*I *561:X O *D sky130_fd_sc_hd__mux2_1
*CAP
1 *593:D 0
2 *561:X 0.00019101
3 *12:10 0.00019101
4 *12:10 *561:A0 0.000110631
5 *12:10 *90:86 0
*RES
1 *561:X *12:10 41.1279 
2 *12:10 *593:D 38 
*END

*D_NET *13 0.00119255
*CONN
*I *594:D I *D sky130_fd_sc_hd__dfrtp_1
*I *562:X O *D sky130_fd_sc_hd__mux2_1
*CAP
1 *594:D 7.6406e-05
2 *562:X 0.000240396
3 *13:10 0.000316802
4 *594:D *588:A 9.64943e-05
5 *594:D *594:CLK 2.93335e-05
6 *13:10 *595:CLK 7.30011e-05
7 *13:10 *90:14 0.00013317
8 *13:10 *90:22 2.8183e-05
9 *13:10 *97:16 3.52233e-06
10 *13:10 *106:23 0.000195238
*RES
1 *562:X *13:10 42.6607 
2 *13:10 *594:D 39.5743 
*END

*D_NET *14 0.00139119
*CONN
*I *595:D I *D sky130_fd_sc_hd__dfrtp_1
*I *563:X O *D sky130_fd_sc_hd__mux2_1
*CAP
1 *595:D 0
2 *563:X 0.00027933
3 *14:10 0.00027933
4 *14:10 *563:S 0.00018424
5 *14:10 *90:14 0.000243587
6 *14:10 *90:49 8.4047e-05
7 *14:10 *106:23 0.000320661
*RES
1 *563:X *14:10 44.4214 
2 *14:10 *595:D 38 
*END

*D_NET *15 0.000315937
*CONN
*I *648:A I *D sky130_fd_sc_hd__dlygate4sd3_1
*I *564:X O *D sky130_fd_sc_hd__mux2_1
*CAP
1 *648:A 0
2 *564:X 5.82286e-05
3 *15:8 5.82286e-05
4 *15:8 *597:RESET_B 3.70094e-05
5 *15:8 *100:24 0.000114092
6 *15:8 *150:39 4.83778e-05
*RES
1 *564:X *15:8 39.9057 
2 *15:8 *648:A 38 
*END

*D_NET *16 0.0001479
*CONN
*I *683:A I *D sky130_fd_sc_hd__dlygate4sd3_1
*I *565:X O *D sky130_fd_sc_hd__mux2_1
*CAP
1 *683:A 5.92626e-05
2 *565:X 5.92626e-05
3 *683:A *565:A0 2.93747e-05
*RES
1 *565:X *683:A 47.1186 
*END

*D_NET *17 0.0012272
*CONN
*I *685:A I *D sky130_fd_sc_hd__dlygate4sd3_1
*I *566:X O *D sky130_fd_sc_hd__mux2_1
*CAP
1 *685:A 0
2 *566:X 0.000327629
3 *17:10 0.000327629
4 *17:10 *42:8 0.000269775
5 *17:10 *105:8 0.00012076
6 *17:10 *110:8 0.000181412
*RES
1 *566:X *17:10 45.7264 
2 *17:10 *685:A 38 
*END

*D_NET *18 0.00128937
*CONN
*I *599:D I *D sky130_fd_sc_hd__dfrtp_1
*I *567:X O *D sky130_fd_sc_hd__mux2_1
*CAP
1 *599:D 0
2 *567:X 0.000510853
3 *18:10 0.000510853
4 *18:10 *89:8 0.000140259
5 *18:10 *126:12 1.3109e-05
6 *18:10 *130:12 7.03663e-05
7 *18:10 *130:25 4.39278e-05
8 *18:10 *184:14 0
*RES
1 *567:X *18:10 45.7679 
2 *18:10 *599:D 38 
*END

*D_NET *19 0.000356607
*CONN
*I *600:D I *D sky130_fd_sc_hd__dfrtp_1
*I *568:X O *D sky130_fd_sc_hd__mux2_1
*CAP
1 *600:D 0
2 *568:X 5.60845e-05
3 *19:8 5.60845e-05
4 *19:8 *601:RESET_B 1.94418e-05
5 *19:8 *93:47 8.62876e-05
6 *19:8 *102:26 0.000138708
*RES
1 *568:X *19:8 39.9057 
2 *19:8 *600:D 38 
*END

*D_NET *20 0.000458209
*CONN
*I *601:D I *D sky130_fd_sc_hd__dfrtp_1
*I *569:X O *D sky130_fd_sc_hd__mux2_1
*CAP
1 *601:D 0
2 *569:X 0.000104611
3 *20:10 0.000104611
4 *20:10 *568:A0 2.93845e-05
5 *20:10 *601:RESET_B 0.000110922
6 *20:10 *93:47 0.000108681
*RES
1 *569:X *20:10 40.175 
2 *20:10 *601:D 38 
*END

*D_NET *21 0.00081841
*CONN
*I *661:A I *D sky130_fd_sc_hd__dlygate4sd3_1
*I *570:X O *D sky130_fd_sc_hd__mux2_1
*CAP
1 *661:A 4.2583e-05
2 *570:X 0.000275947
3 *21:10 0.00031853
4 *661:A *98:48 9.84851e-05
5 *21:10 *643:A 2.80852e-05
6 *21:10 *89:34 0
7 *21:10 *165:23 5.47808e-05
8 *21:10 *184:14 0
*RES
1 *570:X *21:10 42.8886 
2 *21:10 *661:A 39.0979 
*END

*D_NET *22 0.000540536
*CONN
*I *604:D I *D sky130_fd_sc_hd__dfrtp_1
*I *571:X O *D sky130_fd_sc_hd__mux2_1
*CAP
1 *604:D 6.01944e-05
2 *571:X 8.48374e-05
3 *22:8 0.000145032
4 *604:D *604:CLK 2.93845e-05
5 *604:D *166:8 0.000185434
6 *22:8 *607:RESET_B 3.56537e-05
7 *22:8 *129:35 0
*RES
1 *571:X *22:8 39.5536 
2 *22:8 *604:D 40.0507 
*END

*D_NET *23 0.000688989
*CONN
*I *605:D I *D sky130_fd_sc_hd__dfrtp_1
*I *572:X O *D sky130_fd_sc_hd__mux2_1
*CAP
1 *605:D 0
2 *572:X 0.000169145
3 *23:10 0.000169145
4 *23:10 *572:A1 7.03766e-05
5 *23:10 *572:S 0.000138444
6 *23:10 *150:112 0.000141879
*RES
1 *572:X *23:10 41.48 
2 *23:10 *605:D 38 
*END

*D_NET *24 0.000968218
*CONN
*I *606:D I *D sky130_fd_sc_hd__dfrtp_1
*I *573:X O *D sky130_fd_sc_hd__mux2_1
*CAP
1 *606:D 0
2 *573:X 0.000374712
3 *24:10 0.000374712
4 *24:10 *573:S 1.06875e-05
5 *24:10 *609:RESET_B 0.000182165
6 *24:10 *27:10 0
7 *24:10 *149:29 2.59423e-05
*RES
1 *573:X *24:10 43.51 
2 *24:10 *606:D 38 
*END

*D_NET *25 0.000993887
*CONN
*I *655:A I *D sky130_fd_sc_hd__dlygate4sd3_1
*I *574:X O *D sky130_fd_sc_hd__mux2_1
*CAP
1 *655:A 0
2 *574:X 0.000419083
3 *25:10 0.000419083
4 *25:10 *574:A0 5.67058e-05
5 *25:10 *574:A1 9.90162e-05
6 *25:10 *93:84 0
7 *25:10 *121:8 0
8 *25:10 *122:10 0
*RES
1 *574:X *25:10 45.25 
2 *25:10 *655:A 38 
*END

*D_NET *26 0.000176484
*CONN
*I *608:D I *D sky130_fd_sc_hd__dfrtp_1
*I *575:X O *D sky130_fd_sc_hd__mux2_1
*CAP
1 *608:D 0
2 *575:X 8.82422e-05
3 *26:8 8.82422e-05
4 *26:8 *102:40 0
5 *26:8 *163:16 0
*RES
1 *575:X *26:8 39.5536 
2 *26:8 *608:D 38 
*END

*D_NET *27 0.000793738
*CONN
*I *609:D I *D sky130_fd_sc_hd__dfrtp_1
*I *576:X O *D sky130_fd_sc_hd__mux2_1
*CAP
1 *609:D 0
2 *576:X 0.000357423
3 *27:10 0.000357423
4 *27:10 *101:46 0
5 *27:10 *159:10 7.88926e-05
6 *24:10 *27:10 0
*RES
1 *576:X *27:10 43.945 
2 *27:10 *609:D 38 
*END

*D_NET *28 0.000697872
*CONN
*I *666:A I *D sky130_fd_sc_hd__dlygate4sd3_1
*I *577:X O *D sky130_fd_sc_hd__mux2_1
*CAP
1 *666:A 0
2 *577:X 0.000316254
3 *28:10 0.000316254
4 *28:10 *577:A1 2.72257e-05
5 *28:10 *610:RESET_B 3.81391e-05
6 *28:10 *665:A 0
7 *28:10 *132:8 0
8 *28:10 *133:8 0
*RES
1 *577:X *28:10 43.8207 
2 *28:10 *666:A 38 
*END

*D_NET *29 0.00115044
*CONN
*I *651:A I *D sky130_fd_sc_hd__dlygate4sd3_1
*I *578:X O *D sky130_fd_sc_hd__mux2_1
*CAP
1 *651:A 0
2 *578:X 0.000455408
3 *29:10 0.000455408
4 *29:10 *578:A0 8.1796e-05
5 *29:10 *578:A1 6.42405e-05
6 *29:10 *610:RESET_B 9.35856e-05
7 *29:10 *92:102 0
*RES
1 *578:X *29:10 46.2029 
2 *29:10 *651:A 38 
*END

*D_NET *30 0.000592211
*CONN
*I *659:A I *D sky130_fd_sc_hd__dlygate4sd3_1
*I *579:X O *D sky130_fd_sc_hd__mux2_1
*CAP
1 *659:A 0.000158776
2 *579:X 8.79979e-05
3 *30:8 0.000246774
4 *30:8 *532:B 0
5 *30:8 *79:10 1.01436e-05
6 *30:8 *125:8 8.85189e-05
7 *30:8 *149:78 0
*RES
1 *579:X *30:8 39.9057 
2 *30:8 *659:A 40.5271 
*END

*D_NET *31 0.000602248
*CONN
*I *614:D I *D sky130_fd_sc_hd__dfrtp_1
*I *580:X O *D sky130_fd_sc_hd__mux2_1
*CAP
1 *614:D 0
2 *580:X 0.000206508
3 *31:10 0.000206508
4 *31:10 *580:A1 0.000139357
5 *31:10 *617:RESET_B 0
6 *31:10 *97:58 4.98755e-05
*RES
1 *580:X *31:10 41.1279 
2 *31:10 *614:D 38 
*END

*D_NET *32 0.00208172
*CONN
*I *615:D I *D sky130_fd_sc_hd__dfrtp_1
*I *581:X O *D sky130_fd_sc_hd__mux2_1
*CAP
1 *615:D 0.000272558
2 *581:X 0.000335805
3 *32:10 0.000608363
4 *615:D *615:RESET_B 5.03619e-05
5 *615:D *92:31 0.000494132
6 *615:D *161:12 3.7122e-06
7 *32:10 *581:A1 9.91895e-05
8 *32:10 *97:58 0
9 *32:10 *101:103 0.000138718
10 *32:10 *148:6 7.88828e-05
*RES
1 *581:X *32:10 43.3857 
2 *32:10 *615:D 45.7679 
*END

*D_NET *33 0.00100695
*CONN
*I *616:D I *D sky130_fd_sc_hd__dfrtp_1
*I *582:X O *D sky130_fd_sc_hd__mux2_1
*CAP
1 *616:D 0
2 *582:X 0.000269446
3 *33:10 0.000269446
4 *33:10 *92:37 5.61414e-05
5 *33:10 *92:41 6.03737e-05
6 *33:10 *127:12 0.000166513
7 *33:10 *127:23 0.000129504
8 *33:10 *146:10 5.55278e-05
*RES
1 *582:X *33:10 44.525 
2 *33:10 *616:D 38 
*END

*D_NET *34 0.000354527
*CONN
*I *617:D I *D sky130_fd_sc_hd__dfrtp_1
*I *583:X O *D sky130_fd_sc_hd__mux2_1
*CAP
1 *617:D 0
2 *583:X 0.000149761
3 *34:10 0.000149761
4 *34:10 *97:58 0
5 *34:10 *138:40 5.50049e-05
*RES
1 *583:X *34:10 40.5271 
2 *34:10 *617:D 38 
*END

*D_NET *35 0.000613804
*CONN
*I *618:D I *D sky130_fd_sc_hd__dfrtp_1
*I *584:X O *D sky130_fd_sc_hd__mux2_1
*CAP
1 *618:D 0
2 *584:X 0.000194268
3 *35:10 0.000194268
4 *35:10 *692:A 0.000187129
5 *35:10 *92:37 3.81391e-05
6 *35:10 *138:10 0
*RES
1 *584:X *35:10 41.6043 
2 *35:10 *618:D 38 
*END

*D_NET *36 0.000269036
*CONN
*I *620:D I *D sky130_fd_sc_hd__dfrtp_1
*I *585:X O *D sky130_fd_sc_hd__xor2_1
*CAP
1 *620:D 0
2 *585:X 0.000134518
3 *36:8 0.000134518
4 *36:8 *119:8 0
5 *36:8 *155:19 0
6 *36:8 *155:32 0
*RES
1 *585:X *36:8 40.61 
2 *36:8 *620:D 38 
*END

*D_NET *37 0.000516759
*CONN
*I *621:D I *D sky130_fd_sc_hd__dfrtp_1
*I *588:Y O *D sky130_fd_sc_hd__nor2_1
*CAP
1 *621:D 2.24686e-05
2 *588:Y 0.000164289
3 *37:10 0.000186757
4 *621:D *99:37 5.50049e-05
5 *37:10 *60:8 1.94812e-05
6 *37:10 *60:29 1.76557e-05
7 *37:10 *99:37 4.08641e-05
8 *37:10 *155:59 1.02387e-05
*RES
1 *588:Y *37:10 40.6514 
2 *37:10 *621:D 38.6214 
*END

*D_NET *38 0.000831953
*CONN
*I *622:D I *D sky130_fd_sc_hd__dfrtp_1
*I *589:X O *D sky130_fd_sc_hd__xor2_1
*CAP
1 *622:D 8.19876e-05
2 *589:X 0.000323928
3 *38:12 0.000405916
4 *622:D *90:22 2.01224e-05
5 *38:12 *152:27 0
*RES
1 *589:X *38:12 43.8414 
2 *38:12 *622:D 38.9995 
*END

*D_NET *39 0.00103302
*CONN
*I *624:D I *D sky130_fd_sc_hd__dfrtp_1
*I *590:X O *D sky130_fd_sc_hd__mux2_1
*CAP
1 *624:D 0
2 *590:X 0.000217748
3 *39:10 0.000217748
4 *39:10 *633:A 5.3304e-05
5 *39:10 *91:10 5.93381e-05
6 *39:10 *91:14 1.44546e-05
7 *39:10 *91:35 6.63801e-05
8 *39:10 *100:56 1.14452e-05
9 *39:10 *100:81 0.000392602
*RES
1 *590:X *39:10 44.0486 
2 *39:10 *624:D 38 
*END

*D_NET *40 0.0015016
*CONN
*I *675:A I *D sky130_fd_sc_hd__dlygate4sd3_1
*I *591:X O *D sky130_fd_sc_hd__mux2_1
*CAP
1 *675:A 0.00012346
2 *591:X 0.000224603
3 *40:8 0.000348063
4 *675:A *566:S 5.50106e-05
5 *675:A *42:8 0.000141164
6 *675:A *176:14 0.000267167
7 *40:8 *566:S 0.000342134
8 *40:8 *95:133 0
9 *40:8 *142:10 0
*RES
1 *591:X *40:8 42.7229 
2 *40:8 *675:A 41.9564 
*END

*D_NET *41 0.000124612
*CONN
*I *671:A I *D sky130_fd_sc_hd__dlygate4sd3_1
*I *592:X O *D sky130_fd_sc_hd__mux2_1
*CAP
1 *671:A 5.07916e-05
2 *592:X 5.07916e-05
3 *671:A *105:29 2.30292e-05
*RES
1 *592:X *671:A 47.1186 
*END

*D_NET *42 0.0026893
*CONN
*I *545:A2 I *D sky130_fd_sc_hd__a221o_1
*I *542:Y O *D sky130_fd_sc_hd__nand2_1
*CAP
1 *545:A2 0.000277648
2 *542:Y 0.000326042
3 *42:8 0.00060369
4 *545:A2 *598:RESET_B 0
5 *545:A2 *626:CLK 3.3123e-05
6 *545:A2 *91:61 7.91596e-05
7 *545:A2 *91:65 0.000137143
8 *545:A2 *95:8 7.6351e-05
9 *545:A2 *176:14 0.000400877
10 *42:8 *566:S 0.00031495
11 *42:8 *95:133 2.93747e-05
12 *675:A *42:8 0.000141164
13 *17:10 *42:8 0.000269775
*RES
1 *542:Y *42:8 46.2443 
2 *42:8 *545:A2 45.3432 
*END

*D_NET *43 0.00220764
*CONN
*I *545:B1 I *D sky130_fd_sc_hd__a221o_1
*I *543:Y O *D sky130_fd_sc_hd__nand2_1
*CAP
1 *545:B1 0.000388786
2 *543:Y 9.73728e-05
3 *43:8 0.000486159
4 *545:B1 *545:B2 0.000168228
5 *545:B1 *565:A1 8.62876e-05
6 *545:B1 *598:RESET_B 0
7 *545:B1 *88:10 0.000166522
8 *545:B1 *91:61 2.24048e-05
9 *545:B1 *91:65 0.000217654
10 *545:B1 *97:147 0
11 *545:B1 *108:8 0
12 *545:B1 *109:10 0.000141869
13 *545:B1 *111:10 0
14 *545:B1 *175:19 0.000298257
15 *43:8 *543:B 7.99597e-05
16 *43:8 *178:19 5.41385e-05
*RES
1 *543:Y *43:8 40.5271 
2 *43:8 *545:B1 49.7657 
*END

*D_NET *44 0.00231468
*CONN
*I *545:B2 I *D sky130_fd_sc_hd__a221o_1
*I *544:X O *D sky130_fd_sc_hd__or2_1
*CAP
1 *545:B2 0.000319442
2 *544:X 5.89683e-05
3 *44:8 0.000378411
4 *545:B2 *545:C1 0.00058599
5 *545:B2 *565:A1 8.62876e-05
6 *545:B2 *91:59 6.39489e-06
7 *545:B2 *95:8 1.28818e-05
8 *545:B2 *108:8 0.000130035
9 *545:B2 *109:10 0.00014411
10 *545:B2 *175:19 0.000284581
11 *44:8 *178:19 0.000139352
12 *545:B1 *545:B2 0.000168228
*RES
1 *544:X *44:8 39.5743 
2 *44:8 *545:B2 49.5638 
*END

*D_NET *45 0.00670404
*CONN
*I *557:B I *D sky130_fd_sc_hd__and4_1
*I *545:X O *D sky130_fd_sc_hd__a221o_1
*CAP
1 *557:B 4.25104e-05
2 *545:X 0.00110836
3 *45:10 0.00102375
4 *45:6 0.0020896
5 *557:B *51:18 5.50049e-05
6 *45:6 *630:A 7.53384e-06
7 *45:6 *664:A 0.000102375
8 *45:6 *91:8 5.61255e-06
9 *45:6 *95:8 0.000394994
10 *45:6 *177:23 0.000319107
11 *45:10 *557:D 5.56306e-05
12 *45:10 *603:RESET_B 0.000166522
13 *45:10 *78:10 0.000133316
14 *45:10 *89:10 0.000242683
15 *45:10 *89:34 0.00015299
16 *45:10 *89:53 6.7177e-06
17 *45:10 *102:40 0.000623805
18 *45:10 *126:12 0.000141397
19 *45:10 *130:25 3.21223e-05
20 *45:10 *156:40 0
21 *45:10 *174:21 0
*RES
1 *545:X *45:6 39.82 
2 *45:6 *45:10 38.7386 
3 *45:10 *557:B 38.6214 
*END

*D_NET *46 0.00180732
*CONN
*I *551:C1 I *D sky130_fd_sc_hd__a221o_1
*I *546:X O *D sky130_fd_sc_hd__xor2_1
*CAP
1 *551:C1 0
2 *546:X 0.000296474
3 *46:10 0.000296474
4 *46:10 *570:S 5.50049e-05
5 *46:10 *50:10 8.41115e-05
6 *46:10 *58:12 0.000345295
7 *46:10 *68:10 0.000218962
8 *46:10 *71:14 1.44813e-05
9 *46:10 *98:61 6.7177e-06
10 *46:10 *102:26 0.000192195
11 *46:10 *129:35 0
12 *46:10 *150:6 0.000211266
13 *46:10 *150:112 3.97399e-05
14 *46:10 *151:8 4.6595e-05
*RES
1 *546:X *46:10 48.0879 
2 *46:10 *551:C1 38 
*END

*D_NET *47 0.000717032
*CONN
*I *551:A1 I *D sky130_fd_sc_hd__a221o_1
*I *547:Y O *D sky130_fd_sc_hd__nand2_1
*CAP
1 *551:A1 0
2 *547:Y 0.000144058
3 *47:10 0.000144058
4 *47:10 *71:14 0.000166522
5 *47:10 *93:31 9.58714e-05
6 *47:10 *129:35 0.000166522
*RES
1 *547:Y *47:10 41.3557 
2 *47:10 *551:A1 38 
*END

*D_NET *48 0.000682776
*CONN
*I *551:A2 I *D sky130_fd_sc_hd__a221o_1
*I *548:X O *D sky130_fd_sc_hd__or2_1
*CAP
1 *551:A2 0
2 *548:X 0.000145882
3 *48:10 0.000145882
4 *48:10 *548:A 0.000104955
5 *48:10 *549:A 3.60562e-05
6 *48:10 *549:B 5.50106e-05
7 *48:10 *551:B1 0.000119825
8 *48:10 *51:10 5.59252e-05
9 *48:10 *157:48 1.92408e-05
*RES
1 *548:X *48:10 27.3604 
2 *48:10 *551:A2 23 
*END

*D_NET *49 0.000526779
*CONN
*I *551:B1 I *D sky130_fd_sc_hd__a221o_1
*I *549:X O *D sky130_fd_sc_hd__or2_1
*CAP
1 *551:B1 7.59278e-05
2 *549:X 7.59278e-05
3 *551:B1 *549:A 0.000224605
4 *551:B1 *157:48 3.04931e-05
5 *48:10 *551:B1 0.000119825
*RES
1 *549:X *551:B1 48.5271 
*END

*D_NET *50 0.000593991
*CONN
*I *551:B2 I *D sky130_fd_sc_hd__a221o_1
*I *550:Y O *D sky130_fd_sc_hd__nand2_1
*CAP
1 *551:B2 1.64205e-05
2 *550:Y 0.000114564
3 *50:10 0.000130985
4 *551:B2 *549:A 1.43071e-05
5 *551:B2 *157:48 1.43071e-05
6 *50:10 *71:14 0.000164291
7 *50:10 *93:31 5.50049e-05
8 *46:10 *50:10 8.41115e-05
*RES
1 *550:Y *50:10 40.8793 
2 *50:10 *551:B2 38.3314 
*END

*D_NET *51 0.00349419
*CONN
*I *557:C I *D sky130_fd_sc_hd__and4_1
*I *551:X O *D sky130_fd_sc_hd__a221o_1
*CAP
1 *557:C 0
2 *551:X 0.000168523
3 *51:18 0.000780444
4 *51:10 0.000948967
5 *51:10 *548:A 9.75779e-05
6 *51:10 *550:B 2.71291e-05
7 *51:10 *97:93 0.000185755
8 *51:10 *170:12 5.97612e-05
9 *51:18 *572:A0 0.000315195
10 *51:18 *572:S 5.24457e-05
11 *51:18 *69:10 2.02872e-05
12 *51:18 *86:6 0.000140259
13 *51:18 *95:88 0.000169595
14 *51:18 *95:90 0.000274078
15 *51:18 *95:107 8.99384e-05
16 *51:18 *134:23 5.3304e-05
17 *557:B *51:18 5.50049e-05
18 *48:10 *51:10 5.59252e-05
*RES
1 *551:X *51:10 41.7079 
2 *51:10 *51:18 30.5564 
3 *51:18 *557:C 23 
*END

*D_NET *52 0.000561413
*CONN
*I *556:C1 I *D sky130_fd_sc_hd__a211o_1
*I *552:X O *D sky130_fd_sc_hd__xor2_1
*CAP
1 *556:C1 0
2 *552:X 0.000204327
3 *52:10 0.000204327
4 *52:10 *555:B 3.70187e-05
5 *52:10 *149:63 5.40876e-05
6 *52:10 *160:12 6.16531e-05
*RES
1 *552:X *52:10 41.3557 
2 *52:10 *556:C1 38 
*END

*D_NET *53 0.000964721
*CONN
*I *556:A1 I *D sky130_fd_sc_hd__a211o_1
*I *553:Y O *D sky130_fd_sc_hd__nand2_1
*CAP
1 *556:A1 0
2 *553:Y 0.000332811
3 *53:8 0.000332811
4 *53:8 *553:B 4.03994e-05
5 *53:8 *554:B 3.05357e-05
6 *53:8 *555:A 2.31687e-05
7 *53:8 *555:B 5.68958e-05
8 *53:8 *556:B1 5.22287e-05
9 *53:8 *157:35 9.58714e-05
*RES
1 *553:Y *53:8 29.3593 
2 *53:8 *556:A1 23 
*END

*D_NET *54 0.000526009
*CONN
*I *556:A2 I *D sky130_fd_sc_hd__a211o_1
*I *554:X O *D sky130_fd_sc_hd__or2_1
*CAP
1 *556:A2 8.39549e-05
2 *554:X 8.39549e-05
3 *556:A2 *554:B 0.000117655
4 *556:A2 *56:8 0.000185434
5 *556:A2 *97:29 5.50106e-05
*RES
1 *554:X *556:A2 49.0036 
*END

*D_NET *55 0.000298281
*CONN
*I *556:B1 I *D sky130_fd_sc_hd__a211o_1
*I *555:X O *D sky130_fd_sc_hd__xor2_1
*CAP
1 *556:B1 6.88718e-05
2 *555:X 6.88718e-05
3 *556:B1 *553:B 9.58714e-05
4 *556:B1 *554:B 1.24376e-05
5 *53:8 *556:B1 5.22287e-05
*RES
1 *555:X *556:B1 47.595 
*END

*D_NET *56 0.0023008
*CONN
*I *557:D I *D sky130_fd_sc_hd__and4_1
*I *556:X O *D sky130_fd_sc_hd__a211o_1
*CAP
1 *557:D 0.000119105
2 *556:X 0.000509619
3 *56:8 0.000628725
4 *557:D *643:A 0
5 *557:D *89:53 0.00013186
6 *557:D *102:40 1.11121e-05
7 *56:8 *554:B 3.17516e-05
8 *56:8 *558:B 0.000228001
9 *56:8 *558:D 0.00011549
10 *56:8 *632:A 5.50106e-05
11 *56:8 *97:29 4.95081e-05
12 *56:8 *157:48 0.000103568
13 *56:8 *184:14 7.59794e-05
14 *556:A2 *56:8 0.000185434
15 *45:10 *557:D 5.56306e-05
*RES
1 *556:X *56:8 49.5793 
2 *56:8 *557:D 41.0243 
*END

*D_NET *57 0.000724621
*CONN
*I *558:B I *D sky130_fd_sc_hd__and4b_1
*I *557:X O *D sky130_fd_sc_hd__and4_1
*CAP
1 *558:B 0.000157355
2 *557:X 6.45431e-05
3 *57:8 0.000221898
4 *57:8 *643:A 0
5 *57:8 *89:53 5.28231e-05
6 *56:8 *558:B 0.000228001
*RES
1 *557:X *57:8 39.2014 
2 *57:8 *558:B 40.5271 
*END

*D_NET *58 0.00371919
*CONN
*I *645:A I *D sky130_fd_sc_hd__buf_2
*I *558:X O *D sky130_fd_sc_hd__and4b_1
*CAP
1 *645:A 0
2 *558:X 0.000790533
3 *58:12 0.000185835
4 *58:6 0.000976368
5 *58:6 *157:48 0.00107494
6 *58:12 *150:112 0.000346225
7 *46:10 *58:12 0.000345295
*RES
1 *558:X *58:6 35.0557 
2 *58:6 *58:12 34.7229 
3 *58:12 *645:A 23 
*END

*D_NET *59 0.00141935
*CONN
*I *653:A I *D sky130_fd_sc_hd__dlygate4sd3_1
*I *586:Y O *D sky130_fd_sc_hd__a21oi_1
*CAP
1 *653:A 0.000450775
2 *586:Y 0.000103805
3 *59:8 0.00055458
4 *653:A *152:6 2.32101e-05
5 *653:A *152:16 0.000259077
6 *59:8 *620:CLK 0
7 *59:8 *119:8 0
8 *59:8 *152:16 2.79004e-05
*RES
1 *586:Y *59:8 39.9057 
2 *59:8 *653:A 47.1971 
*END

*D_NET *60 0.00247429
*CONN
*I *589:B I *D sky130_fd_sc_hd__xor2_1
*I *588:B I *D sky130_fd_sc_hd__nor2_1
*I *587:X O *D sky130_fd_sc_hd__and3_1
*CAP
1 *589:B 0
2 *588:B 1.37321e-05
3 *587:X 7.94888e-05
4 *60:37 0.000215959
5 *60:29 0.000612633
6 *60:8 0.000489894
7 *588:B *588:A 5.90675e-06
8 *60:29 *588:A 0.00020068
9 *60:29 *594:CLK 5.40241e-05
10 *60:29 *622:RESET_B 2.33744e-05
11 *60:29 *90:22 0.000110301
12 *60:29 *99:27 1.8561e-06
13 *60:29 *99:37 9.77922e-06
14 *60:29 *120:10 1.35764e-05
15 *60:29 *155:59 0
16 *60:37 *589:A 0.000335871
17 *60:37 *106:23 0.000130433
18 *60:37 *120:10 0.000139647
19 *37:10 *60:8 1.94812e-05
20 *37:10 *60:29 1.76557e-05
*RES
1 *587:X *60:8 24.595 
2 *60:8 *588:B 23.4971 
3 *60:8 *60:29 38.6586 
4 *60:29 *60:37 36.4007 
5 *60:37 *589:B 23 
*END

*D_NET *61 0.00166954
*CONN
*I *534:A2 I *D sky130_fd_sc_hd__o221a_1
*I *533:A2 I *D sky130_fd_sc_hd__a221oi_1
*I *513:Y O *D sky130_fd_sc_hd__inv_2
*CAP
1 *534:A2 0.000108573
2 *533:A2 0.000278942
3 *513:Y 0.000119899
4 *61:10 0.000507415
5 *533:A2 *533:B1 3.041e-05
6 *533:A2 *681:A 3.22879e-05
7 *533:A2 *80:10 0.000128391
8 *534:A2 *62:25 6.16531e-05
9 *534:A2 *97:58 0.000249918
10 *534:A2 *101:57 0
11 *534:A2 *148:18 3.26676e-05
12 *61:10 *513:A 9.38214e-05
13 *61:10 *97:58 2.55642e-05
14 *61:10 *101:57 0
*RES
1 *513:Y *61:10 40.175 
2 *61:10 *533:A2 43.4064 
3 *61:10 *534:A2 41.3143 
*END

*D_NET *62 0.00180502
*CONN
*I *534:B2 I *D sky130_fd_sc_hd__o221a_1
*I *533:B2 I *D sky130_fd_sc_hd__a221oi_1
*I *514:Y O *D sky130_fd_sc_hd__inv_2
*CAP
1 *534:B2 0
2 *533:B2 0
3 *514:Y 0
4 *62:25 0.00020229
5 *62:12 0.000373645
6 *62:4 0.000575935
7 *62:12 *533:A1 5.61207e-05
8 *62:12 *584:A0 1.76557e-05
9 *62:12 *584:A1 0.000240447
10 *62:12 *692:A 9.8971e-06
11 *62:12 *79:10 1.14452e-05
12 *62:12 *92:37 0
13 *62:25 *584:A1 1.57571e-05
14 *62:25 *96:56 0.000178517
15 *62:25 *148:18 6.16531e-05
16 *534:A2 *62:25 6.16531e-05
*RES
1 *514:Y *62:4 23 
2 *62:4 *62:12 36.2143 
3 *62:12 *533:B2 23 
4 *62:4 *62:25 33.3764 
5 *62:25 *534:B2 23 
*END

*D_NET *63 0.000639099
*CONN
*I *521:A1 I *D sky130_fd_sc_hd__a221o_1
*I *516:X O *D sky130_fd_sc_hd__or2_1
*CAP
1 *521:A1 0
2 *516:X 0.000132615
3 *63:10 0.000132615
4 *63:10 *64:12 0.000138145
5 *63:10 *77:14 0.000138145
6 *63:10 *173:26 9.75779e-05
*RES
1 *516:X *63:10 41.0036 
2 *63:10 *521:A1 38 
*END

*D_NET *64 0.000953949
*CONN
*I *521:A2 I *D sky130_fd_sc_hd__a221o_1
*I *517:Y O *D sky130_fd_sc_hd__nand2_1
*CAP
1 *521:A2 1.62941e-05
2 *517:Y 0.000230611
3 *64:12 0.000246905
4 *521:A2 *95:60 1.92311e-05
5 *64:12 *77:14 0.00010403
6 *64:12 *98:63 6.46393e-05
7 *64:12 *150:66 5.67058e-05
8 *64:12 *173:26 7.73877e-05
9 *63:10 *64:12 0.000138145
*RES
1 *517:Y *64:12 43.9657 
2 *64:12 *521:A2 38.3832 
*END

*D_NET *65 0.00089085
*CONN
*I *521:B1 I *D sky130_fd_sc_hd__a221o_1
*I *518:X O *D sky130_fd_sc_hd__or2_1
*CAP
1 *521:B1 0.00028214
2 *518:X 3.90016e-05
3 *65:8 0.000321142
4 *521:B1 *521:B2 3.20761e-05
5 *521:B1 *521:C1 1.16872e-05
6 *521:B1 *93:47 3.7122e-06
7 *521:B1 *95:60 2.64967e-05
8 *521:B1 *97:101 2.03764e-06
9 *65:8 *95:60 8.62783e-05
10 *65:8 *97:118 8.62783e-05
*RES
1 *518:X *65:8 39.2014 
2 *65:8 *521:B1 41.6457 
*END

*D_NET *66 0.00143237
*CONN
*I *521:B2 I *D sky130_fd_sc_hd__a221o_1
*I *519:Y O *D sky130_fd_sc_hd__nand2_1
*CAP
1 *521:B2 8.84804e-05
2 *519:Y 0.000495945
3 *66:12 0.000584425
4 *521:B2 *521:C1 2.35426e-05
5 *521:B2 *67:10 2.11066e-05
6 *521:B2 *93:47 4.00259e-06
7 *521:B2 *95:60 0.000146708
8 *66:12 *663:A 1.27321e-05
9 *66:12 *98:61 2.33476e-05
10 *521:B1 *521:B2 3.20761e-05
*RES
1 *519:Y *66:12 47.2357 
2 *66:12 *521:B2 48.7032 
*END

*D_NET *67 0.000987006
*CONN
*I *521:C1 I *D sky130_fd_sc_hd__a221o_1
*I *520:X O *D sky130_fd_sc_hd__xor2_1
*CAP
1 *521:C1 1.22438e-05
2 *520:X 0.000241931
3 *67:10 0.000254175
4 *67:10 *520:A 4.9662e-05
5 *67:10 *95:43 3.0647e-05
6 *67:10 *95:60 7.22824e-05
7 *67:10 *96:113 0.000239863
8 *67:10 *173:26 2.98648e-05
9 *521:B1 *521:C1 1.16872e-05
10 *521:B2 *521:C1 2.35426e-05
11 *521:B2 *67:10 2.11066e-05
*RES
1 *520:X *67:10 43.365 
2 *67:10 *521:C1 38.2745 
*END

*D_NET *68 0.00136789
*CONN
*I *531:C1 I *D sky130_fd_sc_hd__o311a_1
*I *521:X O *D sky130_fd_sc_hd__a221o_1
*CAP
1 *531:C1 0
2 *521:X 0.000357318
3 *68:10 0.000357318
4 *68:10 *77:14 0.000290634
5 *68:10 *95:60 0.000143655
6 *68:10 *98:61 0
7 *68:10 *129:35 0
8 *46:10 *68:10 0.000218962
*RES
1 *521:X *68:10 44.2971 
2 *68:10 *531:C1 38 
*END

*D_NET *69 0.00195091
*CONN
*I *531:A1 I *D sky130_fd_sc_hd__o311a_1
*I *522:X O *D sky130_fd_sc_hd__xor2_1
*CAP
1 *531:A1 0
2 *522:X 0.000278091
3 *69:10 0.000278091
4 *69:10 *572:S 0.000183733
5 *69:10 *93:12 0.000137788
6 *69:10 *93:63 0.000235303
7 *69:10 *95:71 0.000296017
8 *69:10 *95:88 0.000317611
9 *69:10 *95:90 9.84794e-05
10 *69:10 *97:76 6.82416e-05
11 *69:10 *150:112 3.72639e-05
12 *51:18 *69:10 2.02872e-05
*RES
1 *522:X *69:10 47.6114 
2 *69:10 *531:A1 38 
*END

*D_NET *70 0.000792454
*CONN
*I *531:A2 I *D sky130_fd_sc_hd__o311a_1
*I *523:X O *D sky130_fd_sc_hd__xor2_1
*CAP
1 *531:A2 0
2 *523:X 0.000120578
3 *70:6 0.000120578
4 *70:6 *78:10 7.27085e-05
5 *70:6 *93:20 0.000264564
6 *70:6 *98:61 0.000214026
*RES
1 *523:X *70:6 27.4329 
2 *70:6 *531:A2 23 
*END

*D_NET *71 0.00266335
*CONN
*I *531:A3 I *D sky130_fd_sc_hd__o311a_1
*I *524:X O *D sky130_fd_sc_hd__xor2_1
*CAP
1 *531:A3 0
2 *524:X 2.77218e-05
3 *71:14 0.000491367
4 *71:8 0.000519088
5 *71:8 *604:RESET_B 2.02872e-05
6 *71:8 *97:82 5.3304e-05
7 *71:8 *102:65 6.17437e-06
8 *71:14 *572:A1 0.000122304
9 *71:14 *605:RESET_B 0.000192087
10 *71:14 *77:14 3.65917e-05
11 *71:14 *93:31 0.000221992
12 *71:14 *96:113 3.22879e-05
13 *71:14 *129:35 0.00059485
14 *71:14 *150:112 0
15 *46:10 *71:14 1.44813e-05
16 *47:10 *71:14 0.000166522
17 *50:10 *71:14 0.000164291
*RES
1 *524:X *71:8 38.6214 
2 *71:8 *71:14 28.9407 
3 *71:14 *531:A3 23 
*END

*D_NET *72 0.000918674
*CONN
*I *530:A1 I *D sky130_fd_sc_hd__a221o_1
*I *525:X O *D sky130_fd_sc_hd__or2_1
*CAP
1 *530:A1 6.81587e-05
2 *525:X 7.34118e-05
3 *72:8 0.000141571
4 *530:A1 *530:A2 0.000117609
5 *530:A1 *74:8 3.71311e-05
6 *530:A1 *96:88 9.84794e-05
7 *72:8 *77:14 0.000191157
8 *72:8 *96:113 0.000191157
*RES
1 *525:X *72:8 40.61 
2 *72:8 *530:A1 40.0507 
*END

*D_NET *73 0.00125343
*CONN
*I *530:A2 I *D sky130_fd_sc_hd__a221o_1
*I *526:Y O *D sky130_fd_sc_hd__nand2_1
*CAP
1 *530:A2 8.58519e-05
2 *526:Y 0.000229633
3 *73:10 0.000315485
4 *530:A2 *74:8 0.000158475
5 *530:A2 *96:96 2.93845e-05
6 *73:10 *525:A 2.98648e-05
7 *73:10 *525:B 1.14876e-05
8 *73:10 *95:23 8.26569e-05
9 *73:10 *95:29 2.64616e-05
10 *73:10 *96:113 0.000166522
11 *530:A1 *530:A2 0.000117609
*RES
1 *526:Y *73:10 42.3086 
2 *73:10 *530:A2 40.2889 
*END

*D_NET *74 0.000739894
*CONN
*I *530:C1 I *D sky130_fd_sc_hd__a221o_1
*I *527:X O *D sky130_fd_sc_hd__xor2_1
*CAP
1 *530:C1 0
2 *527:X 0.000233174
3 *74:8 0.000233174
4 *74:8 *530:B2 1.28818e-05
5 *74:8 *96:88 6.50575e-05
6 *530:A1 *74:8 3.71311e-05
7 *530:A2 *74:8 0.000158475
*RES
1 *527:X *74:8 27.93 
2 *74:8 *530:C1 23 
*END

*D_NET *75 0.000924074
*CONN
*I *530:B1 I *D sky130_fd_sc_hd__a221o_1
*I *528:X O *D sky130_fd_sc_hd__or2_1
*CAP
1 *530:B1 0
2 *528:X 0.000325306
3 *75:10 0.000325306
4 *75:10 *76:10 0.000261975
5 *75:10 *77:14 0
6 *75:10 *98:69 1.14876e-05
*RES
1 *528:X *75:10 43.2614 
2 *75:10 *530:B1 38 
*END

*D_NET *76 0.0012199
*CONN
*I *530:B2 I *D sky130_fd_sc_hd__a221o_1
*I *529:Y O *D sky130_fd_sc_hd__nand2_1
*CAP
1 *530:B2 4.02164e-06
2 *529:Y 0.000338131
3 *76:10 0.000342152
4 *530:B2 *96:88 7.80291e-06
5 *76:10 *528:B 1.03955e-05
6 *76:10 *529:A 7.73389e-05
7 *76:10 *529:B 6.17437e-06
8 *76:10 *98:69 9.69279e-05
9 *76:10 *150:27 5.01247e-05
10 *76:10 *150:33 1.19692e-05
11 *74:8 *530:B2 1.28818e-05
12 *75:10 *76:10 0.000261975
*RES
1 *529:Y *76:10 45.5193 
2 *76:10 *530:B2 38.1502 
*END

*D_NET *77 0.00312816
*CONN
*I *531:B1 I *D sky130_fd_sc_hd__o311a_1
*I *530:X O *D sky130_fd_sc_hd__a221o_1
*CAP
1 *531:B1 0
2 *530:X 0
3 *77:14 0.000829848
4 *77:6 0.000829848
5 *77:14 *96:88 1.62197e-05
6 *77:14 *96:113 0.000422408
7 *77:14 *97:101 0.000269279
8 *77:14 *98:61 0
9 *77:14 *98:63 0
10 *77:14 *98:69 0
11 *77:14 *150:27 0
12 *77:14 *150:33 0
13 *63:10 *77:14 0.000138145
14 *64:12 *77:14 0.00010403
15 *68:10 *77:14 0.000290634
16 *71:14 *77:14 3.65917e-05
17 *72:8 *77:14 0.000191157
18 *75:10 *77:14 0
*RES
1 *530:X *77:6 38 
2 *77:6 *77:14 34.4714 
3 *77:14 *531:B1 23 
*END

*D_NET *78 0.00232495
*CONN
*I *558:D I *D sky130_fd_sc_hd__and4b_1
*I *531:X O *D sky130_fd_sc_hd__o311a_1
*CAP
1 *558:D 6.39466e-05
2 *531:X 0.000583292
3 *78:10 0.000647238
4 *558:D *632:A 9.67842e-05
5 *558:D *157:48 0.000301436
6 *78:10 *89:34 6.33511e-05
7 *78:10 *93:20 0.000139352
8 *78:10 *98:48 5.48607e-05
9 *78:10 *98:61 5.31757e-05
10 *45:10 *78:10 0.000133316
11 *56:8 *558:D 0.00011549
12 *70:6 *78:10 7.27085e-05
*RES
1 *531:X *78:10 47.1971 
2 *78:10 *558:D 41.3505 
*END

*D_NET *79 0.000408193
*CONN
*I *533:C1 I *D sky130_fd_sc_hd__a221oi_1
*I *532:X O *D sky130_fd_sc_hd__xor2_1
*CAP
1 *533:C1 0
2 *532:X 0.000191919
3 *79:10 0.000191919
4 *79:10 *532:A 0
5 *79:10 *532:B 2.76611e-06
6 *79:10 *92:37 0
7 *79:10 *149:78 0
8 *30:8 *79:10 1.01436e-05
9 *62:12 *79:10 1.14452e-05
*RES
1 *532:X *79:10 41.5836 
2 *79:10 *533:C1 38 
*END

*D_NET *80 0.00104128
*CONN
*I *534:C1 I *D sky130_fd_sc_hd__o221a_1
*I *533:Y O *D sky130_fd_sc_hd__a221oi_1
*CAP
1 *534:C1 0
2 *533:Y 0.00016407
3 *80:10 0.00016407
4 *80:10 *533:B1 0.000226295
5 *80:10 *101:57 0.00021356
6 *80:10 *148:18 0.000144899
7 *533:A2 *80:10 0.000128391
*RES
1 *533:Y *80:10 43.4893 
2 *80:10 *534:C1 38 
*END

*D_NET *81 0.00363326
*CONN
*I *558:A_N I *D sky130_fd_sc_hd__and4b_1
*I *534:X O *D sky130_fd_sc_hd__o221a_1
*CAP
1 *558:A_N 0
2 *534:X 0.00088287
3 *81:12 0.000218187
4 *81:6 0.00110106
5 *81:6 *578:A0 4.75937e-05
6 *81:6 *578:S 0.000129522
7 *81:6 *84:10 0.000313244
8 *81:6 *96:56 5.50049e-05
9 *81:6 *149:100 0.00039978
10 *81:12 *643:A 0
11 *81:12 *84:10 1.37246e-05
12 *81:12 *95:107 0.000133316
13 *3:13 *81:12 0.000338964
*RES
1 *534:X *81:6 36.0086 
2 *81:6 *81:12 34.7229 
3 *81:12 *558:A_N 23 
*END

*D_NET *82 0.000387943
*CONN
*I *539:B1 I *D sky130_fd_sc_hd__a211o_1
*I *535:X O *D sky130_fd_sc_hd__xor2_1
*CAP
1 *539:B1 6.49153e-05
2 *535:X 6.49153e-05
3 *539:B1 *539:C1 9.84794e-05
4 *539:B1 *89:53 2.02872e-05
5 *539:B1 *163:16 0.000139346
*RES
1 *535:X *539:B1 48.0714 
*END

*D_NET *83 0.00131627
*CONN
*I *539:C1 I *D sky130_fd_sc_hd__a211o_1
*I *536:X O *D sky130_fd_sc_hd__xor2_1
*CAP
1 *539:C1 4.26667e-05
2 *536:X 0.000381959
3 *83:10 0.000424626
4 *539:C1 *89:53 0.000183733
5 *539:C1 *163:16 4.66047e-05
6 *83:10 *97:29 0
7 *83:10 *97:33 9.28842e-05
8 *83:10 *97:76 4.6318e-06
9 *83:10 *98:48 4.06849e-05
10 *539:B1 *539:C1 9.84794e-05
11 *3:13 *83:10 0
*RES
1 *536:X *83:10 43.8207 
2 *83:10 *539:C1 40.0507 
*END

*D_NET *84 0.0014462
*CONN
*I *539:A1 I *D sky130_fd_sc_hd__a211o_1
*I *537:X O *D sky130_fd_sc_hd__or2_1
*CAP
1 *539:A1 0
2 *537:X 0.000202269
3 *84:10 0.000202269
4 *84:10 *575:A1 0.000125213
5 *84:10 *578:A0 0.000253657
6 *84:10 *643:A 1.22803e-05
7 *84:10 *85:10 0.000162422
8 *84:10 *95:107 0.000161121
9 *81:6 *84:10 0.000313244
10 *81:12 *84:10 1.37246e-05
*RES
1 *537:X *84:10 45.0429 
2 *84:10 *539:A1 38 
*END

*D_NET *85 0.00252949
*CONN
*I *539:A2 I *D sky130_fd_sc_hd__a211o_1
*I *538:Y O *D sky130_fd_sc_hd__nand2_1
*CAP
1 *539:A2 0
2 *538:Y 0.000678432
3 *85:10 0.000678432
4 *85:10 *575:A1 2.02872e-05
5 *85:10 *643:A 0.000160182
6 *85:10 *151:31 0.000345193
7 *85:10 *151:35 0.000484545
8 *84:10 *85:10 0.000162422
*RES
1 *538:Y *85:10 49.9314 
2 *85:10 *539:A2 38 
*END

*D_NET *86 0.000933017
*CONN
*I *557:A I *D sky130_fd_sc_hd__and4_1
*I *539:X O *D sky130_fd_sc_hd__a211o_1
*CAP
1 *557:A 0
2 *539:X 0.00010487
3 *86:6 0.00010487
4 *86:6 *89:53 0.000185428
5 *86:6 *95:107 0.00039759
6 *51:18 *86:6 0.000140259
*RES
1 *539:X *86:6 27.4329 
2 *86:6 *557:A 23 
*END

*D_NET *87 0.00280582
*CONN
*I *545:C1 I *D sky130_fd_sc_hd__a221o_1
*I *540:X O *D sky130_fd_sc_hd__xor2_1
*CAP
1 *545:C1 0.000200946
2 *540:X 0.000591577
3 *87:8 0.000792523
4 *545:C1 *97:128 0.000390462
5 *545:C1 *108:8 0.000167443
6 *87:8 *597:RESET_B 5.18019e-05
7 *87:8 *178:10 2.50739e-05
8 *545:B2 *545:C1 0.00058599
*RES
1 *540:X *87:8 45.7679 
2 *87:8 *545:C1 45.8921 
*END

*D_NET *88 0.00123558
*CONN
*I *545:A1 I *D sky130_fd_sc_hd__a221o_1
*I *541:X O *D sky130_fd_sc_hd__or2_1
*CAP
1 *545:A1 0
2 *541:X 0.000390397
3 *88:10 0.000390397
4 *88:10 *626:CLK 5.46706e-05
5 *88:10 *91:61 0.000111852
6 *88:10 *100:14 1.32314e-05
7 *88:10 *100:24 0.000108507
8 *545:B1 *88:10 0.000166522
*RES
1 *541:X *88:10 44.2143 
2 *88:10 *545:A1 38 
*END

*D_NET *89 0.00803199
*CONN
*I *631:A I *D sky130_fd_sc_hd__clkbuf_16
*I *632:A I *D sky130_fd_sc_hd__clkbuf_16
*I *630:A I *D sky130_fd_sc_hd__clkbuf_16
*I *629:A I *D sky130_fd_sc_hd__clkbuf_16
*I *628:X O *D sky130_fd_sc_hd__clkbuf_16
*CAP
1 *631:A 0
2 *632:A 6.5482e-05
3 *630:A 6.27259e-05
4 *629:A 0
5 *628:X 5.19751e-05
6 *89:53 0.000601512
7 *89:34 0.00119942
8 *89:18 0.000511965
9 *89:10 0.000945792
10 *89:8 0.000955505
11 *630:A *664:A 5.67058e-05
12 *630:A *91:8 4.66047e-05
13 *632:A *157:48 2.02872e-05
14 *89:8 *126:12 2.72257e-05
15 *89:10 *100:81 0
16 *89:10 *130:12 0.000594525
17 *89:10 *131:8 0
18 *89:10 *174:21 0
19 *89:18 *624:RESET_B 9.98797e-05
20 *89:18 *639:A 0.000130353
21 *89:18 *99:10 4.93341e-05
22 *89:18 *100:81 0
23 *89:18 *156:27 0.00051885
24 *89:18 *174:8 0
25 *89:18 *174:21 0
26 *89:34 *643:A 0
27 *89:34 *126:12 0.000298257
28 *89:34 *130:12 0.000186015
29 *89:34 *184:14 0
30 *89:53 *643:A 0
31 *89:53 *95:107 9.45591e-05
32 *89:53 *97:43 0.000141954
33 *89:53 *97:76 7.44161e-06
34 *89:53 *163:16 2.61526e-05
35 *539:B1 *89:53 2.02872e-05
36 *539:C1 *89:53 0.000183733
37 *557:D *89:53 0.00013186
38 *558:D *632:A 9.67842e-05
39 *18:10 *89:8 0.000140259
40 *21:10 *89:34 0
41 *45:6 *630:A 7.53384e-06
42 *45:10 *89:10 0.000242683
43 *45:10 *89:34 0.00015299
44 *45:10 *89:53 6.7177e-06
45 *56:8 *632:A 5.50106e-05
46 *57:8 *89:53 5.28231e-05
47 *78:10 *89:34 6.33511e-05
48 *86:6 *89:53 0.000185428
*RES
1 *628:X *89:8 39.5743 
2 *89:8 *89:10 10.7093 
3 *89:10 *89:18 28.1329 
4 *89:18 *629:A 23 
5 *89:10 *630:A 39.5743 
6 *89:8 *89:34 12.1179 
7 *89:34 *632:A 39.5743 
8 *89:34 *89:53 27.2214 
9 *89:53 *631:A 23 
*END

*D_NET *90 0.00973777
*CONN
*I *619:CLK I *D sky130_fd_sc_hd__dfrtp_1
*I *602:CLK I *D sky130_fd_sc_hd__dfrtp_1
*I *612:CLK I *D sky130_fd_sc_hd__dfrtp_1
*I *593:CLK I *D sky130_fd_sc_hd__dfrtp_1
*I *623:CLK I *D sky130_fd_sc_hd__dfrtp_1
*I *620:CLK I *D sky130_fd_sc_hd__dfrtp_1
*I *627:CLK I *D sky130_fd_sc_hd__dfrtp_1
*I *594:CLK I *D sky130_fd_sc_hd__dfrtp_1
*I *622:CLK I *D sky130_fd_sc_hd__dfrtp_1
*I *621:CLK I *D sky130_fd_sc_hd__dfrtp_1
*I *629:X O *D sky130_fd_sc_hd__clkbuf_16
*CAP
1 *619:CLK 0
2 *602:CLK 0.000319797
3 *612:CLK 0
4 *593:CLK 0
5 *623:CLK 0
6 *620:CLK 0.000389724
7 *627:CLK 2.30556e-05
8 *594:CLK 9.61291e-05
9 *622:CLK 0
10 *621:CLK 2.04035e-05
11 *629:X 0.000129441
12 *90:86 0.000732816
13 *90:80 0.000755007
14 *90:74 0.000568995
15 *90:72 0.000698263
16 *90:66 0.00103906
17 *90:49 0.00127393
18 *90:22 0.000262286
19 *90:14 0.000649547
20 *90:8 0.000874173
21 *594:CLK *588:A 9.78729e-06
22 *620:CLK *152:16 0
23 *621:CLK *99:37 2.4754e-05
24 *90:8 *156:27 0.000188927
25 *90:14 *106:23 4.84303e-05
26 *90:14 *116:27 0
27 *90:22 *622:RESET_B 0
28 *90:22 *99:37 0.000273604
29 *90:22 *106:23 3.20523e-06
30 *90:22 *120:10 0.000107232
31 *90:49 *96:16 0.000116314
32 *90:49 *106:23 2.49836e-05
33 *90:49 *116:27 0
34 *90:49 *149:39 0.000105226
35 *90:49 *183:10 2.19218e-05
36 *90:66 *183:10 3.52233e-06
37 *90:72 *98:19 0
38 *90:72 *103:8 0
39 *90:72 *104:16 0
40 *90:74 *561:A0 0
41 *90:74 *98:19 0
42 *90:74 *103:8 0
43 *90:80 *561:A0 0
44 *90:80 *156:14 0.000135754
45 *90:86 *561:A0 0
46 *594:D *594:CLK 2.93335e-05
47 *622:D *90:22 2.01224e-05
48 *11:10 *90:49 0.000138718
49 *12:10 *90:86 0
50 *13:10 *90:14 0.00013317
51 *13:10 *90:22 2.8183e-05
52 *14:10 *90:14 0.000243587
53 *14:10 *90:49 8.4047e-05
54 *59:8 *620:CLK 0
55 *60:29 *594:CLK 5.40241e-05
56 *60:29 *90:22 0.000110301
*RES
1 *629:X *90:8 40.0507 
2 *90:8 *90:14 7.25 
3 *90:14 *90:22 21.1107 
4 *90:22 *621:CLK 23.6214 
5 *90:22 *622:CLK 23 
6 *90:14 *594:CLK 40.0507 
7 *90:8 *90:49 24.3421 
8 *90:49 *627:CLK 23.4971 
9 *90:49 *90:66 11.31 
10 *90:66 *90:72 19.06 
11 *90:72 *90:74 2.96214 
12 *90:74 *90:80 22.8714 
13 *90:80 *90:86 21.4007 
14 *90:86 *620:CLK 45.3536 
15 *90:86 *623:CLK 38 
16 *90:80 *593:CLK 23 
17 *90:74 *612:CLK 38 
18 *90:72 *602:CLK 43.3857 
19 *90:66 *619:CLK 23 
*END

*D_NET *91 0.0124948
*CONN
*I *626:CLK I *D sky130_fd_sc_hd__dfrtp_1
*I *625:CLK I *D sky130_fd_sc_hd__dfrtp_1
*I *598:CLK I *D sky130_fd_sc_hd__dfrtp_1
*I *597:CLK I *D sky130_fd_sc_hd__dfrtp_1
*I *599:CLK I *D sky130_fd_sc_hd__dfrtp_1
*I *633:A I *D sky130_fd_sc_hd__clkbuf_8
*I *624:CLK I *D sky130_fd_sc_hd__dfrtp_1
*I *596:CLK I *D sky130_fd_sc_hd__dfrtp_1
*I *595:CLK I *D sky130_fd_sc_hd__dfrtp_1
*I *630:X O *D sky130_fd_sc_hd__clkbuf_16
*CAP
1 *626:CLK 0.000576358
2 *625:CLK 0.000239795
3 *598:CLK 3.77894e-05
4 *597:CLK 0
5 *599:CLK 0.000374133
6 *633:A 0.000241527
7 *624:CLK 0
8 *596:CLK 0
9 *595:CLK 0.000516953
10 *630:X 0
11 *91:65 0.00026767
12 *91:61 0.000559784
13 *91:59 0.00113161
14 *91:35 0.000740644
15 *91:14 0.000681427
16 *91:10 0.000293579
17 *91:8 0.000963972
18 *91:4 0.00117503
19 *595:CLK *97:16 0.000206934
20 *595:CLK *158:10 2.30292e-05
21 *599:CLK *599:RESET_B 5.89622e-05
22 *599:CLK *97:29 0
23 *599:CLK *100:81 9.79697e-05
24 *599:CLK *105:29 2.32004e-05
25 *599:CLK *184:14 0.000139647
26 *625:CLK *625:RESET_B 4.83949e-05
27 *625:CLK *100:6 0.000237073
28 *625:CLK *100:14 0.000186876
29 *625:CLK *179:42 0.000234819
30 *626:CLK *626:D 7.49233e-05
31 *626:CLK *674:A 2.76611e-06
32 *626:CLK *96:96 6.343e-05
33 *626:CLK *175:19 6.18295e-05
34 *626:CLK *176:8 0.000140259
35 *626:CLK *176:14 6.18295e-05
36 *633:A *590:A0 0.00014196
37 *633:A *96:88 0.000569799
38 *91:8 *664:A 0.000315852
39 *91:8 *177:23 0.000310647
40 *91:10 *158:10 0
41 *91:14 *100:56 0
42 *91:14 *157:8 0
43 *91:14 *158:10 0
44 *91:35 *100:81 0
45 *91:35 *158:10 0
46 *91:59 *95:8 8.15358e-05
47 *91:59 *113:10 9.84851e-05
48 *91:59 *177:23 0.000533224
49 *91:65 *598:RESET_B 0
50 *545:A2 *626:CLK 3.3123e-05
51 *545:A2 *91:61 7.91596e-05
52 *545:A2 *91:65 0.000137143
53 *545:B1 *91:61 2.24048e-05
54 *545:B1 *91:65 0.000217654
55 *545:B2 *91:59 6.39489e-06
56 *630:A *91:8 4.66047e-05
57 *13:10 *595:CLK 7.30011e-05
58 *39:10 *633:A 5.3304e-05
59 *39:10 *91:10 5.93381e-05
60 *39:10 *91:14 1.44546e-05
61 *39:10 *91:35 6.63801e-05
62 *45:6 *91:8 5.61255e-06
63 *88:10 *626:CLK 5.46706e-05
64 *88:10 *91:61 0.000111852
*RES
1 *630:X *91:4 23 
2 *91:4 *91:8 28.0086 
3 *91:8 *91:10 2.61 
4 *91:10 *91:14 17.9621 
5 *91:14 *595:CLK 33.6264 
6 *91:14 *596:CLK 23 
7 *91:10 *624:CLK 38 
8 *91:8 *91:35 2.96214 
9 *91:35 *633:A 44.3386 
10 *91:35 *599:CLK 46.1821 
11 *91:4 *91:59 24.1971 
12 *91:59 *91:61 2.25786 
13 *91:61 *91:65 20.7793 
14 *91:65 *597:CLK 23 
15 *91:65 *598:CLK 23.6214 
16 *91:61 *625:CLK 45.7679 
17 *91:59 *626:CLK 49.9107 
*END

*D_NET *92 0.012275
*CONN
*I *610:CLK I *D sky130_fd_sc_hd__dfrtp_1
*I *617:CLK I *D sky130_fd_sc_hd__dfrtp_1
*I *614:CLK I *D sky130_fd_sc_hd__dfrtp_1
*I *615:CLK I *D sky130_fd_sc_hd__dfrtp_1
*I *618:CLK I *D sky130_fd_sc_hd__dfrtp_1
*I *613:CLK I *D sky130_fd_sc_hd__dfrtp_1
*I *606:CLK I *D sky130_fd_sc_hd__dfrtp_1
*I *609:CLK I *D sky130_fd_sc_hd__dfrtp_1
*I *616:CLK I *D sky130_fd_sc_hd__dfrtp_1
*I *611:CLK I *D sky130_fd_sc_hd__dfrtp_1
*I *631:X O *D sky130_fd_sc_hd__clkbuf_16
*CAP
1 *610:CLK 0.000169139
2 *617:CLK 0.000223153
3 *614:CLK 2.00578e-05
4 *615:CLK 4.01155e-05
5 *618:CLK 0
6 *613:CLK 0.000153645
7 *606:CLK 0.000307361
8 *609:CLK 0
9 *616:CLK 0
10 *611:CLK 0
11 *631:X 0.00033637
12 *92:102 0.000575778
13 *92:56 0.00030068
14 *92:48 0.000942804
15 *92:41 0.000468522
16 *92:37 0.00100457
17 *92:35 0.000836971
18 *92:31 0.000767593
19 *92:25 0.00127677
20 *92:19 0.000882191
21 *92:10 0.000386031
22 *606:CLK *616:RESET_B 9.987e-05
23 *606:CLK *101:36 0.0002723
24 *606:CLK *127:6 0.000128401
25 *613:CLK *690:A 5.3304e-05
26 *617:CLK *580:A0 0.000231039
27 *617:CLK *580:A1 0.000206164
28 *617:CLK *580:S 0.000100069
29 *92:10 *555:B 0.000133316
30 *92:10 *97:43 2.05986e-05
31 *92:10 *160:12 0.000345295
32 *92:10 *161:14 0.000222123
33 *92:19 *160:12 0.000169665
34 *92:19 *161:14 0.00015822
35 *92:25 *161:12 5.81564e-05
36 *92:31 *161:12 1.14876e-05
37 *92:37 *532:A 0
38 *92:37 *127:23 0
39 *92:48 *127:6 6.9805e-05
40 *92:48 *127:12 0.000168975
41 *92:56 *101:46 0
42 *92:56 *127:49 0.000303691
43 *92:102 *145:8 3.47781e-05
44 *92:102 *160:12 1.01436e-05
45 *92:102 *160:40 0
46 *92:102 *161:12 4.13087e-05
47 *92:102 *161:14 4.07729e-05
48 *615:D *92:31 0.000494132
49 *4:14 *613:CLK 5.50106e-05
50 *29:10 *92:102 0
51 *33:10 *92:37 5.61414e-05
52 *33:10 *92:41 6.03737e-05
53 *35:10 *92:37 3.81391e-05
54 *62:12 *92:37 0
55 *79:10 *92:37 0
*RES
1 *631:X *92:10 45.25 
2 *92:10 *611:CLK 38 
3 *92:10 *92:19 2.25786 
4 *92:19 *92:25 23.265 
5 *92:25 *92:31 10.3157 
6 *92:31 *92:35 16.9057 
7 *92:35 *92:37 14.5829 
8 *92:37 *92:41 17.61 
9 *92:41 *616:CLK 23 
10 *92:41 *92:48 6.815 
11 *92:48 *92:56 36.9186 
12 *92:56 *609:CLK 23 
13 *92:48 *606:CLK 31.2443 
14 *92:37 *613:CLK 40.5271 
15 *92:35 *618:CLK 38 
16 *92:31 *615:CLK 23.8493 
17 *92:25 *614:CLK 23.4971 
18 *92:19 *92:102 18.6664 
19 *92:102 *617:CLK 28.8621 
20 *92:102 *610:CLK 25.5271 
*END

*D_NET *93 0.0117439
*CONN
*I *605:CLK I *D sky130_fd_sc_hd__dfrtp_1
*I *634:A I *D sky130_fd_sc_hd__clkinv_2
*I *604:CLK I *D sky130_fd_sc_hd__dfrtp_1
*I *607:CLK I *D sky130_fd_sc_hd__dfrtp_1
*I *608:CLK I *D sky130_fd_sc_hd__dfrtp_1
*I *601:CLK I *D sky130_fd_sc_hd__dfrtp_1
*I *600:CLK I *D sky130_fd_sc_hd__dfrtp_1
*I *603:CLK I *D sky130_fd_sc_hd__dfrtp_1
*I *632:X O *D sky130_fd_sc_hd__clkbuf_16
*CAP
1 *605:CLK 0
2 *634:A 0
3 *604:CLK 0.000193382
4 *607:CLK 0.000396285
5 *608:CLK 0.000338359
6 *601:CLK 0
7 *600:CLK 0
8 *603:CLK 0.000750135
9 *632:X 0
10 *93:84 0.000856939
11 *93:71 0.000769769
12 *93:67 0.000333565
13 *93:63 0.000380477
14 *93:47 0.00046379
15 *93:31 0.000804976
16 *93:20 0.00111628
17 *93:12 0.000798819
18 *93:6 0.000302538
19 *603:CLK *603:D 2.64616e-05
20 *603:CLK *603:RESET_B 0.000131432
21 *603:CLK *663:A 5.67058e-05
22 *603:CLK *130:12 5.80021e-05
23 *603:CLK *168:10 5.70419e-05
24 *604:CLK *607:RESET_B 2.56078e-05
25 *604:CLK *166:8 1.57571e-05
26 *608:CLK *102:51 0.000150242
27 *608:CLK *167:12 1.59094e-05
28 *93:12 *150:112 0.000137788
29 *93:20 *95:71 0
30 *93:20 *102:40 0
31 *93:20 *150:23 0.000108672
32 *93:20 *151:14 0.000218952
33 *93:20 *156:40 7.30978e-05
34 *93:20 *165:36 0
35 *93:31 *547:B 9.24795e-06
36 *93:31 *550:B 0.000222791
37 *93:31 *96:113 1.22822e-05
38 *93:47 *547:B 0.000112203
39 *93:47 *601:RESET_B 0.000100533
40 *93:47 *97:93 0
41 *93:47 *97:101 7.53384e-06
42 *93:47 *102:26 2.7237e-05
43 *93:63 *97:82 6.79006e-05
44 *93:63 *150:112 0.000430913
45 *93:67 *538:B 6.29487e-05
46 *93:67 *575:A0 0.000112697
47 *93:67 *575:S 0
48 *93:67 *151:31 0.000226295
49 *93:71 *95:118 0
50 *93:71 *97:82 0
51 *93:71 *102:40 0
52 *93:71 *102:51 0
53 *93:71 *167:12 0.000135547
54 *93:84 *607:RESET_B 5.76076e-05
55 *93:84 *102:51 0
56 *93:84 *121:8 0.000195248
57 *521:B1 *93:47 3.7122e-06
58 *521:B2 *93:47 4.00259e-06
59 *604:D *604:CLK 2.93845e-05
60 *19:8 *93:47 8.62876e-05
61 *20:10 *93:47 0.000108681
62 *25:10 *93:84 0
63 *47:10 *93:31 9.58714e-05
64 *50:10 *93:31 5.50049e-05
65 *69:10 *93:12 0.000137788
66 *69:10 *93:63 0.000235303
67 *70:6 *93:20 0.000264564
68 *71:14 *93:31 0.000221992
69 *78:10 *93:20 0.000139352
*RES
1 *632:X *93:6 38 
2 *93:6 *93:12 17.4029 
3 *93:12 *93:20 39.135 
4 *93:20 *603:CLK 36.485 
5 *93:12 *93:31 7.18786 
6 *93:31 *93:47 39.0107 
7 *93:47 *600:CLK 23 
8 *93:31 *601:CLK 23 
9 *93:6 *93:63 21.4007 
10 *93:63 *93:67 4.93 
11 *93:67 *93:71 17.9621 
12 *93:71 *608:CLK 44.815 
13 *93:71 *93:84 20.7793 
14 *93:84 *607:CLK 29.815 
15 *93:84 *604:CLK 26.48 
16 *93:67 *634:A 23 
17 *93:63 *605:CLK 23 
*END

*D_NET *94 0.000198776
*CONN
*I *515:A I *D sky130_fd_sc_hd__or3_1
*I *687:X O *D sky130_fd_sc_hd__clkbuf_1
*CAP
1 *515:A 8.01569e-05
2 *687:X 8.01569e-05
3 *515:A *515:C 3.22879e-05
4 *687:A *515:A 6.17437e-06
*RES
1 *687:X *515:A 47.595 
*END

*D_NET *95 0.0154641
*CONN
*I *542:A I *D sky130_fd_sc_hd__nand2_1
*I *538:A I *D sky130_fd_sc_hd__nand2_1
*I *537:A I *D sky130_fd_sc_hd__or2_1
*I *522:A I *D sky130_fd_sc_hd__xor2_1
*I *549:A I *D sky130_fd_sc_hd__or2_1
*I *519:A I *D sky130_fd_sc_hd__nand2_1
*I *518:A I *D sky130_fd_sc_hd__or2_1
*I *526:A I *D sky130_fd_sc_hd__nand2_1
*I *525:A I *D sky130_fd_sc_hd__or2_1
*I *541:A I *D sky130_fd_sc_hd__or2_1
*I *635:X O *D sky130_fd_sc_hd__clkbuf_2
*CAP
1 *542:A 0
2 *538:A 0
3 *537:A 0
4 *522:A 0
5 *549:A 0.000582827
6 *519:A 2.06849e-05
7 *518:A 4.43131e-05
8 *526:A 0
9 *525:A 6.56987e-05
10 *541:A 0.000182929
11 *635:X 0
12 *95:133 0.000503307
13 *95:118 0.000166246
14 *95:107 0.00039637
15 *95:90 0.000441
16 *95:88 0.000329397
17 *95:71 0.00103218
18 *95:60 0.000755186
19 *95:43 0.000638002
20 *95:29 0.000109022
21 *95:23 0.000450601
22 *95:8 0.000703849
23 *95:4 0.000806974
24 *518:A *520:B 0.000136743
25 *518:A *173:26 0.000139357
26 *519:A *663:A 1.01436e-05
27 *519:A *98:61 3.31127e-05
28 *519:A *150:23 2.84912e-05
29 *525:A *525:B 5.3304e-05
30 *541:A *97:128 0.000296026
31 *541:A *113:10 0
32 *541:A *150:39 0
33 *549:A *157:48 6.91791e-05
34 *95:8 *177:23 6.17437e-06
35 *95:23 *96:88 3.0488e-05
36 *95:23 *96:113 3.74442e-05
37 *95:23 *97:118 0.000210659
38 *95:23 *97:128 0.000149751
39 *95:29 *525:B 5.90675e-06
40 *95:29 *674:A 0
41 *95:43 *96:113 0.000127234
42 *95:43 *97:118 0.000431015
43 *95:60 *96:113 1.34395e-05
44 *95:60 *97:101 0.000181125
45 *95:60 *97:118 7.90671e-05
46 *95:60 *173:26 2.64616e-05
47 *95:71 *98:61 0.000164936
48 *95:71 *150:23 8.67978e-05
49 *95:71 *150:112 4.99753e-06
50 *95:71 *151:14 0.00014062
51 *95:88 *151:14 3.81554e-05
52 *95:90 *97:76 6.52495e-05
53 *95:107 *537:B 0.000141052
54 *95:107 *575:A1 9.67842e-05
55 *95:107 *577:S 1.34354e-05
56 *95:107 *578:A0 0.000185428
57 *95:107 *97:76 0.000317346
58 *95:107 *163:16 0.00017761
59 *95:107 *164:19 4.17736e-05
60 *95:118 *97:82 0
61 *95:118 *151:14 6.16531e-05
62 *95:118 *151:31 0.000127272
63 *95:118 *167:12 0
64 *95:133 *566:S 0
65 *95:133 *591:A0 0.000271476
66 *95:133 *591:S 0.000177909
67 *95:133 *105:8 0.000192087
68 *95:133 *105:19 0.00026533
69 *95:133 *110:8 0
70 *95:133 *142:10 0
71 *95:133 *150:79 0
72 *521:A2 *95:60 1.92311e-05
73 *521:B1 *95:60 2.64967e-05
74 *521:B2 *95:60 0.000146708
75 *545:A2 *95:8 7.6351e-05
76 *545:B2 *95:8 1.28818e-05
77 *551:B1 *549:A 0.000224605
78 *551:B2 *549:A 1.43071e-05
79 *3:13 *95:107 3.3746e-05
80 *40:8 *95:133 0
81 *42:8 *95:133 2.93747e-05
82 *45:6 *95:8 0.000394994
83 *48:10 *549:A 3.60562e-05
84 *51:18 *95:88 0.000169595
85 *51:18 *95:90 0.000274078
86 *51:18 *95:107 8.99384e-05
87 *65:8 *95:60 8.62783e-05
88 *67:10 *95:43 3.0647e-05
89 *67:10 *95:60 7.22824e-05
90 *68:10 *95:60 0.000143655
91 *69:10 *95:71 0.000296017
92 *69:10 *95:88 0.000317611
93 *69:10 *95:90 9.84794e-05
94 *73:10 *525:A 2.98648e-05
95 *73:10 *95:23 8.26569e-05
96 *73:10 *95:29 2.64616e-05
97 *81:12 *95:107 0.000133316
98 *84:10 *95:107 0.000161121
99 *86:6 *95:107 0.00039759
100 *89:53 *95:107 9.45591e-05
101 *91:59 *95:8 8.15358e-05
102 *93:20 *95:71 0
103 *93:71 *95:118 0
*RES
1 *635:X *95:4 23 
2 *95:4 *95:8 21.3386 
3 *95:8 *541:A 42.0186 
4 *95:8 *95:23 5.84143 
5 *95:23 *95:29 16.1186 
6 *95:29 *525:A 24.5743 
7 *95:29 *526:A 23 
8 *95:23 *95:43 6.13143 
9 *95:43 *518:A 39.5743 
10 *95:43 *95:60 39.1764 
11 *95:60 *519:A 38.8493 
12 *95:60 *95:71 8.94857 
13 *95:71 *549:A 45.7886 
14 *95:71 *95:88 18.9564 
15 *95:88 *95:90 3.00357 
16 *95:90 *522:A 23 
17 *95:90 *95:107 44.7071 
18 *95:107 *537:A 23 
19 *95:88 *95:118 33.3143 
20 *95:118 *538:A 23 
21 *95:4 *95:133 42.1386 
22 *95:133 *542:A 23 
*END

*D_NET *96 0.0163336
*CONN
*I *550:A I *D sky130_fd_sc_hd__nand2_1
*I *635:A I *D sky130_fd_sc_hd__clkbuf_2
*I *514:A I *D sky130_fd_sc_hd__inv_2
*I *584:A1 I *D sky130_fd_sc_hd__mux2_1
*I *555:A I *D sky130_fd_sc_hd__xor2_1
*I *563:A0 I *D sky130_fd_sc_hd__mux2_1
*I *636:X O *D sky130_fd_sc_hd__clkbuf_2
*CAP
1 *550:A 0
2 *635:A 0
3 *514:A 0
4 *584:A1 0.000143882
5 *555:A 5.88334e-05
6 *563:A0 0
7 *636:X 0
8 *96:113 0.000656679
9 *96:96 0.000578921
10 *96:88 0.00254549
11 *96:56 0.000732521
12 *96:37 0.00134923
13 *96:31 0.00147598
14 *96:16 0.000210144
15 *96:8 0.00118482
16 *96:4 0.00151034
17 *555:A *553:B 9.65021e-05
18 *555:A *157:35 5.3304e-05
19 *584:A1 *584:A0 9.4713e-05
20 *584:A1 *692:A 0.000108875
21 *96:8 *657:A 0.000223698
22 *96:16 *657:A 0.000271906
23 *96:16 *149:39 0.000114083
24 *96:31 *149:14 8.7816e-05
25 *96:31 *149:63 0
26 *96:31 *157:23 0.000310494
27 *96:31 *162:10 0.00038122
28 *96:37 *576:A0 3.3349e-05
29 *96:37 *576:S 1.94693e-05
30 *96:37 *101:57 0
31 *96:37 *149:14 7.58436e-05
32 *96:37 *157:35 6.07306e-05
33 *96:37 *159:10 9.27196e-05
34 *96:56 *513:A 0
35 *96:56 *534:A1 3.56917e-05
36 *96:56 *692:A 4.60646e-05
37 *96:56 *97:58 0
38 *96:56 *101:57 0
39 *96:56 *157:35 3.43144e-05
40 *96:88 *590:S 0.000338468
41 *96:96 *527:B 1.94693e-05
42 *96:96 *626:RESET_B 6.6869e-05
43 *96:96 *176:8 2.47702e-05
44 *96:96 *176:14 0.000138718
45 *96:113 *547:B 1.37232e-05
46 *96:113 *550:B 1.34406e-05
47 *96:113 *97:93 0
48 *96:113 *97:101 0.000261646
49 *96:113 *129:35 0.000116314
50 *530:A1 *96:88 9.84794e-05
51 *530:A2 *96:96 2.93845e-05
52 *530:B2 *96:88 7.80291e-06
53 *626:CLK *96:96 6.343e-05
54 *633:A *96:88 0.000569799
55 *53:8 *555:A 2.31687e-05
56 *62:12 *584:A1 0.000240447
57 *62:25 *584:A1 1.57571e-05
58 *62:25 *96:56 0.000178517
59 *67:10 *96:113 0.000239863
60 *71:14 *96:113 3.22879e-05
61 *72:8 *96:113 0.000191157
62 *73:10 *96:113 0.000166522
63 *74:8 *96:88 6.50575e-05
64 *77:14 *96:88 1.62197e-05
65 *77:14 *96:113 0.000422408
66 *81:6 *96:56 5.50049e-05
67 *90:49 *96:16 0.000116314
68 *93:31 *96:113 1.22822e-05
69 *95:23 *96:88 3.0488e-05
70 *95:23 *96:113 3.74442e-05
71 *95:43 *96:113 0.000127234
72 *95:60 *96:113 1.34395e-05
*RES
1 *636:X *96:4 23 
2 *96:4 *96:8 3.97714 
3 *96:8 *96:16 34.5571 
4 *96:16 *563:A0 23 
5 *96:8 *96:31 46.4057 
6 *96:31 *96:37 25.585 
7 *96:37 *555:A 39.595 
8 *96:37 *96:56 26.1857 
9 *96:56 *584:A1 27.9714 
10 *96:56 *514:A 23 
11 *96:4 *96:88 38.8214 
12 *96:88 *96:96 38.2443 
13 *96:96 *635:A 38 
14 *96:88 *96:113 34.14 
15 *96:113 *550:A 23 
*END

*D_NET *97 0.025763
*CONN
*I *554:A I *D sky130_fd_sc_hd__or2_1
*I *527:A I *D sky130_fd_sc_hd__xor2_1
*I *543:A I *D sky130_fd_sc_hd__nand2_1
*I *544:A I *D sky130_fd_sc_hd__or2_1
*I *520:A I *D sky130_fd_sc_hd__xor2_1
*I *524:A I *D sky130_fd_sc_hd__xor2_1
*I *535:A I *D sky130_fd_sc_hd__xor2_1
*I *583:A1 I *D sky130_fd_sc_hd__mux2_1
*I *513:A I *D sky130_fd_sc_hd__inv_2
*I *562:A0 I *D sky130_fd_sc_hd__mux2_1
*I *637:X O *D sky130_fd_sc_hd__clkbuf_4
*CAP
1 *554:A 0
2 *527:A 0
3 *543:A 0
4 *544:A 6.63419e-05
5 *520:A 4.3435e-05
6 *524:A 0
7 *535:A 0
8 *583:A1 0
9 *513:A 0.00012873
10 *562:A0 0
11 *637:X 0
12 *97:147 0.000397539
13 *97:128 0.00109572
14 *97:118 0.00126379
15 *97:101 0.000391809
16 *97:93 0.00186158
17 *97:82 0.0013877
18 *97:76 0.00168064
19 *97:58 0.000759159
20 *97:43 0.00174828
21 *97:35 0.000860387
22 *97:33 0.00131353
23 *97:29 0.00094835
24 *97:16 0.0010066
25 *97:6 0.00181561
26 *513:A *101:57 0
27 *520:A *173:26 9.41704e-05
28 *544:A *108:8 2.71291e-05
29 *544:A *178:10 1.19796e-05
30 *544:A *178:19 5.50049e-05
31 *97:16 *595:RESET_B 0
32 *97:16 *99:10 8.4047e-05
33 *97:16 *157:8 3.7252e-05
34 *97:16 *157:23 3.70187e-05
35 *97:16 *158:10 0
36 *97:29 *554:B 0.000162211
37 *97:29 *101:10 6.28591e-05
38 *97:29 *101:22 4.99753e-06
39 *97:29 *135:21 1.12487e-05
40 *97:29 *140:10 0.000299169
41 *97:29 *149:92 1.28008e-05
42 *97:29 *157:23 0.00155879
43 *97:29 *158:10 0
44 *97:29 *165:8 0
45 *97:58 *583:S 0
46 *97:58 *614:RESET_B 9.07395e-05
47 *97:58 *101:103 0
48 *97:58 *144:8 0
49 *97:58 *148:10 6.60558e-05
50 *97:58 *148:18 1.02387e-05
51 *97:58 *149:100 0
52 *97:58 *149:121 0
53 *97:76 *572:S 0.00014196
54 *97:76 *163:16 0.000474101
55 *97:82 *604:RESET_B 4.56219e-05
56 *97:82 *102:65 0.000112697
57 *97:82 *150:112 6.78463e-05
58 *97:82 *151:31 3.31683e-05
59 *97:93 *550:B 4.38375e-05
60 *97:93 *604:RESET_B 3.71251e-05
61 *97:93 *102:26 3.3746e-05
62 *97:93 *129:35 0.000110096
63 *97:93 *134:23 0
64 *97:93 *157:56 7.21237e-05
65 *97:93 *169:10 0
66 *97:93 *170:10 5.33753e-05
67 *97:93 *170:12 1.34354e-05
68 *97:118 *674:A 7.80251e-05
69 *97:118 *102:26 0.000117244
70 *97:118 *143:10 0
71 *97:118 *173:42 0
72 *97:118 *175:19 2.08324e-05
73 *97:118 *176:23 0
74 *97:128 *108:8 0.000186697
75 *97:128 *150:39 0
76 *97:128 *175:19 7.63084e-05
77 *97:128 *178:10 2.11887e-05
78 *97:147 *543:B 9.84794e-05
79 *97:147 *111:10 4.6318e-06
80 *97:147 *178:19 0.000351525
81 *521:B1 *97:101 2.03764e-06
82 *534:A2 *97:58 0.000249918
83 *541:A *97:128 0.000296026
84 *545:B1 *97:147 0
85 *545:C1 *97:128 0.000390462
86 *556:A2 *97:29 5.50106e-05
87 *595:CLK *97:16 0.000206934
88 *599:CLK *97:29 0
89 *3:13 *97:29 0
90 *3:13 *97:76 0
91 *13:10 *97:16 3.52233e-06
92 *31:10 *97:58 4.98755e-05
93 *32:10 *97:58 0
94 *34:10 *97:58 0
95 *51:10 *97:93 0.000185755
96 *56:8 *97:29 4.95081e-05
97 *61:10 *513:A 9.38214e-05
98 *61:10 *97:58 2.55642e-05
99 *65:8 *97:118 8.62783e-05
100 *67:10 *520:A 4.9662e-05
101 *69:10 *97:76 6.82416e-05
102 *71:8 *97:82 5.3304e-05
103 *77:14 *97:101 0.000269279
104 *83:10 *97:29 0
105 *83:10 *97:33 9.28842e-05
106 *83:10 *97:76 4.6318e-06
107 *89:53 *97:43 0.000141954
108 *89:53 *97:76 7.44161e-06
109 *92:10 *97:43 2.05986e-05
110 *93:47 *97:93 0
111 *93:47 *97:101 7.53384e-06
112 *93:63 *97:82 6.79006e-05
113 *93:71 *97:82 0
114 *95:23 *97:118 0.000210659
115 *95:23 *97:128 0.000149751
116 *95:43 *97:118 0.000431015
117 *95:60 *97:101 0.000181125
118 *95:60 *97:118 7.90671e-05
119 *95:90 *97:76 6.52495e-05
120 *95:107 *97:76 0.000317346
121 *95:118 *97:82 0
122 *96:56 *513:A 0
123 *96:56 *97:58 0
124 *96:113 *97:93 0
125 *96:113 *97:101 0.000261646
*RES
1 *637:X *97:6 38 
2 *97:6 *97:16 30.2664 
3 *97:16 *562:A0 23 
4 *97:6 *97:29 38.6971 
5 *97:29 *97:33 17.61 
6 *97:33 *97:35 15 
7 *97:35 *97:43 27.0971 
8 *97:43 *513:A 40.5271 
9 *97:43 *97:58 29.935 
10 *97:58 *583:A1 23 
11 *97:35 *535:A 23 
12 *97:33 *97:76 48.0214 
13 *97:76 *97:82 25.1086 
14 *97:82 *524:A 23 
15 *97:82 *97:93 32.0893 
16 *97:93 *97:101 36.1936 
17 *97:101 *520:A 39.0979 
18 *97:93 *97:118 13.8579 
19 *97:118 *97:128 15.1836 
20 *97:128 *544:A 39.4707 
21 *97:128 *97:147 35.7586 
22 *97:147 *543:A 38 
23 *97:118 *527:A 38 
24 *97:29 *554:A 23 
*END

*D_NET *98 0.0135662
*CONN
*I *532:B I *D sky130_fd_sc_hd__xor2_1
*I *516:A I *D sky130_fd_sc_hd__or2_1
*I *517:A I *D sky130_fd_sc_hd__nand2_1
*I *528:A I *D sky130_fd_sc_hd__or2_1
*I *529:A I *D sky130_fd_sc_hd__nand2_1
*I *523:A I *D sky130_fd_sc_hd__xor2_1
*I *536:A I *D sky130_fd_sc_hd__xor2_1
*I *552:A I *D sky130_fd_sc_hd__xor2_1
*I *582:A1 I *D sky130_fd_sc_hd__mux2_1
*I *561:A0 I *D sky130_fd_sc_hd__mux2_1
*I *638:X O *D sky130_fd_sc_hd__clkbuf_4
*CAP
1 *532:B 0.000160561
2 *516:A 0
3 *517:A 5.30785e-05
4 *528:A 0
5 *529:A 7.82146e-05
6 *523:A 2.34823e-05
7 *536:A 0
8 *552:A 0
9 *582:A1 0
10 *561:A0 0.0004081
11 *638:X 0
12 *98:69 0.000418328
13 *98:63 0.000522215
14 *98:61 0.000745376
15 *98:48 0.00137746
16 *98:37 0.000928318
17 *98:30 0.0012148
18 *98:21 0.00102411
19 *98:19 0.000995193
20 *98:6 0.00124273
21 *517:A *517:B 5.50106e-05
22 *517:A *105:29 3.53115e-05
23 *517:A *150:66 0.00014196
24 *529:A *528:B 5.50049e-05
25 *532:B *532:A 0.000114656
26 *532:B *125:8 7.31082e-05
27 *532:B *127:23 2.70366e-05
28 *561:A0 *593:RESET_B 0
29 *561:A0 *116:12 5.29344e-05
30 *561:A0 *156:14 5.50955e-05
31 *98:19 *116:12 3.39231e-05
32 *98:19 *125:8 3.56433e-05
33 *98:19 *127:49 0
34 *98:19 *146:10 0.000508926
35 *98:30 *552:B 0.000104145
36 *98:30 *579:A0 0.000532323
37 *98:30 *579:A1 0.000190672
38 *98:30 *124:19 0.000299328
39 *98:37 *149:8 9.41704e-05
40 *98:48 *643:A 0.000223698
41 *98:48 *149:8 0.000213863
42 *98:61 *663:A 3.95134e-05
43 *98:61 *150:112 0.000164291
44 *98:61 *173:26 0.000165931
45 *98:63 *517:B 1.4471e-05
46 *98:63 *663:A 2.76611e-06
47 *98:63 *171:21 6.38844e-05
48 *98:63 *173:26 1.14452e-05
49 *98:69 *517:B 1.19796e-05
50 *98:69 *150:27 0
51 *519:A *98:61 3.31127e-05
52 *661:A *98:48 9.84851e-05
53 *12:10 *561:A0 0.000110631
54 *30:8 *532:B 0
55 *46:10 *98:61 6.7177e-06
56 *64:12 *98:63 6.46393e-05
57 *66:12 *98:61 2.33476e-05
58 *68:10 *98:61 0
59 *70:6 *98:61 0.000214026
60 *75:10 *98:69 1.14876e-05
61 *76:10 *529:A 7.73389e-05
62 *76:10 *98:69 9.69279e-05
63 *77:14 *98:61 0
64 *77:14 *98:63 0
65 *77:14 *98:69 0
66 *78:10 *98:48 5.48607e-05
67 *78:10 *98:61 5.31757e-05
68 *79:10 *532:B 2.76611e-06
69 *83:10 *98:48 4.06849e-05
70 *90:72 *98:19 0
71 *90:74 *561:A0 0
72 *90:74 *98:19 0
73 *90:80 *561:A0 0
74 *90:86 *561:A0 0
75 *95:71 *98:61 0.000164936
*RES
1 *638:X *98:6 38 
2 *98:6 *561:A0 46.6586 
3 *98:6 *98:19 18.1043 
4 *98:19 *98:21 15 
5 *98:21 *582:A1 23 
6 *98:21 *98:30 16.24 
7 *98:30 *552:A 23 
8 *98:30 *98:37 3.00357 
9 *98:37 *536:A 23 
10 *98:37 *98:48 14.1271 
11 *98:48 *523:A 23.4971 
12 *98:48 *98:61 28.8786 
13 *98:61 *98:63 3.31429 
14 *98:63 *98:69 21.09 
15 *98:69 *529:A 25.0714 
16 *98:69 *528:A 23 
17 *98:63 *517:A 40.0714 
18 *98:61 *516:A 38 
19 *98:19 *532:B 42.2879 
*END

*D_NET *99 0.00824999
*CONN
*I *594:RESET_B I *D sky130_fd_sc_hd__dfrtp_1
*I *622:RESET_B I *D sky130_fd_sc_hd__dfrtp_1
*I *621:RESET_B I *D sky130_fd_sc_hd__dfrtp_1
*I *620:RESET_B I *D sky130_fd_sc_hd__dfrtp_1
*I *619:RESET_B I *D sky130_fd_sc_hd__dfrtp_1
*I *602:RESET_B I *D sky130_fd_sc_hd__dfrtp_1
*I *612:RESET_B I *D sky130_fd_sc_hd__dfrtp_1
*I *593:RESET_B I *D sky130_fd_sc_hd__dfrtp_1
*I *623:RESET_B I *D sky130_fd_sc_hd__dfrtp_1
*I *595:RESET_B I *D sky130_fd_sc_hd__dfrtp_1
*I *639:X O *D sky130_fd_sc_hd__clkbuf_4
*CAP
1 *594:RESET_B 0
2 *622:RESET_B 4.18899e-05
3 *621:RESET_B 0
4 *620:RESET_B 0.000131707
5 *619:RESET_B 0.000169507
6 *602:RESET_B 0.000154654
7 *612:RESET_B 0
8 *593:RESET_B 0.000583546
9 *623:RESET_B 0.000322345
10 *595:RESET_B 4.63619e-05
11 *639:X 0.000202345
12 *99:83 0.000200592
13 *99:64 0.000433261
14 *99:57 0.000445792
15 *99:37 0.000765065
16 *99:27 0.00116077
17 *99:21 0.000675965
18 *99:10 0.000426482
19 *593:RESET_B *112:14 0.000248989
20 *593:RESET_B *119:8 0.000246757
21 *593:RESET_B *156:14 1.67944e-05
22 *602:RESET_B *104:16 9.96146e-05
23 *619:RESET_B *103:8 0
24 *619:RESET_B *181:10 0.00019747
25 *619:RESET_B *182:8 0
26 *620:RESET_B *119:8 0
27 *620:RESET_B *155:32 7.81176e-05
28 *620:RESET_B *180:8 0.000270462
29 *99:10 *157:8 0
30 *99:21 *157:8 0
31 *99:27 *154:10 8.91468e-07
32 *99:37 *587:B 2.70366e-05
33 *99:37 *155:59 9.59809e-05
34 *99:57 *116:27 0
35 *99:57 *156:14 6.79362e-05
36 *99:57 *156:27 5.41288e-05
37 *99:64 *103:8 0
38 *99:64 *182:8 0
39 *99:83 *686:A 1.22803e-05
40 *99:83 *112:14 6.79006e-05
41 *99:83 *119:8 0
42 *99:83 *153:10 1.47563e-05
43 *99:83 *180:8 0.000116314
44 *561:A0 *593:RESET_B 0
45 *621:CLK *99:37 2.4754e-05
46 *621:D *99:37 5.50049e-05
47 *623:D *623:RESET_B 0.000131432
48 *623:D *99:37 0.000180224
49 *10:8 *593:RESET_B 0
50 *37:10 *99:37 4.08641e-05
51 *60:29 *622:RESET_B 2.33744e-05
52 *60:29 *99:27 1.8561e-06
53 *60:29 *99:37 9.77922e-06
54 *89:18 *99:10 4.93341e-05
55 *90:22 *622:RESET_B 0
56 *90:22 *99:37 0.000273604
57 *97:16 *595:RESET_B 0
58 *97:16 *99:10 8.4047e-05
*RES
1 *639:X *99:10 41.3039 
2 *99:10 *595:RESET_B 15.9425 
3 *99:10 *99:21 3.49036 
4 *99:21 *99:27 21.815 
5 *99:27 *99:37 40.295 
6 *99:37 *623:RESET_B 1.50179 
7 *623:RESET_B *593:RESET_B 36.3282 
8 *593:RESET_B *99:57 21.5975 
9 *99:57 *612:RESET_B 15 
10 *99:57 *99:64 1.90571 
11 *99:64 *602:RESET_B 17.9311 
12 *99:64 *619:RESET_B 19.0186 
13 *99:37 *99:83 17.2579 
14 *99:83 *620:RESET_B 18.6664 
15 *99:83 *621:RESET_B 15 
16 *99:27 *622:RESET_B 1.04607 
17 *99:21 *594:RESET_B 15 
*END

*D_NET *100 0.0124287
*CONN
*I *626:RESET_B I *D sky130_fd_sc_hd__dfrtp_1
*I *598:RESET_B I *D sky130_fd_sc_hd__dfrtp_1
*I *625:RESET_B I *D sky130_fd_sc_hd__dfrtp_1
*I *599:RESET_B I *D sky130_fd_sc_hd__dfrtp_1
*I *627:RESET_B I *D sky130_fd_sc_hd__dfrtp_1
*I *624:RESET_B I *D sky130_fd_sc_hd__dfrtp_1
*I *639:A I *D sky130_fd_sc_hd__clkbuf_4
*I *596:RESET_B I *D sky130_fd_sc_hd__dfrtp_1
*I *597:RESET_B I *D sky130_fd_sc_hd__dfrtp_1
*I *640:X O *D sky130_fd_sc_hd__buf_2
*CAP
1 *626:RESET_B 0.000137354
2 *598:RESET_B 0.000423945
3 *625:RESET_B 2.73135e-05
4 *599:RESET_B 0.0002687
5 *627:RESET_B 0.000217328
6 *624:RESET_B 8.73731e-05
7 *639:A 0.000318418
8 *596:RESET_B 4.89445e-05
9 *597:RESET_B 0.000260467
10 *640:X 0.000442076
11 *100:107 0.0005613
12 *100:81 0.000928128
13 *100:58 0.000405791
14 *100:56 0.000611855
15 *100:42 0.000839632
16 *100:24 0.00145003
17 *100:14 0.000874949
18 *100:6 0.000721084
19 *596:RESET_B *114:6 7.80291e-05
20 *597:RESET_B *540:A 0
21 *597:RESET_B *150:39 0
22 *597:RESET_B *178:10 0.000137039
23 *598:RESET_B *566:S 0.000144904
24 *598:RESET_B *110:8 0
25 *598:RESET_B *111:10 4.21594e-06
26 *598:RESET_B *176:14 7.73405e-05
27 *599:RESET_B *105:29 0.00039098
28 *599:RESET_B *130:12 0
29 *599:RESET_B *184:14 5.56203e-05
30 *625:RESET_B *179:42 4.12841e-05
31 *626:RESET_B *566:S 7.03766e-05
32 *626:RESET_B *141:8 0.000116314
33 *626:RESET_B *150:79 3.46954e-05
34 *626:RESET_B *176:14 5.83625e-05
35 *627:RESET_B *184:8 0.000184527
36 *100:6 *640:A 1.59094e-05
37 *100:6 *179:42 1.32914e-05
38 *100:24 *540:A 0
39 *100:24 *564:A1 0.000154395
40 *100:24 *564:S 2.4754e-05
41 *100:24 *150:39 0
42 *100:24 *179:42 0.00017761
43 *100:42 *114:6 0.000227999
44 *100:42 *177:8 5.50049e-05
45 *100:81 *130:12 0
46 *100:81 *131:8 8.62783e-05
47 *545:A2 *598:RESET_B 0
48 *545:B1 *598:RESET_B 0
49 *599:CLK *599:RESET_B 5.89622e-05
50 *599:CLK *100:81 9.79697e-05
51 *625:CLK *625:RESET_B 4.83949e-05
52 *625:CLK *100:6 0.000237073
53 *625:CLK *100:14 0.000186876
54 *15:8 *597:RESET_B 3.70094e-05
55 *15:8 *100:24 0.000114092
56 *39:10 *100:56 1.14452e-05
57 *39:10 *100:81 0.000392602
58 *87:8 *597:RESET_B 5.18019e-05
59 *88:10 *100:14 1.32314e-05
60 *88:10 *100:24 0.000108507
61 *89:10 *100:81 0
62 *89:18 *624:RESET_B 9.98797e-05
63 *89:18 *639:A 0.000130353
64 *89:18 *100:81 0
65 *91:14 *100:56 0
66 *91:35 *100:81 0
67 *91:65 *598:RESET_B 0
68 *96:96 *626:RESET_B 6.6869e-05
*RES
1 *640:X *100:6 29.3386 
2 *100:6 *100:14 4.97143 
3 *100:14 *100:24 26.745 
4 *100:24 *597:RESET_B 20.9968 
5 *100:24 *100:42 25.7921 
6 *100:42 *596:RESET_B 1.99893 
7 *100:42 *100:56 17.175 
8 *100:56 *100:58 15 
9 *100:58 *639:A 27.9507 
10 *100:58 *624:RESET_B 1.97821 
11 *100:56 *100:81 10.4193 
12 *100:81 *627:RESET_B 19.3604 
13 *100:81 *599:RESET_B 21.2661 
14 *100:14 *625:RESET_B 1.02536 
15 *100:6 *100:107 15 
16 *100:107 *598:RESET_B 23.9796 
17 *100:107 *626:RESET_B 19.3707 
*END

*D_NET *101 0.0117549
*CONN
*I *617:RESET_B I *D sky130_fd_sc_hd__dfrtp_1
*I *615:RESET_B I *D sky130_fd_sc_hd__dfrtp_1
*I *611:RESET_B I *D sky130_fd_sc_hd__dfrtp_1
*I *610:RESET_B I *D sky130_fd_sc_hd__dfrtp_1
*I *614:RESET_B I *D sky130_fd_sc_hd__dfrtp_1
*I *618:RESET_B I *D sky130_fd_sc_hd__dfrtp_1
*I *613:RESET_B I *D sky130_fd_sc_hd__dfrtp_1
*I *616:RESET_B I *D sky130_fd_sc_hd__dfrtp_1
*I *606:RESET_B I *D sky130_fd_sc_hd__dfrtp_1
*I *609:RESET_B I *D sky130_fd_sc_hd__dfrtp_1
*I *641:X O *D sky130_fd_sc_hd__clkbuf_4
*CAP
1 *617:RESET_B 0.000172906
2 *615:RESET_B 5.2782e-05
3 *611:RESET_B 1.32187e-05
4 *610:RESET_B 0.000535842
5 *614:RESET_B 0.000153527
6 *618:RESET_B 9.41912e-05
7 *613:RESET_B 0
8 *616:RESET_B 8.88048e-05
9 *606:RESET_B 2.68653e-05
10 *609:RESET_B 0.000220767
11 *641:X 0.0003554
12 *101:103 0.000452928
13 *101:78 0.000974507
14 *101:67 0.000803296
15 *101:59 0.000318514
16 *101:57 0.00101357
17 *101:46 0.000984322
18 *101:36 0.00129581
19 *101:22 0.00115731
20 *101:10 0.000697592
21 *609:RESET_B *573:S 0.000151951
22 *609:RESET_B *162:10 4.96207e-05
23 *610:RESET_B *160:40 0
24 *614:RESET_B *149:100 0
25 *614:RESET_B *149:121 0.000171376
26 *614:RESET_B *161:14 0
27 *617:RESET_B *580:A1 9.18637e-05
28 *617:RESET_B *138:10 0
29 *617:RESET_B *138:40 0
30 *618:RESET_B *148:6 6.17437e-06
31 *101:10 *184:14 0
32 *101:22 *135:21 0.000113153
33 *101:46 *127:49 0
34 *101:57 *138:10 0
35 *101:57 *147:8 4.90891e-05
36 *101:57 *148:10 4.38375e-05
37 *101:57 *149:78 0
38 *101:67 *581:A1 0.00013961
39 *101:67 *148:6 7.59794e-05
40 *101:78 *581:A0 5.56356e-05
41 *101:78 *581:A1 7.87243e-05
42 *101:78 *611:D 3.22051e-05
43 *101:78 *149:121 2.93985e-05
44 *101:103 *138:10 0
45 *101:103 *148:10 6.86023e-06
46 *513:A *101:57 0
47 *534:A2 *101:57 0
48 *606:CLK *616:RESET_B 9.987e-05
49 *606:CLK *101:36 0.0002723
50 *615:D *615:RESET_B 5.03619e-05
51 *3:13 *610:RESET_B 0
52 *3:13 *101:22 0
53 *24:10 *609:RESET_B 0.000182165
54 *27:10 *101:46 0
55 *28:10 *610:RESET_B 3.81391e-05
56 *29:10 *610:RESET_B 9.35856e-05
57 *31:10 *617:RESET_B 0
58 *32:10 *101:103 0.000138718
59 *61:10 *101:57 0
60 *80:10 *101:57 0.00021356
61 *92:56 *101:46 0
62 *96:37 *101:57 0
63 *96:56 *101:57 0
64 *97:29 *101:10 6.28591e-05
65 *97:29 *101:22 4.99753e-06
66 *97:58 *614:RESET_B 9.07395e-05
67 *97:58 *101:103 0
*RES
1 *641:X *101:10 43.6136 
2 *101:10 *609:RESET_B 19.8368 
3 *101:10 *101:22 16.9057 
4 *101:22 *606:RESET_B 0.548929 
5 *101:22 *101:36 14.6243 
6 *101:36 *616:RESET_B 1.97821 
7 *101:36 *101:46 18.6664 
8 *101:46 *613:RESET_B 15 
9 *101:46 *101:57 14.2929 
10 *101:57 *101:59 15 
11 *101:59 *618:RESET_B 1.50179 
12 *101:59 *101:67 4.43286 
13 *101:67 *614:RESET_B 34.0186 
14 *101:67 *101:78 7.29143 
15 *101:78 *610:RESET_B 39.6321 
16 *101:78 *611:RESET_B 0.548929 
17 *101:57 *101:103 4.785 
18 *101:103 *615:RESET_B 16.0254 
19 *101:103 *617:RESET_B 17.9311 
*END

*D_NET *102 0.0141479
*CONN
*I *600:RESET_B I *D sky130_fd_sc_hd__dfrtp_1
*I *601:RESET_B I *D sky130_fd_sc_hd__dfrtp_1
*I *604:RESET_B I *D sky130_fd_sc_hd__dfrtp_1
*I *605:RESET_B I *D sky130_fd_sc_hd__dfrtp_1
*I *607:RESET_B I *D sky130_fd_sc_hd__dfrtp_1
*I *608:RESET_B I *D sky130_fd_sc_hd__dfrtp_1
*I *603:RESET_B I *D sky130_fd_sc_hd__dfrtp_1
*I *642:X O *D sky130_fd_sc_hd__buf_2
*CAP
1 *600:RESET_B 1.956e-05
2 *601:RESET_B 0.00028402
3 *604:RESET_B 0.000836096
4 *605:RESET_B 0.000203057
5 *607:RESET_B 0.000230144
6 *608:RESET_B 0
7 *603:RESET_B 0.000137131
8 *642:X 0.00054654
9 *102:65 0.00145431
10 *102:51 0.00102156
11 *102:40 0.00110469
12 *102:28 0.00086556
13 *102:26 0.00119488
14 *102:16 0.00151831
15 *102:14 0.000605511
16 *601:RESET_B *547:B 0.000137651
17 *601:RESET_B *134:23 5.21024e-05
18 *601:RESET_B *143:10 0.000275473
19 *603:RESET_B *130:12 7.13483e-05
20 *603:RESET_B *156:40 0
21 *603:RESET_B *168:10 2.54046e-05
22 *604:RESET_B *129:8 4.08641e-05
23 *604:RESET_B *169:6 7.88828e-05
24 *604:RESET_B *169:10 0.000327903
25 *605:RESET_B *572:A1 3.70094e-05
26 *605:RESET_B *123:8 8.62876e-05
27 *605:RESET_B *129:35 2.95585e-05
28 *605:RESET_B *150:112 0
29 *607:RESET_B *121:8 7.03869e-05
30 *607:RESET_B *150:112 0
31 *102:26 *546:B 7.88926e-05
32 *102:26 *569:S 0.00013961
33 *102:26 *570:S 9.95152e-05
34 *102:26 *151:8 7.43025e-06
35 *102:26 *151:79 7.15126e-05
36 *102:40 *643:A 0
37 *102:40 *156:40 0
38 *102:40 *163:16 0
39 *102:40 *165:36 8.16356e-05
40 *102:40 *167:12 0
41 *102:40 *168:10 2.22183e-05
42 *102:51 *163:16 0
43 *102:51 *167:12 1.46756e-05
44 *102:65 *656:A 1.18615e-05
45 *102:65 *167:12 1.02949e-05
46 *557:D *102:40 1.11121e-05
47 *603:CLK *603:RESET_B 0.000131432
48 *604:CLK *607:RESET_B 2.56078e-05
49 *608:CLK *102:51 0.000150242
50 *19:8 *601:RESET_B 1.94418e-05
51 *19:8 *102:26 0.000138708
52 *20:10 *601:RESET_B 0.000110922
53 *22:8 *607:RESET_B 3.56537e-05
54 *26:8 *102:40 0
55 *45:10 *603:RESET_B 0.000166522
56 *45:10 *102:40 0.000623805
57 *46:10 *102:26 0.000192195
58 *71:8 *604:RESET_B 2.02872e-05
59 *71:8 *102:65 6.17437e-06
60 *71:14 *605:RESET_B 0.000192087
61 *93:20 *102:40 0
62 *93:47 *601:RESET_B 0.000100533
63 *93:47 *102:26 2.7237e-05
64 *93:71 *102:40 0
65 *93:71 *102:51 0
66 *93:84 *607:RESET_B 5.76076e-05
67 *93:84 *102:51 0
68 *97:82 *604:RESET_B 4.56219e-05
69 *97:82 *102:65 0.000112697
70 *97:93 *604:RESET_B 3.71251e-05
71 *97:93 *102:26 3.3746e-05
72 *97:118 *102:26 0.000117244
*RES
1 *642:X *102:14 31.4514 
2 *102:14 *102:16 0.621429 
3 *102:16 *102:26 48.6221 
4 *102:26 *102:28 15 
5 *102:28 *603:RESET_B 18.7596 
6 *102:28 *102:40 14.5829 
7 *102:40 *608:RESET_B 15 
8 *102:40 *102:51 20.9864 
9 *102:51 *607:RESET_B 34.9196 
10 *102:51 *102:65 5.86214 
11 *102:65 *605:RESET_B 34.3396 
12 *102:65 *604:RESET_B 44.1168 
13 *102:16 *601:RESET_B 37.7575 
14 *102:14 *600:RESET_B 0.548929 
*END

*D_NET *103 0.00112232
*CONN
*I *612:D I *D sky130_fd_sc_hd__dfrtp_1
*I *646:X O *D sky130_fd_sc_hd__dlygate4sd3_1
*CAP
1 *612:D 7.56722e-05
2 *646:X 0.000378682
3 *103:8 0.000454355
4 *612:D *116:21 4.39278e-05
5 *103:8 *104:16 0.000169683
6 *103:8 *181:10 0
7 *619:RESET_B *103:8 0
8 *90:72 *103:8 0
9 *90:74 *103:8 0
10 *99:64 *103:8 0
*RES
1 *646:X *103:8 45.1879 
2 *103:8 *612:D 39.5743 
*END

*D_NET *104 0.00226233
*CONN
*I *560:B I *D sky130_fd_sc_hd__and2b_1
*I *619:D I *D sky130_fd_sc_hd__dfrtp_1
*I *657:X O *D sky130_fd_sc_hd__dlygate4sd3_1
*CAP
1 *560:B 0
2 *619:D 0
3 *657:X 0.00024
4 *104:16 0.000400577
5 *104:8 0.000640578
6 *104:8 *657:A 0.000229146
7 *104:8 *679:A 5.56356e-05
8 *104:16 *560:A_N 4.93238e-05
9 *104:16 *657:A 6.17437e-06
10 *104:16 *181:10 0.000184527
11 *602:RESET_B *104:16 9.96146e-05
12 *11:10 *104:8 0.000187067
13 *90:72 *104:16 0
14 *103:8 *104:16 0.000169683
*RES
1 *657:X *104:8 28.8829 
2 *104:8 *104:16 39.0729 
3 *104:16 *619:D 23 
4 *104:8 *560:B 23 
*END

*D_NET *105 0.00884974
*CONN
*I *642:A I *D sky130_fd_sc_hd__buf_2
*I *641:A I *D sky130_fd_sc_hd__clkbuf_4
*I *640:A I *D sky130_fd_sc_hd__buf_2
*I *688:X O *D sky130_fd_sc_hd__buf_1
*CAP
1 *642:A 0.000302683
2 *641:A 0
3 *640:A 3.45092e-05
4 *688:X 0.00030214
5 *105:29 0.00197168
6 *105:19 0.00275872
7 *105:8 0.000821002
8 *640:A *179:42 2.64616e-05
9 *642:A *591:A1 0
10 *642:A *172:8 0
11 *642:A *173:14 8.16459e-05
12 *105:8 *684:A 0.00031912
13 *105:8 *110:8 0
14 *105:8 *179:21 7.55595e-05
15 *105:8 *179:42 7.70038e-05
16 *105:19 *591:A1 0
17 *105:19 *137:8 0.000299187
18 *105:29 *517:B 0.000102093
19 *105:29 *592:A0 0.000313249
20 *105:29 *150:66 0.000188437
21 *105:29 *150:79 9.49784e-05
22 *105:29 *171:8 1.46708e-05
23 *517:A *105:29 3.53115e-05
24 *599:CLK *105:29 2.32004e-05
25 *599:RESET_B *105:29 0.00039098
26 *671:A *105:29 2.30292e-05
27 *17:10 *105:8 0.00012076
28 *95:133 *105:8 0.000192087
29 *95:133 *105:19 0.00026533
30 *100:6 *640:A 1.59094e-05
*RES
1 *688:X *105:8 46.9486 
2 *105:8 *640:A 38.6214 
3 *105:8 *105:19 11.0614 
4 *105:19 *105:29 45.8229 
5 *105:29 *641:A 23 
6 *105:19 *642:A 44.1314 
*END

*D_NET *106 0.00295813
*CONN
*I *563:A1 I *D sky130_fd_sc_hd__mux2_1
*I *589:A I *D sky130_fd_sc_hd__xor2_1
*I *668:X O *D sky130_fd_sc_hd__dlygate4sd3_1
*CAP
1 *563:A1 0
2 *589:A 0.000223497
3 *668:X 5.57193e-05
4 *106:23 0.000527216
5 *106:8 0.000806433
6 *106:23 *120:10 7.10099e-05
7 *106:23 *149:39 0.00021543
8 *13:10 *106:23 0.000195238
9 *14:10 *106:23 0.000320661
10 *60:37 *589:A 0.000335871
11 *60:37 *106:23 0.000130433
12 *90:14 *106:23 4.84303e-05
13 *90:22 *106:23 3.20523e-06
14 *90:49 *106:23 2.49836e-05
*RES
1 *668:X *106:8 38.6214 
2 *106:8 *589:A 43.2407 
3 *106:8 *106:23 28.1743 
4 *106:23 *563:A1 23 
*END

*D_NET *107 0.000479959
*CONN
*I *560:A_N I *D sky130_fd_sc_hd__and2b_1
*I *679:X O *D sky130_fd_sc_hd__dlygate4sd3_1
*CAP
1 *560:A_N 0.000143067
2 *679:X 0.000143067
3 *560:A_N *657:A 0.000144501
4 *104:16 *560:A_N 4.93238e-05
*RES
1 *679:X *560:A_N 49.0036 
*END

*D_NET *108 0.00139641
*CONN
*I *565:A0 I *D sky130_fd_sc_hd__mux2_1
*I *682:X O *D sky130_fd_sc_hd__dlygate4sd3_1
*CAP
1 *565:A0 0.000132289
2 *682:X 0.000208855
3 *108:8 0.000341145
4 *565:A0 *565:A1 0.000173442
5 *544:A *108:8 2.71291e-05
6 *545:B1 *108:8 0
7 *545:B2 *108:8 0.000130035
8 *545:C1 *108:8 0.000167443
9 *683:A *565:A0 2.93747e-05
10 *97:128 *108:8 0.000186697
*RES
1 *682:X *108:8 44.1314 
2 *108:8 *565:A0 41.48 
*END

*D_NET *109 0.000577786
*CONN
*I *597:D I *D sky130_fd_sc_hd__dfrtp_1
*I *683:X O *D sky130_fd_sc_hd__dlygate4sd3_1
*CAP
1 *597:D 0
2 *683:X 0.000145457
3 *109:10 0.000145457
4 *109:10 *565:A1 8.91468e-07
5 *545:B1 *109:10 0.000141869
6 *545:B2 *109:10 0.00014411
*RES
1 *683:X *109:10 41.0036 
2 *109:10 *597:D 38 
*END

*D_NET *110 0.000937643
*CONN
*I *566:A0 I *D sky130_fd_sc_hd__mux2_1
*I *684:X O *D sky130_fd_sc_hd__dlygate4sd3_1
*CAP
1 *566:A0 0
2 *684:X 0.000378116
3 *110:8 0.000378116
4 *110:8 *684:A 0
5 *110:8 *111:10 0
6 *598:RESET_B *110:8 0
7 *17:10 *110:8 0.000181412
8 *95:133 *110:8 0
9 *105:8 *110:8 0
*RES
1 *684:X *110:8 45.8921 
2 *110:8 *566:A0 38 
*END

*D_NET *111 0.000579606
*CONN
*I *598:D I *D sky130_fd_sc_hd__dfrtp_1
*I *685:X O *D sky130_fd_sc_hd__dlygate4sd3_1
*CAP
1 *598:D 0
2 *685:X 0.000281612
3 *111:10 0.000281612
4 *111:10 *543:B 7.53384e-06
5 *545:B1 *111:10 0
6 *598:RESET_B *111:10 4.21594e-06
7 *97:147 *111:10 4.6318e-06
8 *110:8 *111:10 0
*RES
1 *685:X *111:10 42.0807 
2 *111:10 *598:D 38 
*END

*D_NET *112 0.0023541
*CONN
*I *562:A1 I *D sky130_fd_sc_hd__mux2_1
*I *586:B1 I *D sky130_fd_sc_hd__a21oi_1
*I *686:X O *D sky130_fd_sc_hd__dlygate4sd3_1
*CAP
1 *562:A1 0.000239248
2 *586:B1 0
3 *686:X 0
4 *112:14 0.000514057
5 *112:4 0.000753305
6 *562:A1 *561:S 0.000192031
7 *562:A1 *686:A 9.67842e-05
8 *112:14 *686:A 0
9 *112:14 *119:8 6.43005e-05
10 *112:14 *152:16 7.88828e-05
11 *112:14 *153:10 9.8601e-05
12 *593:RESET_B *112:14 0.000248989
13 *10:8 *112:14 0
14 *99:83 *112:14 6.79006e-05
*RES
1 *686:X *112:4 23 
2 *112:4 *112:14 40.005 
3 *112:14 *586:B1 23 
4 *112:4 *562:A1 28.3857 
*END

*D_NET *113 0.000584027
*CONN
*I *564:A0 I *D sky130_fd_sc_hd__mux2_1
*I *647:X O *D sky130_fd_sc_hd__dlygate4sd3_1
*CAP
1 *564:A0 0
2 *647:X 0.000211949
3 *113:10 0.000211949
4 *113:10 *150:33 0
5 *113:10 *150:39 6.16439e-05
6 *541:A *113:10 0
7 *91:59 *113:10 9.84851e-05
*RES
1 *647:X *113:10 41.3557 
2 *113:10 *564:A0 38 
*END

*D_NET *114 0.000978034
*CONN
*I *596:D I *D sky130_fd_sc_hd__dfrtp_1
*I *648:X O *D sky130_fd_sc_hd__dlygate4sd3_1
*CAP
1 *596:D 0
2 *648:X 0.000336003
3 *114:6 0.000336003
4 *596:RESET_B *114:6 7.80291e-05
5 *100:42 *114:6 0.000227999
*RES
1 *648:X *114:6 31.2443 
2 *114:6 *596:D 23 
*END

*D_NET *115 0.000864928
*CONN
*I *585:A I *D sky130_fd_sc_hd__xor2_1
*I *649:X O *D sky130_fd_sc_hd__dlygate4sd3_1
*CAP
1 *585:A 0
2 *649:X 0.000290507
3 *115:6 0.000290507
4 *115:6 *585:B 0.000228903
5 *115:6 *649:A 5.50106e-05
*RES
1 *649:X *115:6 28.8621 
2 *115:6 *585:A 23 
*END

*D_NET *116 0.00503762
*CONN
*I *563:S I *D sky130_fd_sc_hd__mux2_1
*I *562:S I *D sky130_fd_sc_hd__mux2_1
*I *561:S I *D sky130_fd_sc_hd__mux2_1
*I *602:D I *D sky130_fd_sc_hd__dfrtp_1
*I *689:X O *D sky130_fd_sc_hd__buf_1
*CAP
1 *563:S 0.000367483
2 *562:S 0
3 *561:S 0.00039281
4 *602:D 0
5 *689:X 5.12892e-05
6 *116:27 0.000758161
7 *116:21 0.00161747
8 *116:12 0.000140631
9 *116:6 0.00107656
10 *561:S *561:A1 2.93747e-05
11 *561:S *686:A 9.67842e-05
12 *561:A0 *116:12 5.29344e-05
13 *562:A1 *561:S 0.000192031
14 *612:D *116:21 4.39278e-05
15 *10:8 *116:27 0
16 *14:10 *563:S 0.00018424
17 *90:14 *116:27 0
18 *90:49 *116:27 0
19 *98:19 *116:12 3.39231e-05
20 *99:57 *116:27 0
*RES
1 *689:X *116:6 23.6214 
2 *116:6 *116:12 33.3143 
3 *116:12 *602:D 23 
4 *116:6 *116:21 11.6 
5 *116:21 *116:27 35.4271 
6 *116:27 *561:S 30.3329 
7 *116:27 *562:S 23 
8 *116:21 *563:S 29.3593 
*END

*D_NET *117 0.00228361
*CONN
*I *575:A1 I *D sky130_fd_sc_hd__mux2_1
*I *578:A0 I *D sky130_fd_sc_hd__mux2_1
*I *650:X O *D sky130_fd_sc_hd__dlygate4sd3_1
*CAP
1 *575:A1 0.000177593
2 *578:A0 0.000142904
3 *650:X 0
4 *117:4 0.000320496
5 *575:A1 *538:B 0.000195119
6 *575:A1 *151:35 0.000441972
7 *575:A1 *164:19 0.000113302
8 *578:A0 *578:A1 5.67058e-05
9 *578:A0 *578:S 2.4754e-05
10 *29:10 *578:A0 8.1796e-05
11 *81:6 *578:A0 4.75937e-05
12 *84:10 *575:A1 0.000125213
13 *84:10 *578:A0 0.000253657
14 *85:10 *575:A1 2.02872e-05
15 *95:107 *575:A1 9.67842e-05
16 *95:107 *578:A0 0.000185428
*RES
1 *650:X *117:4 23 
2 *117:4 *578:A0 29.0279 
3 *117:4 *575:A1 30.2914 
*END

*D_NET *118 0.000328574
*CONN
*I *611:D I *D sky130_fd_sc_hd__dfrtp_1
*I *651:X O *D sky130_fd_sc_hd__dlygate4sd3_1
*CAP
1 *611:D 2.79418e-05
2 *651:X 0.000101832
3 *118:8 0.000129774
4 *118:8 *160:12 3.68205e-05
5 *101:78 *611:D 3.22051e-05
*RES
1 *651:X *118:8 39.9057 
2 *118:8 *611:D 38.6214 
*END

*D_NET *119 0.0016395
*CONN
*I *561:A1 I *D sky130_fd_sc_hd__mux2_1
*I *652:X O *D sky130_fd_sc_hd__dlygate4sd3_1
*CAP
1 *561:A1 5.82187e-05
2 *652:X 0.000518868
3 *119:8 0.000577087
4 *119:8 *152:16 0
5 *119:8 *155:32 0.000144894
6 *561:S *561:A1 2.93747e-05
7 *593:RESET_B *119:8 0.000246757
8 *620:RESET_B *119:8 0
9 *36:8 *119:8 0
10 *59:8 *119:8 0
11 *99:83 *119:8 0
12 *112:14 *119:8 6.43005e-05
*RES
1 *652:X *119:8 48.7093 
2 *119:8 *561:A1 39.0979 
*END

*D_NET *120 0.00175173
*CONN
*I *588:A I *D sky130_fd_sc_hd__nor2_1
*I *653:X O *D sky130_fd_sc_hd__dlygate4sd3_1
*CAP
1 *588:A 0.000266759
2 *653:X 0.00028694
3 *120:10 0.000553699
4 *588:B *588:A 5.90675e-06
5 *594:CLK *588:A 9.78729e-06
6 *594:D *588:A 9.64943e-05
7 *60:29 *588:A 0.00020068
8 *60:29 *120:10 1.35764e-05
9 *60:37 *120:10 0.000139647
10 *90:22 *120:10 0.000107232
11 *106:23 *120:10 7.10099e-05
*RES
1 *653:X *120:10 43.1164 
2 *120:10 *588:A 42.3293 
*END

*D_NET *121 0.00182987
*CONN
*I *571:A1 I *D sky130_fd_sc_hd__mux2_1
*I *574:A0 I *D sky130_fd_sc_hd__mux2_1
*I *654:X O *D sky130_fd_sc_hd__dlygate4sd3_1
*CAP
1 *571:A1 0.000215779
2 *574:A0 0.00013878
3 *654:X 0.000180657
4 *121:10 0.000354558
5 *121:8 0.000180657
6 *571:A1 *571:A0 5.67058e-05
7 *571:A1 *571:S 6.17437e-06
8 *571:A1 *574:S 0.00024017
9 *574:A0 *574:A1 5.67058e-05
10 *574:A0 *574:S 7.73389e-05
11 *607:RESET_B *121:8 7.03869e-05
12 *25:10 *574:A0 5.67058e-05
13 *25:10 *121:8 0
14 *93:84 *121:8 0.000195248
*RES
1 *654:X *121:8 42.3707 
2 *121:8 *121:10 15 
3 *121:10 *574:A0 26.0036 
4 *121:10 *571:A1 27.9093 
*END

*D_NET *122 0.000395367
*CONN
*I *607:D I *D sky130_fd_sc_hd__dfrtp_1
*I *655:X O *D sky130_fd_sc_hd__dlygate4sd3_1
*CAP
1 *607:D 0
2 *655:X 0.000197684
3 *122:10 0.000197684
4 *122:10 *665:A 0
5 *25:10 *122:10 0
*RES
1 *655:X *122:10 41.2314 
2 *122:10 *607:D 38 
*END

*D_NET *123 0.00264837
*CONN
*I *575:A0 I *D sky130_fd_sc_hd__mux2_1
*I *572:A1 I *D sky130_fd_sc_hd__mux2_1
*I *656:X O *D sky130_fd_sc_hd__dlygate4sd3_1
*CAP
1 *575:A0 0.000725039
2 *572:A1 0.000108812
3 *656:X 4.425e-05
4 *123:8 0.000878101
5 *572:A1 *150:112 4.41515e-05
6 *575:A0 *538:B 0.000396689
7 *123:8 *150:112 2.26489e-05
8 *605:RESET_B *572:A1 3.70094e-05
9 *605:RESET_B *123:8 8.62876e-05
10 *23:10 *572:A1 7.03766e-05
11 *71:14 *572:A1 0.000122304
12 *93:67 *575:A0 0.000112697
*RES
1 *656:X *123:8 39.2014 
2 *123:8 *572:A1 41.6664 
3 *123:8 *575:A0 48.15 
*END

*D_NET *124 0.00200922
*CONN
*I *576:A1 I *D sky130_fd_sc_hd__mux2_1
*I *579:A0 I *D sky130_fd_sc_hd__mux2_1
*I *658:X O *D sky130_fd_sc_hd__dlygate4sd3_1
*CAP
1 *576:A1 0
2 *579:A0 9.22066e-05
3 *658:X 0
4 *124:19 0.000181663
5 *124:4 0.00027387
6 *579:A0 *579:A1 5.67058e-05
7 *579:A0 *149:63 0.000218329
8 *579:A0 *149:65 4.95081e-05
9 *124:19 *552:B 4.21048e-05
10 *124:19 *149:63 0.000149079
11 *124:19 *159:10 5.84705e-05
12 *124:19 *159:14 5.56356e-05
13 *98:30 *579:A0 0.000532323
14 *98:30 *124:19 0.000299328
*RES
1 *658:X *124:4 23 
2 *124:4 *579:A0 28.8621 
3 *124:4 *124:19 35.3857 
4 *124:19 *576:A1 23 
*END

*D_NET *125 0.000673842
*CONN
*I *613:D I *D sky130_fd_sc_hd__dfrtp_1
*I *659:X O *D sky130_fd_sc_hd__dlygate4sd3_1
*CAP
1 *613:D 4.01985e-05
2 *659:X 0.000198087
3 *125:8 0.000238286
4 *125:8 *149:78 0
5 *532:B *125:8 7.31082e-05
6 *30:8 *125:8 8.85189e-05
7 *98:19 *125:8 3.56433e-05
*RES
1 *659:X *125:8 42.3707 
2 *125:8 *613:D 38.6214 
*END

*D_NET *126 0.00242951
*CONN
*I *570:A0 I *D sky130_fd_sc_hd__mux2_1
*I *567:A1 I *D sky130_fd_sc_hd__mux2_1
*I *660:X O *D sky130_fd_sc_hd__dlygate4sd3_1
*CAP
1 *570:A0 0.000170443
2 *567:A1 0
3 *660:X 0
4 *126:12 0.000565149
5 *126:4 0.000735592
6 *570:A0 *570:S 7.43769e-05
7 *570:A0 *165:23 5.67058e-05
8 *570:A0 *165:36 3.4002e-05
9 *126:12 *130:25 0.000313255
10 *18:10 *126:12 1.3109e-05
11 *45:10 *126:12 0.000141397
12 *89:8 *126:12 2.72257e-05
13 *89:34 *126:12 0.000298257
*RES
1 *660:X *126:4 23 
2 *126:4 *126:12 40.3571 
3 *126:12 *567:A1 23 
4 *126:4 *570:A0 27.0186 
*END

*D_NET *127 0.00470077
*CONN
*I *680:A I *D sky130_fd_sc_hd__dlygate4sd3_1
*I *532:A I *D sky130_fd_sc_hd__xor2_1
*I *579:A1 I *D sky130_fd_sc_hd__mux2_1
*I *690:A I *D sky130_fd_sc_hd__buf_2
*I *616:Q O *D sky130_fd_sc_hd__dfrtp_1
*CAP
1 *680:A 0
2 *532:A 0.000126222
3 *579:A1 0.000173859
4 *690:A 3.80122e-05
5 *616:Q 0.000251129
6 *127:49 0.00034687
7 *127:23 0.000372382
8 *127:12 0.000418546
9 *127:6 0.000906232
10 *579:A1 *582:S 0.000271476
11 *579:A1 *149:65 4.34745e-05
12 *127:12 *146:10 0.000164282
13 *127:23 *146:10 0.000141888
14 *127:49 *146:10 3.71369e-05
15 *532:B *532:A 0.000114656
16 *532:B *127:23 2.70366e-05
17 *579:A0 *579:A1 5.67058e-05
18 *606:CLK *127:6 0.000128401
19 *613:CLK *690:A 5.3304e-05
20 *33:10 *127:12 0.000166513
21 *33:10 *127:23 0.000129504
22 *79:10 *532:A 0
23 *92:37 *532:A 0
24 *92:37 *127:23 0
25 *92:48 *127:6 6.9805e-05
26 *92:48 *127:12 0.000168975
27 *92:56 *127:49 0.000303691
28 *98:19 *127:49 0
29 *98:30 *579:A1 0.000190672
30 *101:46 *127:49 0
*RES
1 *616:Q *127:6 26.9564 
2 *127:6 *127:12 20.7379 
3 *127:12 *690:A 38.6214 
4 *127:12 *127:23 2.61 
5 *127:23 *579:A1 43.3857 
6 *127:23 *532:A 41.3143 
7 *127:6 *127:49 37.975 
8 *127:49 *680:A 23 
*END

*D_NET *128 0.00132735
*CONN
*I *603:D I *D sky130_fd_sc_hd__dfrtp_1
*I *661:X O *D sky130_fd_sc_hd__dlygate4sd3_1
*CAP
1 *603:D 4.1307e-05
2 *661:X 0.000176379
3 *128:10 0.000217686
4 *128:10 *643:A 5.3304e-05
5 *128:10 *184:14 0.000404986
6 *603:CLK *603:D 2.64616e-05
7 *3:13 *128:10 0.000407227
*RES
1 *661:X *128:10 44.0486 
2 *128:10 *603:D 38.6214 
*END

*D_NET *129 0.00456036
*CONN
*I *568:A1 I *D sky130_fd_sc_hd__mux2_1
*I *571:A0 I *D sky130_fd_sc_hd__mux2_1
*I *662:X O *D sky130_fd_sc_hd__dlygate4sd3_1
*CAP
1 *568:A1 0
2 *571:A0 0.000217861
3 *662:X 7.43548e-05
4 *129:35 0.000818862
5 *129:12 0.00145709
6 *129:8 0.00049472
7 *571:A0 *571:S 1.5769e-05
8 *129:35 *524:B 0.000174311
9 *129:35 *569:S 3.22879e-05
10 *129:35 *150:112 0
11 *129:35 *157:56 0.000160191
12 *571:A1 *571:A0 5.67058e-05
13 *604:RESET_B *129:8 4.08641e-05
14 *605:RESET_B *129:35 2.95585e-05
15 *22:8 *129:35 0
16 *46:10 *129:35 0
17 *47:10 *129:35 0.000166522
18 *68:10 *129:35 0
19 *71:14 *129:35 0.00059485
20 *96:113 *129:35 0.000116314
21 *97:93 *129:35 0.000110096
*RES
1 *662:X *129:8 39.2014 
2 *129:8 *129:12 20.3857 
3 *129:12 *571:A0 26.0036 
4 *129:12 *129:35 49.5543 
5 *129:35 *568:A1 23 
*END

*D_NET *130 0.00306592
*CONN
*I *567:A0 I *D sky130_fd_sc_hd__mux2_1
*I *590:A1 I *D sky130_fd_sc_hd__mux2_1
*I *663:X O *D sky130_fd_sc_hd__dlygate4sd3_1
*CAP
1 *567:A0 0
2 *590:A1 0
3 *663:X 0
4 *130:25 0.000195528
5 *130:12 0.00065265
6 *130:4 0.000848178
7 *130:12 *184:14 0
8 *599:RESET_B *130:12 0
9 *603:CLK *130:12 5.80021e-05
10 *603:RESET_B *130:12 7.13483e-05
11 *18:10 *130:12 7.03663e-05
12 *18:10 *130:25 4.39278e-05
13 *45:10 *130:25 3.21223e-05
14 *89:10 *130:12 0.000594525
15 *89:34 *130:12 0.000186015
16 *100:81 *130:12 0
17 *126:12 *130:25 0.000313255
*RES
1 *663:X *130:4 23 
2 *130:4 *130:12 43.8371 
3 *130:12 *590:A1 23 
4 *130:4 *130:25 35.0336 
5 *130:25 *567:A0 23 
*END

*D_NET *131 0.00053983
*CONN
*I *590:A0 I *D sky130_fd_sc_hd__mux2_1
*I *664:X O *D sky130_fd_sc_hd__dlygate4sd3_1
*CAP
1 *590:A0 9.63036e-05
2 *664:X 5.94923e-05
3 *131:8 0.000155796
4 *633:A *590:A0 0.00014196
5 *89:10 *131:8 0
6 *100:81 *131:8 8.62783e-05
*RES
1 *664:X *131:8 39.2014 
2 *131:8 *590:A0 39.5743 
*END

*D_NET *132 0.000561503
*CONN
*I *577:A0 I *D sky130_fd_sc_hd__mux2_1
*I *665:X O *D sky130_fd_sc_hd__dlygate4sd3_1
*CAP
1 *577:A0 4.2104e-05
2 *665:X 0.000179831
3 *132:8 0.000221935
4 *577:A0 *577:A1 1.73399e-05
5 *132:8 *665:A 7.4878e-05
6 *132:8 *163:8 2.5415e-05
7 *28:10 *132:8 0
*RES
1 *665:X *132:8 42.0186 
2 *132:8 *577:A0 38.6214 
*END

*D_NET *133 0.00029735
*CONN
*I *610:D I *D sky130_fd_sc_hd__dfrtp_1
*I *666:X O *D sky130_fd_sc_hd__dlygate4sd3_1
*CAP
1 *610:D 3.78039e-05
2 *666:X 9.15093e-05
3 *133:8 0.000129313
4 *133:8 *160:40 3.87236e-05
5 *28:10 *133:8 0
*RES
1 *666:X *133:8 39.9057 
2 *133:8 *610:D 38.6214 
*END

*D_NET *134 0.00256079
*CONN
*I *569:A1 I *D sky130_fd_sc_hd__mux2_1
*I *572:A0 I *D sky130_fd_sc_hd__mux2_1
*I *667:X O *D sky130_fd_sc_hd__dlygate4sd3_1
*CAP
1 *569:A1 0
2 *572:A0 0.000161505
3 *667:X 0
4 *134:23 0.000561077
5 *134:4 0.000722583
6 *572:A0 *572:S 5.70419e-05
7 *134:23 *547:B 0.000333296
8 *134:23 *550:B 0
9 *134:23 *569:A0 3.22879e-05
10 *134:23 *667:A 0.00014196
11 *134:23 *169:10 0.000130433
12 *134:23 *170:12 0
13 *601:RESET_B *134:23 5.21024e-05
14 *51:18 *572:A0 0.000315195
15 *51:18 *134:23 5.3304e-05
16 *97:93 *134:23 0
*RES
1 *667:X *134:4 23 
2 *134:4 *572:A0 27.4536 
3 *134:4 *134:23 41.7657 
4 *134:23 *569:A1 23 
*END

*D_NET *135 0.00209513
*CONN
*I *573:A1 I *D sky130_fd_sc_hd__mux2_1
*I *576:A0 I *D sky130_fd_sc_hd__mux2_1
*I *669:X O *D sky130_fd_sc_hd__dlygate4sd3_1
*CAP
1 *573:A1 0
2 *576:A0 0.000175341
3 *669:X 0
4 *135:21 0.000435144
5 *135:4 0.000610485
6 *576:A0 *576:S 5.67058e-05
7 *576:A0 *149:14 4.17736e-05
8 *135:21 *140:10 0.000352473
9 *135:21 *149:14 0.000229804
10 *135:21 *165:8 3.56537e-05
11 *3:13 *135:21 0
12 *96:37 *576:A0 3.3349e-05
13 *97:29 *135:21 1.12487e-05
14 *101:22 *135:21 0.000113153
*RES
1 *669:X *135:4 23 
2 *135:4 *576:A0 26.3764 
3 *135:4 *135:21 39.28 
4 *135:21 *573:A1 23 
*END

*D_NET *136 0.000915806
*CONN
*I *592:A0 I *D sky130_fd_sc_hd__mux2_1
*I *670:X O *D sky130_fd_sc_hd__dlygate4sd3_1
*CAP
1 *592:A0 0.000215304
2 *670:X 6.55472e-05
3 *136:8 0.000280851
4 *136:8 *591:A1 4.08537e-05
5 *136:8 *150:79 0
6 *105:29 *592:A0 0.000313249
*RES
1 *670:X *136:8 39.2014 
2 *136:8 *592:A0 41.48 
*END

*D_NET *137 0.000912179
*CONN
*I *626:D I *D sky130_fd_sc_hd__dfrtp_1
*I *671:X O *D sky130_fd_sc_hd__dlygate4sd3_1
*CAP
1 *626:D 9.69705e-05
2 *671:X 0.000123672
3 *137:8 0.000220643
4 *137:8 *591:A1 9.67823e-05
5 *626:CLK *626:D 7.49233e-05
6 *105:19 *137:8 0.000299187
*RES
1 *671:X *137:8 42.0186 
2 *137:8 *626:D 39.4811 
*END

*D_NET *138 0.00725345
*CONN
*I *580:A1 I *D sky130_fd_sc_hd__mux2_1
*I *691:A I *D sky130_fd_sc_hd__buf_2
*I *583:A0 I *D sky130_fd_sc_hd__mux2_1
*I *534:A1 I *D sky130_fd_sc_hd__o221a_1
*I *533:A1 I *D sky130_fd_sc_hd__a221oi_1
*I *617:Q O *D sky130_fd_sc_hd__dfrtp_1
*CAP
1 *580:A1 0.000572908
2 *691:A 0
3 *583:A0 0
4 *534:A1 0.000475057
5 *533:A1 0.000219519
6 *617:Q 0.000303595
7 *138:53 0.000468755
8 *138:40 0.000996582
9 *138:10 0.00109452
10 *138:8 0.00092777
11 *138:6 0.000876503
12 *533:A1 *147:8 7.75329e-06
13 *533:A1 *149:78 0.000218023
14 *534:A1 *692:A 0.000398503
15 *580:A1 *580:A0 5.56356e-05
16 *138:40 *583:S 0
17 *138:53 *583:S 5.41288e-05
18 *617:CLK *580:A1 0.000206164
19 *617:RESET_B *580:A1 9.18637e-05
20 *617:RESET_B *138:10 0
21 *617:RESET_B *138:40 0
22 *31:10 *580:A1 0.000139357
23 *34:10 *138:40 5.50049e-05
24 *35:10 *138:10 0
25 *62:12 *533:A1 5.61207e-05
26 *96:56 *534:A1 3.56917e-05
27 *101:57 *138:10 0
28 *101:103 *138:10 0
*RES
1 *617:Q *138:6 26.9564 
2 *138:6 *138:8 15 
3 *138:8 *138:10 6.83571 
4 *138:10 *533:A1 42.0186 
5 *138:10 *534:A1 45.1879 
6 *138:8 *138:40 24.6943 
7 *138:40 *583:A0 23 
8 *138:40 *138:53 37.9957 
9 *138:53 *691:A 23 
10 *138:6 *580:A1 33.005 
*END

*D_NET *139 0.000437965
*CONN
*I *569:A0 I *D sky130_fd_sc_hd__mux2_1
*I *672:X O *D sky130_fd_sc_hd__dlygate4sd3_1
*CAP
1 *569:A0 0.000152748
2 *672:X 0.000152748
3 *569:A0 *569:S 0.00010018
4 *134:23 *569:A0 3.22879e-05
*RES
1 *672:X *569:A0 49.48 
*END

*D_NET *140 0.000948092
*CONN
*I *573:A0 I *D sky130_fd_sc_hd__mux2_1
*I *673:X O *D sky130_fd_sc_hd__dlygate4sd3_1
*CAP
1 *573:A0 0
2 *673:X 0.000148225
3 *140:10 0.000148225
4 *97:29 *140:10 0.000299169
5 *135:21 *140:10 0.000352473
*RES
1 *673:X *140:10 42.64 
2 *140:10 *573:A0 38 
*END

*D_NET *141 0.00134863
*CONN
*I *591:A0 I *D sky130_fd_sc_hd__mux2_1
*I *674:X O *D sky130_fd_sc_hd__dlygate4sd3_1
*CAP
1 *591:A0 0.000184264
2 *674:X 0.000146563
3 *141:8 0.000330827
4 *141:8 *150:79 0.000299187
5 *141:8 *176:14 0
6 *141:8 *176:23 0
7 *626:RESET_B *141:8 0.000116314
8 *95:133 *591:A0 0.000271476
*RES
1 *674:X *141:8 42.0186 
2 *141:8 *591:A0 41.0036 
*END

*D_NET *142 0.000871102
*CONN
*I *625:D I *D sky130_fd_sc_hd__dfrtp_1
*I *675:X O *D sky130_fd_sc_hd__dlygate4sd3_1
*CAP
1 *625:D 0
2 *675:X 0.000301117
3 *142:10 0.000301117
4 *142:10 *176:14 0.000268868
5 *40:8 *142:10 0
6 *95:133 *142:10 0
*RES
1 *675:X *142:10 42.5571 
2 *142:10 *625:D 38 
*END

*D_NET *143 0.00227414
*CONN
*I *568:A0 I *D sky130_fd_sc_hd__mux2_1
*I *676:X O *D sky130_fd_sc_hd__dlygate4sd3_1
*CAP
1 *568:A0 0.000169961
2 *676:X 0.000475229
3 *143:10 0.00064519
4 *568:A0 *569:S 0.000351513
5 *143:10 *173:14 0.000228909
6 *143:10 *173:16 9.84794e-05
7 *601:RESET_B *143:10 0.000275473
8 *20:10 *568:A0 2.93845e-05
9 *97:118 *143:10 0
*RES
1 *676:X *143:10 46.555 
2 *143:10 *568:A0 41.9564 
*END

*D_NET *144 0.000303471
*CONN
*I *581:A0 I *D sky130_fd_sc_hd__mux2_1
*I *677:X O *D sky130_fd_sc_hd__dlygate4sd3_1
*CAP
1 *581:A0 4.33954e-05
2 *677:X 8.05223e-05
3 *144:8 0.000123918
4 *97:58 *144:8 0
5 *101:78 *581:A0 5.56356e-05
*RES
1 *677:X *144:8 39.2014 
2 *144:8 *581:A0 38.6214 
*END

*D_NET *145 0.000827952
*CONN
*I *580:A0 I *D sky130_fd_sc_hd__mux2_1
*I *678:X O *D sky130_fd_sc_hd__dlygate4sd3_1
*CAP
1 *580:A0 9.86262e-05
2 *678:X 0.000154623
3 *145:8 0.00025325
4 *145:8 *160:40 0
5 *580:A1 *580:A0 5.56356e-05
6 *617:CLK *580:A0 0.000231039
7 *92:102 *145:8 3.47781e-05
*RES
1 *678:X *145:8 40.61 
2 *145:8 *580:A0 40.5271 
*END

*D_NET *146 0.00192549
*CONN
*I *582:A0 I *D sky130_fd_sc_hd__mux2_1
*I *680:X O *D sky130_fd_sc_hd__dlygate4sd3_1
*CAP
1 *582:A0 0
2 *680:X 0.000508863
3 *146:10 0.000508863
4 *33:10 *146:10 5.55278e-05
5 *98:19 *146:10 0.000508926
6 *127:12 *146:10 0.000164282
7 *127:23 *146:10 0.000141888
8 *127:49 *146:10 3.71369e-05
*RES
1 *680:X *146:10 48.7921 
2 *146:10 *582:A0 38 
*END

*D_NET *147 0.000793783
*CONN
*I *584:A0 I *D sky130_fd_sc_hd__mux2_1
*I *681:X O *D sky130_fd_sc_hd__dlygate4sd3_1
*CAP
1 *584:A0 6.79226e-05
2 *681:X 9.82944e-05
3 *147:8 0.000166217
4 *584:A0 *692:A 0.0002263
5 *147:8 *149:78 6.58373e-05
6 *533:A1 *147:8 7.75329e-06
7 *584:A1 *584:A0 9.4713e-05
8 *62:12 *584:A0 1.76557e-05
9 *101:57 *147:8 4.90891e-05
*RES
1 *681:X *147:8 40.2579 
2 *147:8 *584:A0 40.5271 
*END

*D_NET *148 0.00460974
*CONN
*I *581:A1 I *D sky130_fd_sc_hd__mux2_1
*I *692:A I *D sky130_fd_sc_hd__buf_2
*I *534:B1 I *D sky130_fd_sc_hd__o221a_1
*I *681:A I *D sky130_fd_sc_hd__dlygate4sd3_1
*I *533:B1 I *D sky130_fd_sc_hd__a221oi_1
*I *618:Q O *D sky130_fd_sc_hd__dfrtp_1
*CAP
1 *581:A1 0.00015126
2 *692:A 0.000357902
3 *534:B1 0
4 *681:A 4.28254e-05
5 *533:B1 0.000285104
6 *618:Q 4.57208e-05
7 *148:38 0.000357902
8 *148:18 0.000507864
9 *148:10 0.000337811
10 *148:6 0.000354858
11 *581:A1 *149:121 5.79559e-05
12 *533:A2 *533:B1 3.041e-05
13 *533:A2 *681:A 3.22879e-05
14 *534:A1 *692:A 0.000398503
15 *534:A2 *148:18 3.26676e-05
16 *584:A0 *692:A 0.0002263
17 *584:A1 *692:A 0.000108875
18 *618:RESET_B *148:6 6.17437e-06
19 *32:10 *581:A1 9.91895e-05
20 *32:10 *148:6 7.88828e-05
21 *35:10 *692:A 0.000187129
22 *62:12 *692:A 9.8971e-06
23 *62:25 *148:18 6.16531e-05
24 *80:10 *533:B1 0.000226295
25 *80:10 *148:18 0.000144899
26 *96:56 *692:A 4.60646e-05
27 *97:58 *148:10 6.60558e-05
28 *97:58 *148:18 1.02387e-05
29 *101:57 *148:10 4.38375e-05
30 *101:67 *581:A1 0.00013961
31 *101:67 *148:6 7.59794e-05
32 *101:78 *581:A1 7.87243e-05
33 *101:103 *148:10 6.86023e-06
*RES
1 *618:Q *148:6 24.5743 
2 *148:6 *148:10 17.9621 
3 *148:10 *148:18 18.3764 
4 *148:18 *533:B1 28.2821 
5 *148:18 *681:A 24.1186 
6 *148:10 *148:38 15 
7 *148:38 *534:B1 23 
8 *148:38 *692:A 33.1914 
9 *148:6 *581:A1 27.4329 
*END

*D_NET *149 0.0148907
*CONN
*I *578:S I *D sky130_fd_sc_hd__mux2_1
*I *583:S I *D sky130_fd_sc_hd__mux2_1
*I *580:S I *D sky130_fd_sc_hd__mux2_1
*I *581:S I *D sky130_fd_sc_hd__mux2_1
*I *579:S I *D sky130_fd_sc_hd__mux2_1
*I *584:S I *D sky130_fd_sc_hd__mux2_1
*I *582:S I *D sky130_fd_sc_hd__mux2_1
*I *573:S I *D sky130_fd_sc_hd__mux2_1
*I *559:A I *D sky130_fd_sc_hd__inv_2
*I *576:S I *D sky130_fd_sc_hd__mux2_1
*I *643:X O *D sky130_fd_sc_hd__clkbuf_4
*CAP
1 *578:S 4.73435e-05
2 *583:S 0.000224796
3 *580:S 4.64393e-05
4 *581:S 0
5 *579:S 0
6 *584:S 0
7 *582:S 0.000119056
8 *573:S 0.000313546
9 *559:A 0
10 *576:S 1.56637e-05
11 *643:X 0.000183304
12 *149:121 0.000722357
13 *149:100 0.000749381
14 *149:92 0.000822396
15 *149:78 0.000427221
16 *149:65 0.00060565
17 *149:63 0.000587214
18 *149:39 0.00103371
19 *149:29 0.00173524
20 *149:23 0.000915819
21 *149:14 0.000188524
22 *149:8 0.000832957
23 *573:S *162:10 9.82009e-05
24 *578:S *578:A1 9.84851e-05
25 *149:14 *536:B 0.000182252
26 *149:14 *162:10 1.00084e-05
27 *149:39 *156:27 0.000357693
28 *149:39 *183:10 0.0001366
29 *149:63 *552:B 0.000187968
30 *149:63 *159:14 5.56356e-05
31 *149:92 *536:B 6.07397e-05
32 *149:92 *157:23 5.92365e-05
33 *149:100 *555:B 1.6891e-05
34 *149:100 *578:A1 0.000312772
35 *149:100 *161:14 0.000112501
36 *149:121 *161:12 0
37 *533:A1 *149:78 0.000218023
38 *576:A0 *576:S 5.67058e-05
39 *576:A0 *149:14 4.17736e-05
40 *578:A0 *578:S 2.4754e-05
41 *579:A0 *149:63 0.000218329
42 *579:A0 *149:65 4.95081e-05
43 *579:A1 *582:S 0.000271476
44 *579:A1 *149:65 4.34745e-05
45 *581:A1 *149:121 5.79559e-05
46 *609:RESET_B *573:S 0.000151951
47 *614:RESET_B *149:100 0
48 *614:RESET_B *149:121 0.000171376
49 *617:CLK *580:S 0.000100069
50 *11:10 *149:39 0.000138718
51 *24:10 *573:S 1.06875e-05
52 *24:10 *149:29 2.59423e-05
53 *30:8 *149:78 0
54 *52:10 *149:63 5.40876e-05
55 *79:10 *149:78 0
56 *81:6 *578:S 0.000129522
57 *81:6 *149:100 0.00039978
58 *90:49 *149:39 0.000105226
59 *96:16 *149:39 0.000114083
60 *96:31 *149:14 8.7816e-05
61 *96:31 *149:63 0
62 *96:37 *576:S 1.94693e-05
63 *96:37 *149:14 7.58436e-05
64 *97:29 *149:92 1.28008e-05
65 *97:58 *583:S 0
66 *97:58 *149:100 0
67 *97:58 *149:121 0
68 *98:37 *149:8 9.41704e-05
69 *98:48 *149:8 0.000213863
70 *101:57 *149:78 0
71 *101:78 *149:121 2.93985e-05
72 *106:23 *149:39 0.00021543
73 *124:19 *149:63 0.000149079
74 *125:8 *149:78 0
75 *135:21 *149:14 0.000229804
76 *138:40 *583:S 0
77 *138:53 *583:S 5.41288e-05
78 *147:8 *149:78 6.58373e-05
*RES
1 *643:X *149:8 41.48 
2 *149:8 *149:14 20.6136 
3 *149:14 *576:S 23.6214 
4 *149:14 *149:23 15 
5 *149:23 *149:29 6.89786 
6 *149:29 *149:39 36.9364 
7 *149:39 *559:A 23 
8 *149:29 *573:S 44.0279 
9 *149:23 *149:63 27.5114 
10 *149:63 *149:65 1.57429 
11 *149:65 *582:S 26.0036 
12 *149:65 *149:78 38.2443 
13 *149:78 *584:S 23 
14 *149:63 *579:S 23 
15 *149:8 *149:92 23.5964 
16 *149:92 *149:100 38.0993 
17 *149:100 *581:S 23 
18 *149:100 *149:121 24.0314 
19 *149:121 *580:S 39.0979 
20 *149:121 *583:S 42.6193 
21 *149:92 *578:S 25.0714 
*END

*D_NET *150 0.0158173
*CONN
*I *571:S I *D sky130_fd_sc_hd__mux2_1
*I *574:S I *D sky130_fd_sc_hd__mux2_1
*I *567:S I *D sky130_fd_sc_hd__mux2_1
*I *591:S I *D sky130_fd_sc_hd__mux2_1
*I *566:S I *D sky130_fd_sc_hd__mux2_1
*I *592:S I *D sky130_fd_sc_hd__mux2_1
*I *590:S I *D sky130_fd_sc_hd__mux2_1
*I *564:S I *D sky130_fd_sc_hd__mux2_1
*I *565:S I *D sky130_fd_sc_hd__mux2_1
*I *570:S I *D sky130_fd_sc_hd__mux2_1
*I *644:X O *D sky130_fd_sc_hd__clkbuf_4
*CAP
1 *571:S 2.75817e-05
2 *574:S 0.000271498
3 *567:S 0
4 *591:S 0.00014354
5 *566:S 0.000278551
6 *592:S 2.34823e-05
7 *590:S 0.000328122
8 *564:S 0.000104928
9 *565:S 0
10 *570:S 0.000397612
11 *644:X 0
12 *150:112 0.000941445
13 *150:79 0.00102525
14 *150:66 0.00115951
15 *150:39 0.000173309
16 *150:33 0.000703113
17 *150:27 0.0010716
18 *150:25 0.00093785
19 *150:23 0.000307103
20 *150:6 0.000680713
21 *150:4 0.000704745
22 *564:S *564:A1 8.34394e-05
23 *566:S *176:14 0.000119313
24 *570:S *546:B 7.88926e-05
25 *570:S *151:14 5.50049e-05
26 *570:S *165:23 5.90675e-06
27 *570:S *165:36 0.00030974
28 *150:6 *151:8 0.000166987
29 *150:6 *151:14 5.50106e-05
30 *150:23 *663:A 0.000158229
31 *150:23 *156:40 0
32 *150:23 *171:21 6.70363e-05
33 *150:25 *517:B 3.47781e-05
34 *150:25 *156:40 0
35 *150:25 *171:21 0.000131735
36 *150:27 *517:B 6.48049e-05
37 *150:27 *156:40 0
38 *150:33 *540:A 0
39 *150:33 *564:A1 0.000185428
40 *150:33 *156:40 0
41 *150:39 *540:A 0
42 *150:66 *517:B 6.9805e-05
43 *150:66 *171:8 5.3304e-05
44 *150:79 *591:A1 0
45 *150:79 *173:42 0
46 *150:79 *176:23 0
47 *517:A *150:66 0.00014196
48 *519:A *150:23 2.84912e-05
49 *541:A *150:39 0
50 *570:A0 *570:S 7.43769e-05
51 *571:A0 *571:S 1.5769e-05
52 *571:A1 *571:S 6.17437e-06
53 *571:A1 *574:S 0.00024017
54 *572:A1 *150:112 4.41515e-05
55 *574:A0 *574:S 7.73389e-05
56 *597:RESET_B *150:39 0
57 *598:RESET_B *566:S 0.000144904
58 *605:RESET_B *150:112 0
59 *607:RESET_B *150:112 0
60 *626:RESET_B *566:S 7.03766e-05
61 *626:RESET_B *150:79 3.46954e-05
62 *675:A *566:S 5.50106e-05
63 *15:8 *150:39 4.83778e-05
64 *23:10 *150:112 0.000141879
65 *40:8 *566:S 0.000342134
66 *42:8 *566:S 0.00031495
67 *46:10 *570:S 5.50049e-05
68 *46:10 *150:6 0.000211266
69 *46:10 *150:112 3.97399e-05
70 *58:12 *150:112 0.000346225
71 *64:12 *150:66 5.67058e-05
72 *69:10 *150:112 3.72639e-05
73 *71:14 *150:112 0
74 *76:10 *150:27 5.01247e-05
75 *76:10 *150:33 1.19692e-05
76 *77:14 *150:27 0
77 *77:14 *150:33 0
78 *93:12 *150:112 0.000137788
79 *93:20 *150:23 0.000108672
80 *93:63 *150:112 0.000430913
81 *95:71 *150:23 8.67978e-05
82 *95:71 *150:112 4.99753e-06
83 *95:133 *566:S 0
84 *95:133 *591:S 0.000177909
85 *95:133 *150:79 0
86 *96:88 *590:S 0.000338468
87 *97:82 *150:112 6.78463e-05
88 *97:128 *150:39 0
89 *98:61 *150:112 0.000164291
90 *98:69 *150:27 0
91 *100:24 *564:S 2.4754e-05
92 *100:24 *150:39 0
93 *102:26 *570:S 9.95152e-05
94 *105:29 *150:66 0.000188437
95 *105:29 *150:79 9.49784e-05
96 *113:10 *150:33 0
97 *113:10 *150:39 6.16439e-05
98 *123:8 *150:112 2.26489e-05
99 *129:35 *150:112 0
100 *136:8 *150:79 0
101 *141:8 *150:79 0.000299187
*RES
1 *644:X *150:4 23 
2 *150:4 *150:6 2.52714 
3 *150:6 *570:S 32.7357 
4 *150:6 *150:23 21.1314 
5 *150:23 *150:25 2.25786 
6 *150:25 *150:27 6.13143 
7 *150:27 *150:33 22.4779 
8 *150:33 *150:39 33.6664 
9 *150:39 *565:S 23 
10 *150:33 *564:S 25.0714 
11 *150:27 *590:S 45.2914 
12 *150:25 *150:66 25.6264 
13 *150:66 *592:S 23.4971 
14 *150:66 *150:79 27.3043 
15 *150:79 *566:S 47.2593 
16 *150:79 *591:S 41.48 
17 *150:23 *567:S 38 
18 *150:4 *150:112 46.6957 
19 *150:112 *574:S 29.3386 
20 *150:112 *571:S 23.6214 
*END

*D_NET *151 0.00993056
*CONN
*I *569:S I *D sky130_fd_sc_hd__mux2_1
*I *568:S I *D sky130_fd_sc_hd__mux2_1
*I *644:A I *D sky130_fd_sc_hd__clkbuf_4
*I *575:S I *D sky130_fd_sc_hd__mux2_1
*I *577:S I *D sky130_fd_sc_hd__mux2_1
*I *643:A I *D sky130_fd_sc_hd__clkbuf_4
*I *572:S I *D sky130_fd_sc_hd__mux2_1
*I *645:X O *D sky130_fd_sc_hd__buf_2
*CAP
1 *569:S 0.000268931
2 *568:S 0
3 *644:A 0
4 *575:S 2.34823e-05
5 *577:S 0.000301438
6 *643:A 0.000589865
7 *572:S 0.000191245
8 *645:X 2.34823e-05
9 *151:79 0.000393689
10 *151:35 0.000986508
11 *151:31 0.000322402
12 *151:14 0.000843793
13 *151:8 0.000652054
14 *151:6 0.000351461
15 *577:S *574:A1 3.7122e-06
16 *577:S *577:A1 5.15762e-05
17 *577:S *163:16 0.000404977
18 *577:S *164:8 0
19 *643:A *163:16 0.000133316
20 *643:A *184:14 8.14613e-05
21 *151:31 *538:B 8.2832e-05
22 *151:35 *538:B 1.5769e-05
23 *557:D *643:A 0
24 *568:A0 *569:S 0.000351513
25 *569:A0 *569:S 0.00010018
26 *570:S *151:14 5.50049e-05
27 *572:A0 *572:S 5.70419e-05
28 *575:A1 *151:35 0.000441972
29 *3:13 *577:S 0
30 *3:13 *643:A 0
31 *21:10 *643:A 2.80852e-05
32 *23:10 *572:S 0.000138444
33 *46:10 *151:8 4.6595e-05
34 *51:18 *572:S 5.24457e-05
35 *57:8 *643:A 0
36 *69:10 *572:S 0.000183733
37 *81:12 *643:A 0
38 *84:10 *643:A 1.22803e-05
39 *85:10 *643:A 0.000160182
40 *85:10 *151:31 0.000345193
41 *85:10 *151:35 0.000484545
42 *89:34 *643:A 0
43 *89:53 *643:A 0
44 *93:20 *151:14 0.000218952
45 *93:67 *575:S 0
46 *93:67 *151:31 0.000226295
47 *95:71 *151:14 0.00014062
48 *95:88 *151:14 3.81554e-05
49 *95:107 *577:S 1.34354e-05
50 *95:118 *151:14 6.16531e-05
51 *95:118 *151:31 0.000127272
52 *97:76 *572:S 0.00014196
53 *97:82 *151:31 3.31683e-05
54 *98:48 *643:A 0.000223698
55 *102:26 *569:S 0.00013961
56 *102:26 *151:8 7.43025e-06
57 *102:26 *151:79 7.15126e-05
58 *102:40 *643:A 0
59 *128:10 *643:A 5.3304e-05
60 *129:35 *569:S 3.22879e-05
61 *150:6 *151:8 0.000166987
62 *150:6 *151:14 5.50106e-05
*RES
1 *645:X *151:6 23.4971 
2 *151:6 *151:8 3.48 
3 *151:8 *151:14 24.6943 
4 *151:14 *572:S 43.4064 
5 *151:14 *151:31 21.815 
6 *151:31 *151:35 20.3857 
7 *151:35 *643:A 49.89 
8 *151:35 *577:S 44.8979 
9 *151:31 *575:S 23.4971 
10 *151:8 *644:A 23 
11 *151:6 *151:79 2.42357 
12 *151:79 *568:S 23 
13 *151:79 *569:S 29.815 
*END

*D_NET *152 0.00389431
*CONN
*I *587:B I *D sky130_fd_sc_hd__and3_1
*I *649:A I *D sky130_fd_sc_hd__dlygate4sd3_1
*I *652:A I *D sky130_fd_sc_hd__dlygate4sd3_1
*I *586:A1 I *D sky130_fd_sc_hd__a21oi_1
*I *620:Q O *D sky130_fd_sc_hd__dfrtp_1
*CAP
1 *587:B 0.000229372
2 *649:A 0.000179044
3 *652:A 0
4 *586:A1 0
5 *620:Q 4.17699e-05
6 *152:27 0.000353532
7 *152:23 0.00040386
8 *152:16 0.000580121
9 *152:6 0.000621891
10 *587:B *686:A 0.000116314
11 *587:B *153:10 0.000197479
12 *587:B *155:59 0.000225275
13 *587:B *180:8 5.51294e-05
14 *152:16 *586:A2 7.99597e-05
15 *152:16 *153:10 9.84794e-05
16 *152:27 *180:8 0.00015192
17 *620:CLK *152:16 0
18 *623:D *587:B 2.64616e-05
19 *653:A *152:6 2.32101e-05
20 *653:A *152:16 0.000259077
21 *10:8 *587:B 6.25829e-05
22 *38:12 *152:27 0
23 *59:8 *152:16 2.79004e-05
24 *99:37 *587:B 2.70366e-05
25 *112:14 *152:16 7.88828e-05
26 *115:6 *649:A 5.50106e-05
27 *119:8 *152:16 0
*RES
1 *620:Q *152:6 23.6214 
2 *152:6 *152:16 40.1707 
3 *152:16 *586:A1 23 
4 *152:6 *152:23 15 
5 *152:23 *152:27 19.0186 
6 *152:27 *652:A 23 
7 *152:27 *649:A 26.48 
8 *152:23 *587:B 44.4007 
*END

*D_NET *153 0.002134
*CONN
*I *686:A I *D sky130_fd_sc_hd__dlygate4sd3_1
*I *587:A I *D sky130_fd_sc_hd__and3_1
*I *621:Q O *D sky130_fd_sc_hd__dfrtp_1
*CAP
1 *686:A 0.00017261
2 *587:A 0
3 *621:Q 0.000266332
4 *153:10 0.000438942
5 *153:10 *586:A2 0.000199436
6 *153:10 *155:59 9.47227e-05
7 *153:10 *180:8 0.000169683
8 *561:S *686:A 9.67842e-05
9 *562:A1 *686:A 9.67842e-05
10 *587:B *686:A 0.000116314
11 *587:B *153:10 0.000197479
12 *10:8 *686:A 6.07929e-05
13 *99:83 *686:A 1.22803e-05
14 *99:83 *153:10 1.47563e-05
15 *112:14 *686:A 0
16 *112:14 *153:10 9.8601e-05
17 *152:16 *153:10 9.84794e-05
*RES
1 *621:Q *153:10 46.4721 
2 *153:10 *587:A 38 
3 *153:10 *686:A 42.4121 
*END

*D_NET *154 0.000417031
*CONN
*I *668:A I *D sky130_fd_sc_hd__dlygate4sd3_1
*I *622:Q O *D sky130_fd_sc_hd__dfrtp_1
*CAP
1 *668:A 0
2 *622:Q 0.00020807
3 *154:10 0.00020807
4 *99:27 *154:10 8.91468e-07
*RES
1 *622:Q *154:10 41.0036 
2 *154:10 *668:A 38 
*END

*D_NET *155 0.00391552
*CONN
*I *587:C I *D sky130_fd_sc_hd__and3_1
*I *586:A2 I *D sky130_fd_sc_hd__a21oi_1
*I *585:B I *D sky130_fd_sc_hd__xor2_1
*I *515:C I *D sky130_fd_sc_hd__or3_1
*I *515:X O *D sky130_fd_sc_hd__or3_1
*CAP
1 *587:C 0
2 *586:A2 0.000421895
3 *585:B 9.40726e-05
4 *515:C 0.00016863
5 *515:X 0
6 *155:59 0.000342779
7 *155:32 0.00095197
8 *155:19 0.000370051
9 *155:6 0.000257312
10 *515:C *180:8 4.21594e-06
11 *155:19 *180:8 4.58924e-05
12 *155:32 *180:8 6.88819e-05
13 *515:A *515:C 3.22879e-05
14 *587:B *155:59 0.000225275
15 *620:RESET_B *155:32 7.81176e-05
16 *36:8 *155:19 0
17 *36:8 *155:32 0
18 *37:10 *155:59 1.02387e-05
19 *60:29 *155:59 0
20 *99:37 *155:59 9.59809e-05
21 *115:6 *585:B 0.000228903
22 *119:8 *155:32 0.000144894
23 *152:16 *586:A2 7.99597e-05
24 *153:10 *586:A2 0.000199436
25 *153:10 *155:59 9.47227e-05
*RES
1 *515:X *155:6 38 
2 *155:6 *515:C 41.2521 
3 *155:6 *155:19 1.90571 
4 *155:19 *585:B 40.5271 
5 *155:19 *155:32 20.075 
6 *155:32 *586:A2 30.6436 
7 *155:32 *155:59 36.1936 
8 *155:59 *587:C 23 
*END

*D_NET *156 0.0092483
*CONN
*I *546:A I *D sky130_fd_sc_hd__xor2_1
*I *540:A I *D sky130_fd_sc_hd__xor2_1
*I *638:A I *D sky130_fd_sc_hd__clkbuf_4
*I *593:Q O *D sky130_fd_sc_hd__dfrtp_1
*CAP
1 *546:A 0
2 *540:A 0.000270895
3 *638:A 0
4 *593:Q 0
5 *156:40 0.00101081
6 *156:27 0.00297133
7 *156:14 0.000475254
8 *156:4 0.00216488
9 *540:A *540:B 0.000274543
10 *540:A *177:23 0.000219882
11 *156:27 *564:A1 4.67488e-05
12 *156:40 *168:10 0
13 *156:40 *174:21 0.00021934
14 *156:40 *177:23 0.000126343
15 *561:A0 *156:14 5.50955e-05
16 *593:RESET_B *156:14 1.67944e-05
17 *597:RESET_B *540:A 0
18 *603:RESET_B *156:40 0
19 *45:10 *156:40 0
20 *89:18 *156:27 0.00051885
21 *90:8 *156:27 0.000188927
22 *90:80 *156:14 0.000135754
23 *93:20 *156:40 7.30978e-05
24 *99:57 *156:14 6.79362e-05
25 *99:57 *156:27 5.41288e-05
26 *100:24 *540:A 0
27 *102:40 *156:40 0
28 *149:39 *156:27 0.000357693
29 *150:23 *156:40 0
30 *150:25 *156:40 0
31 *150:27 *156:40 0
32 *150:33 *540:A 0
33 *150:33 *156:40 0
34 *150:39 *540:A 0
*RES
1 *593:Q *156:4 23 
2 *156:4 *156:14 38.1407 
3 *156:14 *638:A 23 
4 *156:4 *156:27 42.4671 
5 *156:27 *540:A 44.8357 
6 *156:27 *156:40 34.1607 
7 *156:40 *546:A 23 
*END

*D_NET *157 0.0132246
*CONN
*I *548:A I *D sky130_fd_sc_hd__or2_1
*I *547:A I *D sky130_fd_sc_hd__nand2_1
*I *553:A I *D sky130_fd_sc_hd__nand2_1
*I *637:A I *D sky130_fd_sc_hd__clkbuf_4
*I *594:Q O *D sky130_fd_sc_hd__dfrtp_1
*CAP
1 *548:A 0.000362872
2 *547:A 0
3 *553:A 0
4 *637:A 6.8156e-05
5 *594:Q 0.000394223
6 *157:56 0.00013828
7 *157:48 0.00166084
8 *157:35 0.000556495
9 *157:25 0.00171618
10 *157:23 0.000604389
11 *157:12 0.000842519
12 *157:8 0.000564197
13 *157:8 *158:10 0.000203929
14 *157:23 *536:B 0.000248979
15 *157:23 *162:10 0.000431861
16 *157:35 *553:B 0.000339111
17 *157:35 *554:B 0.000304183
18 *157:48 *554:B 0.000279489
19 *157:48 *184:14 0.000140259
20 *157:56 *550:B 5.3304e-05
21 *549:A *157:48 6.91791e-05
22 *551:B1 *157:48 3.04931e-05
23 *551:B2 *157:48 1.43071e-05
24 *555:A *157:35 5.3304e-05
25 *558:D *157:48 0.000301436
26 *632:A *157:48 2.02872e-05
27 *48:10 *548:A 0.000104955
28 *48:10 *157:48 1.92408e-05
29 *51:10 *548:A 9.75779e-05
30 *53:8 *157:35 9.58714e-05
31 *56:8 *157:48 0.000103568
32 *58:6 *157:48 0.00107494
33 *91:14 *157:8 0
34 *96:31 *157:23 0.000310494
35 *96:37 *157:35 6.07306e-05
36 *96:56 *157:35 3.43144e-05
37 *97:16 *157:8 3.7252e-05
38 *97:16 *157:23 3.70187e-05
39 *97:29 *157:23 0.00155879
40 *97:93 *157:56 7.21237e-05
41 *99:10 *157:8 0
42 *99:21 *157:8 0
43 *129:35 *157:56 0.000160191
44 *149:92 *157:23 5.92365e-05
*RES
1 *594:Q *157:8 46.2443 
2 *157:8 *157:12 17.5271 
3 *157:12 *637:A 24.0979 
4 *157:12 *157:23 36.2736 
5 *157:23 *157:25 15 
6 *157:25 *157:35 39.1143 
7 *157:35 *553:A 23 
8 *157:25 *157:48 25.1057 
9 *157:48 *157:56 32.8793 
10 *157:56 *547:A 23 
11 *157:48 *548:A 28.6343 
*END

*D_NET *158 0.00106667
*CONN
*I *636:A I *D sky130_fd_sc_hd__clkbuf_2
*I *595:Q O *D sky130_fd_sc_hd__dfrtp_1
*CAP
1 *636:A 0
2 *595:Q 0.000419853
3 *158:10 0.000419853
4 *595:CLK *158:10 2.30292e-05
5 *91:10 *158:10 0
6 *91:14 *158:10 0
7 *91:35 *158:10 0
8 *97:16 *158:10 0
9 *97:29 *158:10 0
10 *157:8 *158:10 0.000203929
*RES
1 *595:Q *158:10 45.8093 
2 *158:10 *636:A 38 
*END

*D_NET *159 0.00155402
*CONN
*I *552:B I *D sky130_fd_sc_hd__xor2_1
*I *658:A I *D sky130_fd_sc_hd__dlygate4sd3_1
*I *613:Q O *D sky130_fd_sc_hd__dfrtp_1
*CAP
1 *552:B 8.64889e-05
2 *658:A 0
3 *613:Q 0.000337155
4 *159:14 0.000102066
5 *159:10 0.000352733
6 *27:10 *159:10 7.88926e-05
7 *96:37 *159:10 9.27196e-05
8 *98:30 *552:B 0.000104145
9 *124:19 *552:B 4.21048e-05
10 *124:19 *159:10 5.84705e-05
11 *124:19 *159:14 5.56356e-05
12 *149:63 *552:B 0.000187968
13 *149:63 *159:14 5.56356e-05
*RES
1 *613:Q *159:10 44.4421 
2 *159:10 *159:14 15.6214 
3 *159:14 *658:A 23 
4 *159:14 *552:B 26.0243 
*END

*D_NET *160 0.00634262
*CONN
*I *577:A1 I *D sky130_fd_sc_hd__mux2_1
*I *678:A I *D sky130_fd_sc_hd__dlygate4sd3_1
*I *554:B I *D sky130_fd_sc_hd__or2_1
*I *553:B I *D sky130_fd_sc_hd__nand2_1
*I *614:Q O *D sky130_fd_sc_hd__dfrtp_1
*CAP
1 *577:A1 0.000514773
2 *678:A 0
3 *554:B 0.000176686
4 *553:B 0.000217648
5 *614:Q 0
6 *160:40 0.000314369
7 *160:34 0.000950954
8 *160:12 0.000971644
9 *160:4 0.000699122
10 *553:B *555:B 0.000102389
11 *160:12 *555:B 0.000126445
12 *555:A *553:B 9.65021e-05
13 *556:A2 *554:B 0.000117655
14 *556:B1 *553:B 9.58714e-05
15 *556:B1 *554:B 1.24376e-05
16 *577:A0 *577:A1 1.73399e-05
17 *577:S *577:A1 5.15762e-05
18 *610:RESET_B *160:40 0
19 *28:10 *577:A1 2.72257e-05
20 *52:10 *160:12 6.16531e-05
21 *53:8 *553:B 4.03994e-05
22 *53:8 *554:B 3.05357e-05
23 *56:8 *554:B 3.17516e-05
24 *92:10 *160:12 0.000345295
25 *92:19 *160:12 0.000169665
26 *92:102 *160:12 1.01436e-05
27 *92:102 *160:40 0
28 *97:29 *554:B 0.000162211
29 *118:8 *160:12 3.68205e-05
30 *133:8 *160:40 3.87236e-05
31 *145:8 *160:40 0
32 *157:35 *553:B 0.000339111
33 *157:35 *554:B 0.000304183
34 *157:48 *554:B 0.000279489
*RES
1 *614:Q *160:4 23 
2 *160:4 *160:12 42.1593 
3 *160:12 *553:B 29.235 
4 *160:12 *554:B 30.1879 
5 *160:4 *160:34 2.07143 
6 *160:34 *160:40 36.1314 
7 *160:40 *678:A 23 
8 *160:34 *577:A1 31.7414 
*END

*D_NET *161 0.00430218
*CONN
*I *578:A1 I *D sky130_fd_sc_hd__mux2_1
*I *677:A I *D sky130_fd_sc_hd__dlygate4sd3_1
*I *555:B I *D sky130_fd_sc_hd__xor2_1
*I *615:Q O *D sky130_fd_sc_hd__dfrtp_1
*CAP
1 *578:A1 0.000144312
2 *677:A 0
3 *555:B 0.000332263
4 *615:Q 0.000660918
5 *161:29 0.000144312
6 *161:14 0.000519138
7 *161:12 0.000847793
8 *553:B *555:B 0.000102389
9 *578:A0 *578:A1 5.67058e-05
10 *578:S *578:A1 9.84851e-05
11 *614:RESET_B *161:14 0
12 *615:D *161:12 3.7122e-06
13 *29:10 *578:A1 6.42405e-05
14 *52:10 *555:B 3.70187e-05
15 *53:8 *555:B 5.68958e-05
16 *92:10 *555:B 0.000133316
17 *92:10 *161:14 0.000222123
18 *92:19 *161:14 0.00015822
19 *92:25 *161:12 5.81564e-05
20 *92:31 *161:12 1.14876e-05
21 *92:102 *161:12 4.13087e-05
22 *92:102 *161:14 4.07729e-05
23 *149:100 *555:B 1.6891e-05
24 *149:100 *578:A1 0.000312772
25 *149:100 *161:14 0.000112501
26 *149:121 *161:12 0
27 *160:12 *555:B 0.000126445
*RES
1 *615:Q *161:12 47.2904 
2 *161:12 *161:14 5.60321 
3 *161:14 *555:B 45.4986 
4 *161:14 *161:29 15 
5 *161:29 *677:A 23 
6 *161:29 *578:A1 27.4329 
*END

*D_NET *162 0.002012
*CONN
*I *536:B I *D sky130_fd_sc_hd__xor2_1
*I *669:A I *D sky130_fd_sc_hd__dlygate4sd3_1
*I *609:Q O *D sky130_fd_sc_hd__dfrtp_1
*CAP
1 *536:B 8.2236e-05
2 *669:A 0
3 *609:Q 0.000192324
4 *162:10 0.00027456
5 *573:S *162:10 9.82009e-05
6 *609:RESET_B *162:10 4.96207e-05
7 *96:31 *162:10 0.00038122
8 *149:14 *536:B 0.000182252
9 *149:14 *162:10 1.00084e-05
10 *149:92 *536:B 6.07397e-05
11 *157:23 *536:B 0.000248979
12 *157:23 *162:10 0.000431861
*RES
1 *609:Q *162:10 44.8771 
2 *162:10 *669:A 38 
3 *162:10 *536:B 41.3143 
*END

*D_NET *163 0.00412684
*CONN
*I *665:A I *D sky130_fd_sc_hd__dlygate4sd3_1
*I *574:A1 I *D sky130_fd_sc_hd__mux2_1
*I *535:B I *D sky130_fd_sc_hd__xor2_1
*I *610:Q O *D sky130_fd_sc_hd__dfrtp_1
*CAP
1 *665:A 0.000242368
2 *574:A1 0.00026767
3 *535:B 0
4 *610:Q 0
5 *163:16 0.000641834
6 *163:8 0.000990134
7 *163:6 0.000322997
8 *539:B1 *163:16 0.000139346
9 *539:C1 *163:16 4.66047e-05
10 *574:A0 *574:A1 5.67058e-05
11 *577:S *574:A1 3.7122e-06
12 *577:S *163:16 0.000404977
13 *643:A *163:16 0.000133316
14 *3:13 *163:16 0
15 *25:10 *574:A1 9.90162e-05
16 *26:8 *163:16 0
17 *28:10 *665:A 0
18 *89:53 *163:16 2.61526e-05
19 *95:107 *163:16 0.00017761
20 *97:76 *163:16 0.000474101
21 *102:40 *163:16 0
22 *102:51 *163:16 0
23 *122:10 *665:A 0
24 *132:8 *665:A 7.4878e-05
25 *132:8 *163:8 2.5415e-05
*RES
1 *610:Q *163:6 38 
2 *163:6 *163:8 1.55357 
3 *163:8 *163:16 29.4793 
4 *163:16 *535:B 23 
5 *163:8 *574:A1 43.8829 
6 *163:6 *665:A 43.2407 
*END

*D_NET *164 0.0023635
*CONN
*I *538:B I *D sky130_fd_sc_hd__nand2_1
*I *650:A I *D sky130_fd_sc_hd__dlygate4sd3_1
*I *537:B I *D sky130_fd_sc_hd__or2_1
*I *611:Q O *D sky130_fd_sc_hd__dfrtp_1
*CAP
1 *538:B 0.000264013
2 *650:A 2.34823e-05
3 *537:B 7.8791e-05
4 *611:Q 6.90544e-05
5 *164:19 0.000452117
6 *164:10 0.000243412
7 *164:8 6.90544e-05
8 *575:A0 *538:B 0.000396689
9 *575:A1 *538:B 0.000195119
10 *575:A1 *164:19 0.000113302
11 *577:S *164:8 0
12 *3:13 *164:8 0.000114092
13 *93:67 *538:B 6.29487e-05
14 *95:107 *537:B 0.000141052
15 *95:107 *164:19 4.17736e-05
16 *151:31 *538:B 8.2832e-05
17 *151:35 *538:B 1.5769e-05
*RES
1 *611:Q *164:8 39.5536 
2 *164:8 *164:10 15 
3 *164:10 *537:B 24.5743 
4 *164:10 *164:19 3.00357 
5 *164:19 *650:A 23.4971 
6 *164:19 *538:B 31.265 
*END

*D_NET *165 0.0024119
*CONN
*I *523:B I *D sky130_fd_sc_hd__xor2_1
*I *570:A1 I *D sky130_fd_sc_hd__mux2_1
*I *673:A I *D sky130_fd_sc_hd__dlygate4sd3_1
*I *606:Q O *D sky130_fd_sc_hd__dfrtp_1
*CAP
1 *523:B 0
2 *570:A1 0
3 *673:A 0
4 *606:Q 0.00011209
5 *165:36 0.000397961
6 *165:23 0.000739918
7 *165:12 0.000406688
8 *165:8 0.000176821
9 *570:A0 *165:23 5.67058e-05
10 *570:A0 *165:36 3.4002e-05
11 *570:S *165:23 5.90675e-06
12 *570:S *165:36 0.00030974
13 *3:13 *165:8 0
14 *21:10 *165:23 5.47808e-05
15 *93:20 *165:36 0
16 *97:29 *165:8 0
17 *102:40 *165:36 8.16356e-05
18 *135:21 *165:8 3.56537e-05
*RES
1 *606:Q *165:8 40.2579 
2 *165:8 *165:12 16.0979 
3 *165:12 *673:A 23 
4 *165:12 *165:23 5.90357 
5 *165:23 *570:A1 23 
6 *165:23 *165:36 36.6907 
7 *165:36 *523:B 23 
*END

*D_NET *166 0.00265821
*CONN
*I *654:A I *D sky130_fd_sc_hd__dlygate4sd3_1
*I *524:B I *D sky130_fd_sc_hd__xor2_1
*I *607:Q O *D sky130_fd_sc_hd__dfrtp_1
*CAP
1 *654:A 0.000468308
2 *524:B 0.000223003
3 *607:Q 0.000450045
4 *166:8 0.00114136
5 *604:CLK *166:8 1.57571e-05
6 *604:D *166:8 0.000185434
7 *129:35 *524:B 0.000174311
*RES
1 *607:Q *166:8 44.3386 
2 *166:8 *524:B 42.7229 
3 *166:8 *654:A 46.5757 
*END

*D_NET *167 0.00145252
*CONN
*I *656:A I *D sky130_fd_sc_hd__dlygate4sd3_1
*I *522:B I *D sky130_fd_sc_hd__xor2_1
*I *608:Q O *D sky130_fd_sc_hd__dfrtp_1
*CAP
1 *656:A 0.000109268
2 *522:B 0
3 *608:Q 0
4 *167:12 0.00052285
5 *167:4 0.000632118
6 *608:CLK *167:12 1.59094e-05
7 *93:71 *167:12 0.000135547
8 *95:118 *167:12 0
9 *102:40 *167:12 0
10 *102:51 *167:12 1.46756e-05
11 *102:65 *656:A 1.18615e-05
12 *102:65 *167:12 1.02949e-05
*RES
1 *608:Q *167:4 23 
2 *167:4 *167:12 37.7264 
3 *167:12 *522:B 23 
4 *167:4 *656:A 24.9471 
*END

*D_NET *168 0.00068228
*CONN
*I *546:B I *D sky130_fd_sc_hd__xor2_1
*I *660:A I *D sky130_fd_sc_hd__dlygate4sd3_1
*I *603:Q O *D sky130_fd_sc_hd__dfrtp_1
*CAP
1 *546:B 3.64085e-05
2 *660:A 0
3 *603:Q 0.000173507
4 *168:12 3.64085e-05
5 *168:10 0.000173507
6 *570:S *546:B 7.88926e-05
7 *603:CLK *168:10 5.70419e-05
8 *603:RESET_B *168:10 2.54046e-05
9 *102:26 *546:B 7.88926e-05
10 *102:40 *168:10 2.22183e-05
11 *156:40 *168:10 0
*RES
1 *603:Q *168:10 41.0036 
2 *168:10 *168:12 15 
3 *168:12 *660:A 23 
4 *168:12 *546:B 24.5743 
*END

*D_NET *169 0.00393127
*CONN
*I *662:A I *D sky130_fd_sc_hd__dlygate4sd3_1
*I *548:B I *D sky130_fd_sc_hd__or2_1
*I *547:B I *D sky130_fd_sc_hd__nand2_1
*I *604:Q O *D sky130_fd_sc_hd__dfrtp_1
*CAP
1 *662:A 8.78642e-05
2 *548:B 0
3 *547:B 0.000547005
4 *604:Q 0.00010012
5 *169:10 0.00118636
6 *169:6 0.000827339
7 *547:B *550:B 3.92409e-05
8 *169:10 *170:10 0
9 *601:RESET_B *547:B 0.000137651
10 *604:RESET_B *169:6 7.88828e-05
11 *604:RESET_B *169:10 0.000327903
12 *93:31 *547:B 9.24795e-06
13 *93:47 *547:B 0.000112203
14 *96:113 *547:B 1.37232e-05
15 *97:93 *169:10 0
16 *134:23 *547:B 0.000333296
17 *134:23 *169:10 0.000130433
*RES
1 *604:Q *169:6 25.0507 
2 *169:6 *169:10 28.8786 
3 *169:10 *547:B 48.1293 
4 *169:10 *548:B 38 
5 *169:6 *662:A 24.5743 
*END

*D_NET *170 0.00245989
*CONN
*I *667:A I *D sky130_fd_sc_hd__dlygate4sd3_1
*I *549:B I *D sky130_fd_sc_hd__or2_1
*I *550:B I *D sky130_fd_sc_hd__nand2_1
*I *605:Q O *D sky130_fd_sc_hd__dfrtp_1
*CAP
1 *667:A 5.72657e-05
2 *549:B 2.95011e-05
3 *550:B 0.000364366
4 *605:Q 0.000262543
5 *170:12 0.000548493
6 *170:10 0.000474435
7 *547:B *550:B 3.92409e-05
8 *48:10 *549:B 5.50106e-05
9 *51:10 *550:B 2.71291e-05
10 *51:10 *170:12 5.97612e-05
11 *93:31 *550:B 0.000222791
12 *96:113 *550:B 1.34406e-05
13 *97:93 *550:B 4.38375e-05
14 *97:93 *170:10 5.33753e-05
15 *97:93 *170:12 1.34354e-05
16 *134:23 *550:B 0
17 *134:23 *667:A 0.00014196
18 *134:23 *170:12 0
19 *157:56 *550:B 5.3304e-05
20 *169:10 *170:10 0
*RES
1 *605:Q *170:10 42.3086 
2 *170:10 *170:12 2.61 
3 *170:12 *550:B 45.0843 
4 *170:12 *549:B 38.6214 
5 *170:10 *667:A 39.5743 
*END

*D_NET *171 0.00207224
*CONN
*I *663:A I *D sky130_fd_sc_hd__dlygate4sd3_1
*I *516:B I *D sky130_fd_sc_hd__or2_1
*I *517:B I *D sky130_fd_sc_hd__nand2_1
*I *599:Q O *D sky130_fd_sc_hd__dfrtp_1
*CAP
1 *663:A 0.000186527
2 *516:B 4.49845e-05
3 *517:B 9.68208e-05
4 *599:Q 0.000154293
5 *171:21 0.000303173
6 *171:8 0.000322775
7 *517:A *517:B 5.50106e-05
8 *519:A *663:A 1.01436e-05
9 *603:CLK *663:A 5.67058e-05
10 *66:12 *663:A 1.27321e-05
11 *98:61 *663:A 3.95134e-05
12 *98:63 *517:B 1.4471e-05
13 *98:63 *663:A 2.76611e-06
14 *98:63 *171:21 6.38844e-05
15 *98:69 *517:B 1.19796e-05
16 *105:29 *517:B 0.000102093
17 *105:29 *171:8 1.46708e-05
18 *150:23 *663:A 0.000158229
19 *150:23 *171:21 6.70363e-05
20 *150:25 *517:B 3.47781e-05
21 *150:25 *171:21 0.000131735
22 *150:27 *517:B 6.48049e-05
23 *150:66 *517:B 6.9805e-05
24 *150:66 *171:8 5.3304e-05
*RES
1 *599:Q *171:8 40.0507 
2 *171:8 *517:B 41.2521 
3 *171:8 *171:21 2.61 
4 *171:21 *516:B 38.6214 
5 *171:21 *663:A 42.3086 
*END

*D_NET *172 0.00298845
*CONN
*I *676:A I *D sky130_fd_sc_hd__dlygate4sd3_1
*I *520:B I *D sky130_fd_sc_hd__xor2_1
*I *591:A1 I *D sky130_fd_sc_hd__mux2_1
*I *600:Q O *D sky130_fd_sc_hd__dfrtp_1
*CAP
1 *676:A 2.63843e-05
2 *520:B 0.000424401
3 *591:A1 0.000533852
4 *600:Q 0.000111564
5 *172:19 0.000450785
6 *172:8 0.000645416
7 *520:B *173:14 0.000243083
8 *520:B *173:16 0.000120857
9 *520:B *173:26 7.27085e-05
10 *591:A1 *173:42 0
11 *676:A *173:14 2.93845e-05
12 *172:8 *173:14 5.56306e-05
13 *172:8 *173:42 0
14 *518:A *520:B 0.000136743
15 *642:A *591:A1 0
16 *642:A *172:8 0
17 *105:19 *591:A1 0
18 *136:8 *591:A1 4.08537e-05
19 *137:8 *591:A1 9.67823e-05
20 *150:79 *591:A1 0
*RES
1 *600:Q *172:8 40.2579 
2 *172:8 *591:A1 48.3571 
3 *172:8 *172:19 15 
4 *172:19 *520:B 33.15 
5 *172:19 *676:A 23.6214 
*END

*D_NET *173 0.00428336
*CONN
*I *672:A I *D sky130_fd_sc_hd__dlygate4sd3_1
*I *592:A1 I *D sky130_fd_sc_hd__mux2_1
*I *518:B I *D sky130_fd_sc_hd__or2_1
*I *519:B I *D sky130_fd_sc_hd__nand2_1
*I *601:Q O *D sky130_fd_sc_hd__dfrtp_1
*CAP
1 *672:A 0
2 *592:A1 0
3 *518:B 0
4 *519:B 0
5 *601:Q 0.000103667
6 *173:42 0.000206617
7 *173:26 0.000488234
8 *173:16 0.0005717
9 *173:14 0.00076333
10 *173:8 0.000576915
11 *518:A *173:26 0.000139357
12 *520:A *173:26 9.41704e-05
13 *520:B *173:14 0.000243083
14 *520:B *173:16 0.000120857
15 *520:B *173:26 7.27085e-05
16 *591:A1 *173:42 0
17 *642:A *173:14 8.16459e-05
18 *676:A *173:14 2.93845e-05
19 *63:10 *173:26 9.75779e-05
20 *64:12 *173:26 7.73877e-05
21 *67:10 *173:26 2.98648e-05
22 *95:60 *173:26 2.64616e-05
23 *97:118 *173:42 0
24 *98:61 *173:26 0.000165931
25 *98:63 *173:26 1.14452e-05
26 *143:10 *173:14 0.000228909
27 *143:10 *173:16 9.84794e-05
28 *150:79 *173:42 0
29 *172:8 *173:14 5.56306e-05
30 *172:8 *173:42 0
*RES
1 *601:Q *173:8 39.9057 
2 *173:8 *173:14 26.2893 
3 *173:14 *173:16 2.52714 
4 *173:16 *173:26 39.6943 
5 *173:26 *519:B 23 
6 *173:16 *518:B 23 
7 *173:14 *173:42 33.3143 
8 *173:42 *592:A1 23 
9 *173:8 *672:A 38 
*END

*D_NET *174 0.00313986
*CONN
*I *564:A1 I *D sky130_fd_sc_hd__mux2_1
*I *528:B I *D sky130_fd_sc_hd__or2_1
*I *529:B I *D sky130_fd_sc_hd__nand2_1
*I *664:A I *D sky130_fd_sc_hd__dlygate4sd3_1
*I *624:Q O *D sky130_fd_sc_hd__dfrtp_1
*CAP
1 *564:A1 0.000262515
2 *528:B 8.03273e-05
3 *529:B 3.55571e-05
4 *664:A 6.0856e-05
5 *624:Q 0
6 *174:21 0.000408091
7 *174:8 0.000474065
8 *174:4 0.000383518
9 *174:8 *177:23 0.000188926
10 *174:21 *177:23 1.01436e-05
11 *529:A *528:B 5.50049e-05
12 *564:S *564:A1 8.34394e-05
13 *630:A *664:A 5.67058e-05
14 *45:6 *664:A 0.000102375
15 *45:10 *174:21 0
16 *76:10 *528:B 1.03955e-05
17 *76:10 *529:B 6.17437e-06
18 *89:10 *174:21 0
19 *89:18 *174:8 0
20 *89:18 *174:21 0
21 *91:8 *664:A 0.000315852
22 *100:24 *564:A1 0.000154395
23 *150:33 *564:A1 0.000185428
24 *156:27 *564:A1 4.67488e-05
25 *156:40 *174:21 0.00021934
*RES
1 *624:Q *174:4 23 
2 *174:4 *174:8 17.61 
3 *174:8 *664:A 41.48 
4 *174:8 *174:21 21.1314 
5 *174:21 *529:B 23.6214 
6 *174:21 *528:B 24.595 
7 *174:4 *564:A1 29.3386 
*END

*D_NET *175 0.00307206
*CONN
*I *674:A I *D sky130_fd_sc_hd__dlygate4sd3_1
*I *527:B I *D sky130_fd_sc_hd__xor2_1
*I *565:A1 I *D sky130_fd_sc_hd__mux2_1
*I *625:Q O *D sky130_fd_sc_hd__dfrtp_1
*CAP
1 *674:A 0.000197319
2 *527:B 3.43162e-05
3 *565:A1 0.000446449
4 *625:Q 0
5 *175:19 0.000453643
6 *175:6 0.000668457
7 *674:A *176:14 0
8 *674:A *176:23 0
9 *674:A *176:27 8.28951e-05
10 *545:B1 *565:A1 8.62876e-05
11 *545:B1 *175:19 0.000298257
12 *545:B2 *565:A1 8.62876e-05
13 *545:B2 *175:19 0.000284581
14 *565:A0 *565:A1 0.000173442
15 *626:CLK *674:A 2.76611e-06
16 *626:CLK *175:19 6.18295e-05
17 *95:29 *674:A 0
18 *96:96 *527:B 1.94693e-05
19 *97:118 *674:A 7.80251e-05
20 *97:118 *175:19 2.08324e-05
21 *97:128 *175:19 7.63084e-05
22 *109:10 *565:A1 8.91468e-07
*RES
1 *625:Q *175:6 38 
2 *175:6 *565:A1 44.5871 
3 *175:6 *175:19 6.83571 
4 *175:19 *527:B 38.6214 
5 *175:19 *674:A 42.3293 
*END

*D_NET *176 0.00466298
*CONN
*I *670:A I *D sky130_fd_sc_hd__dlygate4sd3_1
*I *525:B I *D sky130_fd_sc_hd__or2_1
*I *526:B I *D sky130_fd_sc_hd__nand2_1
*I *566:A1 I *D sky130_fd_sc_hd__mux2_1
*I *626:Q O *D sky130_fd_sc_hd__dfrtp_1
*CAP
1 *670:A 0.000453988
2 *525:B 0.000116332
3 *526:B 0
4 *566:A1 0
5 *626:Q 0.000121174
6 *176:27 0.00027137
7 *176:23 0.000749213
8 *176:14 0.000489222
9 *176:8 0.000750583
10 *525:A *525:B 5.3304e-05
11 *545:A2 *176:14 0.000400877
12 *566:S *176:14 0.000119313
13 *598:RESET_B *176:14 7.73405e-05
14 *626:CLK *176:8 0.000140259
15 *626:CLK *176:14 6.18295e-05
16 *626:RESET_B *176:14 5.83625e-05
17 *674:A *176:14 0
18 *674:A *176:23 0
19 *674:A *176:27 8.28951e-05
20 *675:A *176:14 0.000267167
21 *73:10 *525:B 1.14876e-05
22 *95:29 *525:B 5.90675e-06
23 *96:96 *176:8 2.47702e-05
24 *96:96 *176:14 0.000138718
25 *97:118 *176:23 0
26 *141:8 *176:14 0
27 *141:8 *176:23 0
28 *142:10 *176:14 0.000268868
29 *150:79 *176:23 0
*RES
1 *626:Q *176:8 40.5271 
2 *176:8 *176:14 28.9821 
3 *176:14 *566:A1 23 
4 *176:8 *176:23 17.2579 
5 *176:23 *176:27 3.50071 
6 *176:27 *526:B 23 
7 *176:27 *525:B 25.0714 
8 *176:23 *670:A 30.2914 
*END

*D_NET *177 0.00316668
*CONN
*I *647:A I *D sky130_fd_sc_hd__dlygate4sd3_1
*I *540:B I *D sky130_fd_sc_hd__xor2_1
*I *596:Q O *D sky130_fd_sc_hd__dfrtp_1
*CAP
1 *647:A 0
2 *540:B 0.00015537
3 *596:Q 4.25104e-05
4 *177:23 0.000363461
5 *177:8 0.000561342
6 *540:A *540:B 0.000274543
7 *540:A *177:23 0.000219882
8 *45:6 *177:23 0.000319107
9 *91:8 *177:23 0.000310647
10 *91:59 *177:23 0.000533224
11 *95:8 *177:23 6.17437e-06
12 *100:42 *177:8 5.50049e-05
13 *156:40 *177:23 0.000126343
14 *174:8 *177:23 0.000188926
15 *174:21 *177:23 1.01436e-05
*RES
1 *596:Q *177:8 38.6214 
2 *177:8 *540:B 41.6664 
3 *177:8 *177:23 28.92 
4 *177:23 *647:A 23 
*END

*D_NET *178 0.00225271
*CONN
*I *543:B I *D sky130_fd_sc_hd__nand2_1
*I *682:A I *D sky130_fd_sc_hd__dlygate4sd3_1
*I *544:B I *D sky130_fd_sc_hd__or2_1
*I *597:Q O *D sky130_fd_sc_hd__dfrtp_1
*CAP
1 *543:B 7.48216e-05
2 *682:A 1.74641e-05
3 *544:B 0
4 *597:Q 0.000352739
5 *178:19 0.000282979
6 *178:12 0.000190694
7 *178:10 0.000352739
8 *544:A *178:10 1.19796e-05
9 *544:A *178:19 5.50049e-05
10 *597:RESET_B *178:10 0.000137039
11 *43:8 *543:B 7.99597e-05
12 *43:8 *178:19 5.41385e-05
13 *44:8 *178:19 0.000139352
14 *87:8 *178:10 2.50739e-05
15 *97:128 *178:10 2.11887e-05
16 *97:147 *543:B 9.84794e-05
17 *97:147 *178:19 0.000351525
18 *111:10 *543:B 7.53384e-06
*RES
1 *597:Q *178:10 43.51 
2 *178:10 *178:12 15 
3 *178:12 *544:B 23 
4 *178:12 *178:19 5.38571 
5 *178:19 *682:A 23.4971 
6 *178:19 *543:B 25.6929 
*END

*D_NET *179 0.00378119
*CONN
*I *541:B I *D sky130_fd_sc_hd__or2_1
*I *542:B I *D sky130_fd_sc_hd__nand2_1
*I *684:A I *D sky130_fd_sc_hd__dlygate4sd3_1
*I *598:Q O *D sky130_fd_sc_hd__dfrtp_1
*CAP
1 *541:B 0
2 *542:B 0
3 *684:A 0.000277104
4 *598:Q 0
5 *179:42 0.00102016
6 *179:21 0.00111825
7 *179:6 0.000375193
8 *625:CLK *179:42 0.000234819
9 *625:RESET_B *179:42 4.12841e-05
10 *640:A *179:42 2.64616e-05
11 *688:A *684:A 2.5343e-05
12 *100:6 *179:42 1.32914e-05
13 *100:24 *179:42 0.00017761
14 *105:8 *684:A 0.00031912
15 *105:8 *179:21 7.55595e-05
16 *105:8 *179:42 7.70038e-05
17 *110:8 *684:A 0
*RES
1 *598:Q *179:6 38 
2 *179:6 *684:A 45.25 
3 *179:6 *179:21 2.25786 
4 *179:21 *542:B 38 
5 *179:21 *179:42 30.5979 
6 *179:42 *541:B 23 
*END

*D_NET *180 0.00152401
*CONN
*I *515:B I *D sky130_fd_sc_hd__or3_1
*I *623:Q O *D sky130_fd_sc_hd__dfrtp_1
*CAP
1 *515:B 0
2 *623:Q 0.000320753
3 *180:8 0.000320753
4 *515:C *180:8 4.21594e-06
5 *587:B *180:8 5.51294e-05
6 *620:RESET_B *180:8 0.000270462
7 *99:83 *180:8 0.000116314
8 *152:27 *180:8 0.00015192
9 *153:10 *180:8 0.000169683
10 *155:19 *180:8 4.58924e-05
11 *155:32 *180:8 6.88819e-05
*RES
1 *623:Q *180:8 47.6529 
2 *180:8 *515:B 38 
*END

*D_NET *181 0.0010845
*CONN
*I *646:A I *D sky130_fd_sc_hd__dlygate4sd3_1
*I *602:Q O *D sky130_fd_sc_hd__dfrtp_1
*CAP
1 *646:A 0
2 *602:Q 0.000351252
3 *181:10 0.000351252
4 *619:RESET_B *181:10 0.00019747
5 *103:8 *181:10 0
6 *104:16 *181:10 0.000184527
*RES
1 *602:Q *181:10 44.7736 
2 *181:10 *646:A 38 
*END

*D_NET *182 0.00175146
*CONN
*I *657:A I *D sky130_fd_sc_hd__dlygate4sd3_1
*I *612:Q O *D sky130_fd_sc_hd__dfrtp_1
*CAP
1 *657:A 0.000285672
2 *612:Q 0.000123367
3 *182:8 0.000409039
4 *657:A *679:A 5.79559e-05
5 *560:A_N *657:A 0.000144501
6 *619:RESET_B *182:8 0
7 *96:8 *657:A 0.000223698
8 *96:16 *657:A 0.000271906
9 *99:64 *182:8 0
10 *104:8 *657:A 0.000229146
11 *104:16 *657:A 6.17437e-06
*RES
1 *612:Q *182:8 39.9057 
2 *182:8 *657:A 46.2443 
*END

*D_NET *183 0.00101832
*CONN
*I *679:A I *D sky130_fd_sc_hd__dlygate4sd3_1
*I *619:Q O *D sky130_fd_sc_hd__dfrtp_1
*CAP
1 *679:A 1.17588e-05
2 *619:Q 0.000359583
3 *183:10 0.000371342
4 *657:A *679:A 5.79559e-05
5 *90:49 *183:10 2.19218e-05
6 *90:66 *183:10 3.52233e-06
7 *104:8 *679:A 5.56356e-05
8 *149:39 *183:10 0.0001366
*RES
1 *619:Q *183:10 42.9093 
2 *183:10 *679:A 38.6214 
*END

*D_NET *184 0.00296176
*CONN
*I *558:C I *D sky130_fd_sc_hd__and4b_1
*I *627:Q O *D sky130_fd_sc_hd__dfrtp_1
*CAP
1 *558:C 0
2 *627:Q 0.000130457
3 *184:14 0.000711283
4 *184:8 0.00084174
5 *599:CLK *184:14 0.000139647
6 *599:RESET_B *184:14 5.56203e-05
7 *627:RESET_B *184:8 0.000184527
8 *643:A *184:14 8.14613e-05
9 *3:13 *184:14 0.0001958
10 *18:10 *184:14 0
11 *21:10 *184:14 0
12 *56:8 *184:14 7.59794e-05
13 *89:34 *184:14 0
14 *101:10 *184:14 0
15 *128:10 *184:14 0.000404986
16 *130:12 *184:14 0
17 *157:48 *184:14 0.000140259
*RES
1 *627:Q *184:8 40.0507 
2 *184:8 *184:14 32.5657 
3 *184:14 *558:C 23 
*END
