*SPEF "ieee 1481-1999"
*DESIGN "rng_top"
*DATE "12:31:27 Wednesday February 18, 2026"
*VENDOR "The OpenROAD Project"
*PROGRAM "OpenROAD"
*VERSION "edf00dff99f6c40d67a30c0e22a8191c5d2ed9d6"
*DESIGN_FLOW "NAME_SCOPE LOCAL" "PIN_CAP NONE"
*DIVIDER /
*DELIMITER :
*BUS_DELIMITER []
*T_UNIT 1 NS
*C_UNIT 1 PF
*R_UNIT 1 OHM
*L_UNIT 1 HENRY

*NAME_MAP
*3 clk_i
*4 num_to_send_o[0]
*5 num_to_send_o[1]
*6 num_to_send_o[2]
*7 req_num_i
*8 rst_i
*9 wr_i
*10 _000_
*11 _001_
*12 _002_
*13 _003_
*14 _004_
*15 _005_
*16 _006_
*17 _007_
*18 _008_
*19 _009_
*20 _010_
*21 _011_
*22 _012_
*23 _013_
*24 _014_
*25 _015_
*26 _016_
*27 _017_
*28 _018_
*29 _019_
*30 _020_
*31 _021_
*32 _022_
*33 _023_
*34 _024_
*35 _025_
*36 _026_
*37 _027_
*38 _028_
*39 _029_
*40 _030_
*41 _031_
*42 _032_
*43 _033_
*44 _034_
*45 _035_
*46 _036_
*47 _037_
*48 _038_
*49 _039_
*50 _040_
*51 _041_
*52 _042_
*53 _043_
*54 _044_
*55 _045_
*56 _046_
*57 _047_
*58 _048_
*59 _049_
*60 _050_
*61 _051_
*62 _052_
*63 _053_
*64 _054_
*65 _055_
*66 _056_
*67 _057_
*68 _058_
*69 _059_
*70 _060_
*71 _061_
*72 _062_
*73 _063_
*74 _064_
*75 _065_
*76 _066_
*77 _067_
*78 _068_
*79 _069_
*80 _070_
*81 _071_
*82 _072_
*83 _073_
*84 _074_
*85 _075_
*86 _076_
*87 _077_
*88 _078_
*89 _079_
*90 _080_
*91 _081_
*92 _082_
*93 _083_
*94 _084_
*95 _085_
*96 _086_
*97 _087_
*98 _088_
*99 _089_
*100 _090_
*101 _091_
*102 _092_
*103 _093_
*104 _094_
*105 _095_
*106 _096_
*107 _097_
*108 _098_
*109 _099_
*110 _100_
*111 _101_
*112 _102_
*113 _103_
*114 _104_
*115 _105_
*116 _106_
*117 _107_
*118 _108_
*119 _109_
*120 _110_
*121 _111_
*122 _112_
*123 clknet_0_clk_i
*124 clknet_2_0__leaf_clk_i
*125 clknet_2_1__leaf_clk_i
*126 clknet_2_2__leaf_clk_i
*127 clknet_2_3__leaf_clk_i
*128 net1
*129 net10
*130 net11
*131 net12
*132 net13
*133 net14
*134 net15
*135 net16
*136 net17
*137 net18
*138 net19
*139 net2
*140 net20
*141 net21
*142 net22
*143 net23
*144 net24
*145 net25
*146 net26
*147 net27
*148 net28
*149 net29
*150 net3
*151 net30
*152 net31
*153 net32
*154 net33
*155 net34
*156 net35
*157 net36
*158 net37
*159 net38
*160 net39
*161 net4
*162 net40
*163 net41
*164 net42
*165 net43
*166 net44
*167 net45
*168 net46
*169 net47
*170 net48
*171 net49
*172 net5
*173 net50
*174 net51
*175 net52
*176 net53
*177 net54
*178 net55
*179 net56
*180 net57
*181 net58
*182 net59
*183 net6
*184 net60
*185 net61
*186 net62
*187 net63
*188 net64
*189 net65
*190 net66
*191 net67
*192 net68
*193 net69
*194 net7
*195 net70
*196 net8
*197 net9
*198 num_i_bar\[0\]
*199 num_i_bar\[1\]
*200 num_i_bar\[2\]
*201 req_num_again
*202 rng_dp\.inst\.next_num_o\[0\]
*203 rng_dp\.inst\.next_num_o\[1\]
*204 rng_dp\.inst\.next_num_o\[2\]
*205 rng_dp\.seed_sel_i\[0\]
*206 rng_dp\.seed_sel_i\[1\]
*207 rng_rd\.mem\[1\]\[0\]
*208 rng_rd\.mem\[1\]\[1\]
*209 rng_rd\.mem\[1\]\[2\]
*210 rng_rd\.mem\[2\]\[0\]
*211 rng_rd\.mem\[2\]\[1\]
*212 rng_rd\.mem\[2\]\[2\]
*213 rng_rd\.mem\[3\]\[0\]
*214 rng_rd\.mem\[3\]\[1\]
*215 rng_rd\.mem\[3\]\[2\]
*216 rng_rd\.mem\[4\]\[0\]
*217 rng_rd\.mem\[4\]\[1\]
*218 rng_rd\.mem\[4\]\[2\]
*219 rng_rd\.mem\[5\]\[0\]
*220 rng_rd\.mem\[5\]\[1\]
*221 rng_rd\.mem\[5\]\[2\]
*222 rng_rd\.mem\[6\]\[0\]
*223 rng_rd\.mem\[6\]\[1\]
*224 rng_rd\.mem\[6\]\[2\]
*225 rng_rd\.mem\[7\]\[0\]
*226 rng_rd\.mem\[7\]\[1\]
*227 rng_rd\.mem\[7\]\[2\]
*228 rng_rd\.vld\[0\]
*229 rng_rd\.vld\[1\]
*230 rng_rd\.vld\[2\]
*231 rng_rd\.vld\[3\]
*232 rng_rd\.vld\[4\]
*233 rng_rd\.vld\[5\]
*234 rng_rd\.vld\[6\]
*235 rng_rd\.vld\[7\]
*236 rng_rd\.wr_ff1
*237 rng_rd\.wr_ff2
*238 rng_rd\.wr_ff2_d
*239 rng_rd\.wr_pulse
*240 FILLER_0_109
*241 FILLER_0_111
*242 FILLER_0_113
*243 FILLER_0_125
*244 FILLER_0_137
*245 FILLER_0_139
*246 FILLER_0_141
*247 FILLER_0_153
*248 FILLER_0_24
*249 FILLER_0_3
*250 FILLER_0_37
*251 FILLER_0_55
*252 FILLER_0_57
*253 FILLER_0_65
*254 FILLER_0_70
*255 FILLER_0_78
*256 FILLER_0_83
*257 FILLER_0_85
*258 FILLER_0_97
*259 FILLER_10_109
*260 FILLER_10_121
*261 FILLER_10_133
*262 FILLER_10_137
*263 FILLER_10_139
*264 FILLER_10_141
*265 FILLER_10_153
*266 FILLER_10_23
*267 FILLER_10_27
*268 FILLER_10_36
*269 FILLER_10_40
*270 FILLER_10_56
*271 FILLER_10_7
*272 FILLER_10_85
*273 FILLER_10_9
*274 FILLER_10_97
*275 FILLER_11_111
*276 FILLER_11_121
*277 FILLER_11_133
*278 FILLER_11_145
*279 FILLER_11_3
*280 FILLER_11_57
*281 FILLER_11_59
*282 FILLER_11_80
*283 FILLER_11_92
*284 FILLER_12_132
*285 FILLER_12_141
*286 FILLER_12_153
*287 FILLER_12_17
*288 FILLER_12_26
*289 FILLER_12_3
*290 FILLER_12_7
*291 FILLER_12_73
*292 FILLER_12_81
*293 FILLER_12_83
*294 FILLER_13_147
*295 FILLER_13_155
*296 FILLER_13_28
*297 FILLER_13_3
*298 FILLER_13_72
*299 FILLER_13_94
*300 FILLER_14_138
*301 FILLER_14_141
*302 FILLER_14_153
*303 FILLER_14_24
*304 FILLER_14_29
*305 FILLER_14_3
*306 FILLER_14_31
*307 FILLER_14_52
*308 FILLER_14_56
*309 FILLER_15_121
*310 FILLER_15_135
*311 FILLER_15_147
*312 FILLER_15_15
*313 FILLER_15_155
*314 FILLER_15_23
*315 FILLER_15_25
*316 FILLER_15_3
*317 FILLER_15_41
*318 FILLER_15_51
*319 FILLER_15_55
*320 FILLER_15_57
*321 FILLER_15_61
*322 FILLER_15_70
*323 FILLER_15_72
*324 FILLER_15_88
*325 FILLER_16_106
*326 FILLER_16_115
*327 FILLER_16_136
*328 FILLER_16_141
*329 FILLER_16_15
*330 FILLER_16_153
*331 FILLER_16_26
*332 FILLER_16_29
*333 FILLER_16_3
*334 FILLER_16_31
*335 FILLER_16_40
*336 FILLER_16_54
*337 FILLER_16_65
*338 FILLER_16_85
*339 FILLER_16_92
*340 FILLER_16_96
*341 FILLER_17_11
*342 FILLER_17_113
*343 FILLER_17_142
*344 FILLER_17_154
*345 FILLER_17_156
*346 FILLER_17_3
*347 FILLER_17_46
*348 FILLER_17_54
*349 FILLER_17_57
*350 FILLER_17_78
*351 FILLER_17_87
*352 FILLER_17_91
*353 FILLER_18_126
*354 FILLER_18_138
*355 FILLER_18_141
*356 FILLER_18_153
*357 FILLER_18_29
*358 FILLER_18_3
*359 FILLER_19_109
*360 FILLER_19_111
*361 FILLER_19_128
*362 FILLER_19_140
*363 FILLER_19_152
*364 FILLER_19_156
*365 FILLER_19_44
*366 FILLER_19_46
*367 FILLER_19_57
*368 FILLER_19_59
*369 FILLER_19_96
*370 FILLER_1_103
*371 FILLER_1_111
*372 FILLER_1_113
*373 FILLER_1_125
*374 FILLER_1_129
*375 FILLER_1_153
*376 FILLER_1_18
*377 FILLER_1_20
*378 FILLER_1_41
*379 FILLER_1_45
*380 FILLER_1_47
*381 FILLER_1_6
*382 FILLER_1_77
*383 FILLER_20_121
*384 FILLER_20_133
*385 FILLER_20_137
*386 FILLER_20_139
*387 FILLER_20_141
*388 FILLER_20_153
*389 FILLER_20_29
*390 FILLER_20_33
*391 FILLER_20_6
*392 FILLER_20_83
*393 FILLER_20_94
*394 FILLER_21_109
*395 FILLER_21_111
*396 FILLER_21_121
*397 FILLER_21_133
*398 FILLER_21_145
*399 FILLER_21_15
*400 FILLER_21_25
*401 FILLER_21_29
*402 FILLER_21_3
*403 FILLER_21_39
*404 FILLER_21_51
*405 FILLER_21_55
*406 FILLER_21_65
*407 FILLER_21_77
*408 FILLER_21_81
*409 FILLER_21_90
*410 FILLER_22_107
*411 FILLER_22_111
*412 FILLER_22_113
*413 FILLER_22_125
*414 FILLER_22_137
*415 FILLER_22_139
*416 FILLER_22_141
*417 FILLER_22_15
*418 FILLER_22_153
*419 FILLER_22_27
*420 FILLER_22_3
*421 FILLER_22_37
*422 FILLER_22_47
*423 FILLER_22_55
*424 FILLER_22_57
*425 FILLER_22_69
*426 FILLER_22_81
*427 FILLER_22_83
*428 FILLER_22_85
*429 FILLER_22_93
*430 FILLER_22_97
*431 FILLER_2_127
*432 FILLER_2_147
*433 FILLER_2_155
*434 FILLER_2_24
*435 FILLER_2_29
*436 FILLER_2_3
*437 FILLER_2_73
*438 FILLER_2_85
*439 FILLER_3_110
*440 FILLER_3_113
*441 FILLER_3_3
*442 FILLER_3_52
*443 FILLER_3_76
*444 FILLER_3_97
*445 FILLER_4_100
*446 FILLER_4_156
*447 FILLER_4_26
*448 FILLER_4_29
*449 FILLER_4_3
*450 FILLER_4_31
*451 FILLER_4_49
*452 FILLER_4_57
*453 FILLER_4_67
*454 FILLER_4_69
*455 FILLER_4_7
*456 FILLER_4_83
*457 FILLER_4_92
*458 FILLER_4_96
*459 FILLER_5_11
*460 FILLER_5_156
*461 FILLER_5_17
*462 FILLER_5_21
*463 FILLER_5_3
*464 FILLER_5_34
*465 FILLER_5_46
*466 FILLER_5_55
*467 FILLER_5_77
*468 FILLER_5_83
*469 FILLER_6_137
*470 FILLER_6_139
*471 FILLER_6_149
*472 FILLER_6_3
*473 FILLER_6_7
*474 FILLER_6_70
*475 FILLER_6_81
*476 FILLER_6_83
*477 FILLER_6_85
*478 FILLER_6_93
*479 FILLER_7_11
*480 FILLER_7_111
*481 FILLER_7_125
*482 FILLER_7_150
*483 FILLER_7_154
*484 FILLER_7_156
*485 FILLER_7_22
*486 FILLER_7_3
*487 FILLER_7_51
*488 FILLER_7_55
*489 FILLER_7_64
*490 FILLER_7_83
*491 FILLER_8_118
*492 FILLER_8_126
*493 FILLER_8_134
*494 FILLER_8_138
*495 FILLER_8_141
*496 FILLER_8_153
*497 FILLER_8_27
*498 FILLER_8_29
*499 FILLER_8_3
*500 FILLER_8_39
*501 FILLER_8_60
*502 FILLER_8_62
*503 FILLER_8_7
*504 FILLER_8_83
*505 FILLER_8_9
*506 FILLER_8_93
*507 FILLER_9_100
*508 FILLER_9_104
*509 FILLER_9_113
*510 FILLER_9_125
*511 FILLER_9_137
*512 FILLER_9_149
*513 FILLER_9_29
*514 FILLER_9_3
*515 FILLER_9_38
*516 FILLER_9_57
*517 FILLER_9_82
*518 FILLER_9_94
*519 FILLER_9_98
*520 PHY_EDGE_ROW_0_Left_23
*521 PHY_EDGE_ROW_0_Right_0
*522 PHY_EDGE_ROW_10_Left_33
*523 PHY_EDGE_ROW_10_Right_10
*524 PHY_EDGE_ROW_11_Left_34
*525 PHY_EDGE_ROW_11_Right_11
*526 PHY_EDGE_ROW_12_Left_35
*527 PHY_EDGE_ROW_12_Right_12
*528 PHY_EDGE_ROW_13_Left_36
*529 PHY_EDGE_ROW_13_Right_13
*530 PHY_EDGE_ROW_14_Left_37
*531 PHY_EDGE_ROW_14_Right_14
*532 PHY_EDGE_ROW_15_Left_38
*533 PHY_EDGE_ROW_15_Right_15
*534 PHY_EDGE_ROW_16_Left_39
*535 PHY_EDGE_ROW_16_Right_16
*536 PHY_EDGE_ROW_17_Left_40
*537 PHY_EDGE_ROW_17_Right_17
*538 PHY_EDGE_ROW_18_Left_41
*539 PHY_EDGE_ROW_18_Right_18
*540 PHY_EDGE_ROW_19_Left_42
*541 PHY_EDGE_ROW_19_Right_19
*542 PHY_EDGE_ROW_1_Left_24
*543 PHY_EDGE_ROW_1_Right_1
*544 PHY_EDGE_ROW_20_Left_43
*545 PHY_EDGE_ROW_20_Right_20
*546 PHY_EDGE_ROW_21_Left_44
*547 PHY_EDGE_ROW_21_Right_21
*548 PHY_EDGE_ROW_22_Left_45
*549 PHY_EDGE_ROW_22_Right_22
*550 PHY_EDGE_ROW_2_Left_25
*551 PHY_EDGE_ROW_2_Right_2
*552 PHY_EDGE_ROW_3_Left_26
*553 PHY_EDGE_ROW_3_Right_3
*554 PHY_EDGE_ROW_4_Left_27
*555 PHY_EDGE_ROW_4_Right_4
*556 PHY_EDGE_ROW_5_Left_28
*557 PHY_EDGE_ROW_5_Right_5
*558 PHY_EDGE_ROW_6_Left_29
*559 PHY_EDGE_ROW_6_Right_6
*560 PHY_EDGE_ROW_7_Left_30
*561 PHY_EDGE_ROW_7_Right_7
*562 PHY_EDGE_ROW_8_Left_31
*563 PHY_EDGE_ROW_8_Right_8
*564 PHY_EDGE_ROW_9_Left_32
*565 PHY_EDGE_ROW_9_Right_9
*566 TAP_TAPCELL_ROW_0_46
*567 TAP_TAPCELL_ROW_0_47
*568 TAP_TAPCELL_ROW_0_48
*569 TAP_TAPCELL_ROW_0_49
*570 TAP_TAPCELL_ROW_0_50
*571 TAP_TAPCELL_ROW_10_73
*572 TAP_TAPCELL_ROW_10_74
*573 TAP_TAPCELL_ROW_10_75
*574 TAP_TAPCELL_ROW_11_76
*575 TAP_TAPCELL_ROW_11_77
*576 TAP_TAPCELL_ROW_12_78
*577 TAP_TAPCELL_ROW_12_79
*578 TAP_TAPCELL_ROW_12_80
*579 TAP_TAPCELL_ROW_13_81
*580 TAP_TAPCELL_ROW_13_82
*581 TAP_TAPCELL_ROW_14_83
*582 TAP_TAPCELL_ROW_14_84
*583 TAP_TAPCELL_ROW_14_85
*584 TAP_TAPCELL_ROW_15_86
*585 TAP_TAPCELL_ROW_15_87
*586 TAP_TAPCELL_ROW_16_88
*587 TAP_TAPCELL_ROW_16_89
*588 TAP_TAPCELL_ROW_16_90
*589 TAP_TAPCELL_ROW_17_91
*590 TAP_TAPCELL_ROW_17_92
*591 TAP_TAPCELL_ROW_18_93
*592 TAP_TAPCELL_ROW_18_94
*593 TAP_TAPCELL_ROW_18_95
*594 TAP_TAPCELL_ROW_19_96
*595 TAP_TAPCELL_ROW_19_97
*596 TAP_TAPCELL_ROW_1_51
*597 TAP_TAPCELL_ROW_1_52
*598 TAP_TAPCELL_ROW_20_100
*599 TAP_TAPCELL_ROW_20_98
*600 TAP_TAPCELL_ROW_20_99
*601 TAP_TAPCELL_ROW_21_101
*602 TAP_TAPCELL_ROW_21_102
*603 TAP_TAPCELL_ROW_22_103
*604 TAP_TAPCELL_ROW_22_104
*605 TAP_TAPCELL_ROW_22_105
*606 TAP_TAPCELL_ROW_22_106
*607 TAP_TAPCELL_ROW_22_107
*608 TAP_TAPCELL_ROW_2_53
*609 TAP_TAPCELL_ROW_2_54
*610 TAP_TAPCELL_ROW_2_55
*611 TAP_TAPCELL_ROW_3_56
*612 TAP_TAPCELL_ROW_3_57
*613 TAP_TAPCELL_ROW_4_58
*614 TAP_TAPCELL_ROW_4_59
*615 TAP_TAPCELL_ROW_4_60
*616 TAP_TAPCELL_ROW_5_61
*617 TAP_TAPCELL_ROW_5_62
*618 TAP_TAPCELL_ROW_6_63
*619 TAP_TAPCELL_ROW_6_64
*620 TAP_TAPCELL_ROW_6_65
*621 TAP_TAPCELL_ROW_7_66
*622 TAP_TAPCELL_ROW_7_67
*623 TAP_TAPCELL_ROW_8_68
*624 TAP_TAPCELL_ROW_8_69
*625 TAP_TAPCELL_ROW_8_70
*626 TAP_TAPCELL_ROW_9_71
*627 TAP_TAPCELL_ROW_9_72
*628 _113_
*629 _114_
*630 _115_
*631 _116_
*632 _117_
*633 _118_
*634 _119_
*635 _120_
*636 _121_
*637 _122_
*638 _123_
*639 _124_
*640 _125_
*641 _126_
*642 _127_
*643 _128_
*644 _129_
*645 _130_
*646 _131_
*647 _132_
*648 _133_
*649 _134_
*650 _135_
*651 _136_
*652 _137_
*653 _138_
*654 _139_
*655 _140_
*656 _141_
*657 _142_
*658 _143_
*659 _144_
*660 _145_
*661 _146_
*662 _147_
*663 _148_
*664 _149_
*665 _150_
*666 _151_
*667 _152_
*668 _153_
*669 _154_
*670 _155_
*671 _156_
*672 _157_
*673 _158_
*674 _159_
*675 _160_
*676 _161_
*677 _162_
*678 _163_
*679 _164_
*680 _165_
*681 _166_
*682 _167_
*683 _168_
*684 _169_
*685 _170_
*686 _171_
*687 _172_
*688 _173_
*689 _174_
*690 _175_
*691 _176_
*692 _177_
*693 _178_
*694 _179_
*695 _180_
*696 _181_
*697 _182_
*698 _183_
*699 _184_
*700 _185_
*701 _186_
*702 _187_
*703 _188_
*704 _189_
*705 _190_
*706 _191_
*707 _192_
*708 _193_
*709 _194_
*710 _195_
*711 _196_
*712 _197_
*713 _198_
*714 _199_
*715 _200_
*716 _201_
*717 _202_
*718 _203_
*719 _204_
*720 _205_
*721 _206_
*722 _207_
*723 _208_
*724 _209_
*725 _210_
*726 _211_
*727 _212_
*728 _213_
*729 _214_
*730 _215_
*731 _216_
*732 _217_
*733 _218_
*734 _219_
*735 _220_
*736 _221_
*737 _222_
*738 _223_
*739 _224_
*740 _225_
*741 _226_
*742 _227_
*743 _228_
*744 _229_
*745 _230_
*746 _231_
*747 _232_
*748 _233_
*749 _234_
*750 _235_
*751 _236_
*752 _237_
*753 _238_
*754 _239_
*755 _240_
*756 _241_
*757 _242_
*758 _243_
*759 _244_
*760 _245_
*761 _246_
*762 _247_
*763 _248_
*764 _249_
*765 _250_
*766 _251_
*767 _252_
*768 _253_
*769 _254_
*770 _255_
*771 _256_
*772 _257_
*773 _258_
*774 _259_
*775 _260_
*776 _261_
*777 _262_
*778 _263_
*779 _264_
*780 _265_
*781 _266_
*782 _267_
*783 _268_
*784 _269_
*785 _270_
*786 clkbuf_0_clk_i
*787 clkbuf_2_0__f_clk_i
*788 clkbuf_2_1__f_clk_i
*789 clkbuf_2_2__f_clk_i
*790 clkbuf_2_3__f_clk_i
*791 clkload0
*792 clkload1
*793 clkload2
*794 fanout10
*795 fanout11
*796 fanout12
*797 fanout13
*798 fanout14
*799 fanout15
*800 fanout16
*801 fanout17
*802 fanout18
*803 fanout19
*804 fanout7
*805 fanout8
*806 fanout9
*807 hold1
*808 hold10
*809 hold11
*810 hold12
*811 hold13
*812 hold14
*813 hold15
*814 hold16
*815 hold17
*816 hold18
*817 hold19
*818 hold2
*819 hold20
*820 hold21
*821 hold22
*822 hold23
*823 hold24
*824 hold25
*825 hold26
*826 hold27
*827 hold28
*828 hold29
*829 hold3
*830 hold30
*831 hold31
*832 hold32
*833 hold33
*834 hold34
*835 hold35
*836 hold36
*837 hold37
*838 hold38
*839 hold39
*840 hold4
*841 hold40
*842 hold41
*843 hold42
*844 hold43
*845 hold44
*846 hold45
*847 hold46
*848 hold47
*849 hold48
*850 hold49
*851 hold5
*852 hold50
*853 hold51
*854 hold6
*855 hold7
*856 hold8
*857 hold9
*858 input1
*859 input2
*860 input3
*861 output4
*862 output5
*863 output6

*PORTS
clk_i I
num_to_send_o[0] O
num_to_send_o[1] O
num_to_send_o[2] O
req_num_i I
rst_i I
wr_i I

*D_NET *3 0.0101492
*CONN
*P clk_i I
*I *786:A I *D sky130_fd_sc_hd__clkbuf_16
*CAP
1 clk_i 0.00383206
2 *786:A 1.49942e-05
3 *3:13 0.00384705
4 *786:A *643:A2 5.50049e-05
5 *786:A *130:62 5.50106e-05
6 *3:13 *638:B1 6.83697e-05
7 *3:13 *639:A1 0
8 *3:13 *644:A 4.13945e-05
9 *3:13 *650:A2 0.00015795
10 *3:13 *755:CLK 0.000101071
11 *3:13 *8:11 8.06147e-05
12 *3:13 *25:10 0.000111852
13 *3:13 *52:10 0
14 *3:13 *53:10 0
15 *3:13 *59:16 0
16 *3:13 *115:118 7.20518e-05
17 *3:13 *119:10 0.000116687
18 *3:13 *121:10 0.00036992
19 *3:13 *122:8 0
20 *3:13 *130:56 9.48381e-06
21 *3:13 *130:80 0
22 *3:13 *131:40 0.000259658
23 *3:13 *132:47 5.73167e-05
24 *3:13 *132:123 0.000104555
25 *3:13 *149:18 7.29119e-05
26 *3:13 *159:23 0
27 *3:13 *213:10 0.000136486
28 *3:13 *216:24 9.20311e-06
29 *3:13 *217:25 0.000575568
*RES
1 clk_i *3:13 40.1763 
2 *3:13 *786:A 38.6214 
*END

*D_NET *4 0.000956706
*CONN
*P num_to_send_o[0] O
*I *861:X O *D sky130_fd_sc_hd__buf_2
*CAP
1 num_to_send_o[0] 0.000451284
2 *861:X 0.000451284
3 num_to_send_o[0] *161:18 5.41385e-05
*RES
1 *861:X num_to_send_o[0] 47.0936 
*END

*D_NET *5 0.00070306
*CONN
*P num_to_send_o[1] O
*I *862:X O *D sky130_fd_sc_hd__buf_2
*CAP
1 num_to_send_o[1] 0.000315789
2 *862:X 0.000315789
3 num_to_send_o[1] num_to_send_o[2] 7.1481e-05
*RES
1 *862:X num_to_send_o[1] 48.7952 
*END

*D_NET *6 0.00144855
*CONN
*P num_to_send_o[2] O
*I *863:X O *D sky130_fd_sc_hd__buf_2
*CAP
1 num_to_send_o[2] 0.000642738
2 *863:X 0.000642738
3 num_to_send_o[2] *724:S 1.95789e-05
4 num_to_send_o[2] *133:18 7.20154e-05
5 num_to_send_o[1] num_to_send_o[2] 7.1481e-05
*RES
1 *863:X num_to_send_o[2] 49.243 
*END

*D_NET *7 0.00100458
*CONN
*P req_num_i I
*I *858:A I *D sky130_fd_sc_hd__clkbuf_1
*CAP
1 req_num_i 0.000500909
2 *858:A 0.000500909
3 *858:A *161:8 2.76611e-06
*RES
1 req_num_i *858:A 48.2743 
*END

*D_NET *8 0.0011946
*CONN
*P rst_i I
*I *859:A I *D sky130_fd_sc_hd__clkbuf_1
*CAP
1 rst_i 0.000359552
2 *859:A 0
3 *8:11 0.000359552
4 *8:11 *125:76 0.000238762
5 *8:11 *125:93 0.000156117
6 *3:13 *8:11 8.06147e-05
*RES
1 rst_i *8:11 29.0089 
2 *8:11 *859:A 23 
*END

*D_NET *9 0.000753881
*CONN
*P wr_i I
*I *860:A I *D sky130_fd_sc_hd__clkbuf_1
*CAP
1 wr_i 0.000376941
2 *860:A 0
3 *9:17 0.000376941
4 *9:17 *759:CLK 0
*RES
1 wr_i *9:17 28.2148 
2 *9:17 *860:A 23 
*END

*D_NET *10 0.00124974
*CONN
*I *785:D I *D sky130_fd_sc_hd__dfrtp_1
*I *672:X O *D sky130_fd_sc_hd__and2b_1
*CAP
1 *785:D 0
2 *672:X 0.000482666
3 *10:10 0.000482666
4 *10:10 *672:A_N 2.93747e-05
5 *10:10 *672:B 0
6 *10:10 *770:CLK 0.000168744
7 *10:10 *142:8 8.62876e-05
8 *10:10 *161:18 0
9 *10:10 *238:8 0
*RES
1 *672:X *10:10 45.8507 
2 *10:10 *785:D 38 
*END

*D_NET *11 0.00554396
*CONN
*I *701:C I *D sky130_fd_sc_hd__and3_1
*I *680:B1 I *D sky130_fd_sc_hd__a211o_1
*I *696:C1 I *D sky130_fd_sc_hd__a211o_1
*I *748:D I *D sky130_fd_sc_hd__dfrtp_4
*I *630:Y O *D sky130_fd_sc_hd__inv_2
*CAP
1 *701:C 0.000281165
2 *680:B1 0
3 *696:C1 0.000192334
4 *748:D 0.000288655
5 *630:Y 0.000379625
6 *11:42 0.000329268
7 *11:16 0.000987458
8 *11:10 0.000934197
9 *696:C1 *696:B1 2.15138e-05
10 *696:C1 *86:10 0.000134088
11 *696:C1 *93:8 0
12 *696:C1 *106:10 1.01436e-05
13 *696:C1 *112:37 7.52238e-05
14 *696:C1 *204:41 3.14587e-06
15 *701:C *680:C1 6.48049e-05
16 *701:C *694:A 1.03836e-05
17 *701:C *701:A 0.000308807
18 *701:C *112:72 6.04112e-05
19 *701:C *206:18 7.39034e-05
20 *748:D *748:RESET_B 0
21 *748:D *86:10 8.62783e-05
22 *748:D *112:18 4.87927e-05
23 *748:D *112:37 0.000182652
24 *748:D *126:24 7.53384e-06
25 *748:D *204:22 5.30518e-05
26 *11:10 *686:B 0.000110389
27 *11:10 *113:55 0.000136857
28 *11:10 *204:67 8.4047e-05
29 *11:16 *696:B1 0.000135037
30 *11:16 *83:10 0.000140434
31 *11:16 *85:10 0.000136743
32 *11:16 *203:85 0.000136738
33 *11:42 *680:C1 1.14452e-05
34 *11:42 *701:A 1.01436e-05
35 *11:42 *113:55 3.47879e-05
36 *11:42 *204:67 7.39034e-05
*RES
1 *630:Y *11:10 43.6343 
2 *11:10 *11:16 36.815 
3 *11:16 *748:D 43.945 
4 *11:16 *696:C1 41.3764 
5 *11:10 *11:42 1.20143 
6 *11:42 *680:B1 38 
7 *11:42 *701:C 42.9921 
*END

*D_NET *12 0.000607505
*CONN
*I *749:D I *D sky130_fd_sc_hd__dfrtp_4
*I *673:X O *D sky130_fd_sc_hd__xor2_1
*CAP
1 *749:D 6.19372e-05
2 *673:X 0.000129311
3 *12:8 0.000191248
4 *749:D *749:CLK 7.53384e-06
5 *749:D *87:29 0.000139357
6 *12:8 *87:14 0
7 *12:8 *126:118 0
8 *12:8 *206:82 7.81176e-05
*RES
1 *673:X *12:8 40.61 
2 *12:8 *749:D 39.5743 
*END

*D_NET *13 0.00117139
*CONN
*I *815:A I *D sky130_fd_sc_hd__dlygate4sd3_1
*I *675:X O *D sky130_fd_sc_hd__mux2_1
*CAP
1 *815:A 0
2 *675:X 0.000218207
3 *13:10 0.000218207
4 *13:10 *743:CLK 9.75779e-05
5 *13:10 *157:10 4.85126e-05
6 *13:10 *200:19 0.000345295
7 *13:10 *223:18 0.000243587
*RES
1 *675:X *13:10 43.8207 
2 *13:10 *815:A 38 
*END

*D_NET *14 0.000668219
*CONN
*I *857:A I *D sky130_fd_sc_hd__dlygate4sd3_1
*I *676:X O *D sky130_fd_sc_hd__mux2_1
*CAP
1 *857:A 0
2 *676:X 8.56083e-05
3 *14:10 8.56083e-05
4 *14:10 *664:C1 0.00028687
5 *14:10 *225:31 0.000210133
*RES
1 *676:X *14:10 27.1221 
2 *14:10 *857:A 23 
*END

*D_NET *15 0.000530772
*CONN
*I *855:A I *D sky130_fd_sc_hd__dlygate4sd3_1
*I *677:X O *D sky130_fd_sc_hd__mux2_1
*CAP
1 *855:A 0.000145008
2 *677:X 9.99509e-05
3 *15:8 0.000244959
4 *15:8 *146:10 4.08537e-05
*RES
1 *677:X *15:8 39.9057 
2 *15:8 *855:A 40.5271 
*END

*D_NET *16 0.000600869
*CONN
*I *745:D I *D sky130_fd_sc_hd__dfrtp_1
*I *692:X O *D sky130_fd_sc_hd__o22a_1
*CAP
1 *745:D 0
2 *692:X 0.000218792
3 *16:10 0.000218792
4 *16:10 *96:20 9.84794e-05
5 *16:10 *117:25 0
6 *16:10 *203:42 6.48049e-05
*RES
1 *692:X *16:10 41.3557 
2 *16:10 *745:D 38 
*END

*D_NET *17 0.00114316
*CONN
*I *746:D I *D sky130_fd_sc_hd__dfrtp_4
*I *699:Y O *D sky130_fd_sc_hd__o21ai_1
*CAP
1 *746:D 0
2 *699:Y 0.000376568
3 *17:10 0.000376568
4 *17:10 *697:B1 0
5 *17:10 *699:A2 1.32314e-05
6 *17:10 *699:B1 4.04598e-06
7 *17:10 *96:10 0
8 *17:10 *115:146 9.22856e-05
9 *17:10 *118:25 1.68748e-05
10 *17:10 *126:118 6.95872e-05
11 *17:10 *153:8 0.000141888
12 *17:10 *200:19 5.21127e-05
*RES
1 *699:Y *17:10 46.2857 
2 *17:10 *746:D 38 
*END

*D_NET *18 0.000400893
*CONN
*I *747:D I *D sky130_fd_sc_hd__dfrtp_1
*I *706:X O *D sky130_fd_sc_hd__o21a_1
*CAP
1 *747:D 4.49133e-05
2 *706:X 9.66044e-05
3 *18:8 0.000141518
4 *747:D *747:CLK 6.17437e-06
5 *747:D *126:84 2.64616e-05
6 *18:8 *123:36 2.26385e-05
7 *18:8 *126:82 0
8 *18:8 *126:101 6.25829e-05
*RES
1 *706:X *18:8 39.9057 
2 *18:8 *747:D 38.6214 
*END

*D_NET *19 0.000149532
*CONN
*I *823:A I *D sky130_fd_sc_hd__dlygate4sd3_1
*I *707:X O *D sky130_fd_sc_hd__mux2_1
*CAP
1 *823:A 5.32124e-05
2 *707:X 5.32124e-05
3 *823:A *164:14 4.31076e-05
*RES
1 *707:X *823:A 47.1186 
*END

*D_NET *20 0.000841579
*CONN
*I *827:A I *D sky130_fd_sc_hd__dlygate4sd3_1
*I *708:X O *D sky130_fd_sc_hd__mux2_1
*CAP
1 *827:A 1.80182e-05
2 *708:X 0.000194863
3 *20:8 0.000212881
4 *827:A *127:123 5.50106e-05
5 *827:A *132:22 2.93845e-05
6 *20:8 *127:95 0
7 *20:8 *127:110 8.75792e-05
8 *20:8 *137:43 0.000194309
9 *20:8 *169:10 4.95339e-05
10 *20:8 *233:21 0
*RES
1 *708:X *20:8 42.7229 
2 *20:8 *827:A 38.6214 
*END

*D_NET *21 0.000485838
*CONN
*I *830:A I *D sky130_fd_sc_hd__dlygate4sd3_1
*I *709:X O *D sky130_fd_sc_hd__mux2_1
*CAP
1 *830:A 0
2 *709:X 0.000192583
3 *21:10 0.000192583
4 *21:10 *137:10 4.58924e-05
5 *21:10 *138:114 0
6 *21:10 *171:8 0
7 *21:10 *233:21 5.47808e-05
*RES
1 *709:X *21:10 41.48 
2 *21:10 *830:A 38 
*END

*D_NET *22 0.00081426
*CONN
*I *753:D I *D sky130_fd_sc_hd__dfrtp_1
*I *710:X O *D sky130_fd_sc_hd__mux2_1
*CAP
1 *753:D 0.000137683
2 *710:X 0.000133126
3 *22:8 0.000270809
4 *753:D *713:A0 7.44354e-05
5 *753:D *75:24 0.000198206
6 *22:8 *713:A0 0
7 *22:8 *123:45 0
8 *22:8 *129:55 0
*RES
1 *710:X *22:8 40.2579 
2 *22:8 *753:D 41.9564 
*END

*D_NET *23 0.000478437
*CONN
*I *754:D I *D sky130_fd_sc_hd__dfrtp_1
*I *711:X O *D sky130_fd_sc_hd__mux2_1
*CAP
1 *754:D 0
2 *711:X 0.000130971
3 *23:10 0.000130971
4 *23:10 *711:A1 0.00010018
5 *23:10 *756:RESET_B 0
6 *23:10 *132:47 0.000116314
*RES
1 *711:X *23:10 40.6514 
2 *23:10 *754:D 38 
*END

*D_NET *24 0.000801479
*CONN
*I *755:D I *D sky130_fd_sc_hd__dfrtp_1
*I *712:X O *D sky130_fd_sc_hd__mux2_1
*CAP
1 *755:D 5.49651e-05
2 *712:X 0.000219563
3 *24:8 0.000274528
4 *755:D *119:10 0.000140259
5 *755:D *218:18 6.17437e-06
6 *24:8 *777:RESET_B 0
7 *24:8 *833:A 7.55832e-05
8 *24:8 *151:10 0
9 *24:8 *218:18 3.04062e-05
*RES
1 *712:X *24:8 42.3707 
2 *24:8 *755:D 39.5743 
*END

*D_NET *25 0.000631215
*CONN
*I *756:D I *D sky130_fd_sc_hd__dfrtp_1
*I *713:X O *D sky130_fd_sc_hd__mux2_1
*CAP
1 *756:D 0.000114036
2 *713:X 0.000115831
3 *25:10 0.000229867
4 *25:10 *130:80 3.31683e-05
5 *25:10 *131:40 2.64616e-05
6 *3:13 *25:10 0.000111852
*RES
1 *713:X *25:10 40.175 
2 *25:10 *756:D 39.5743 
*END

*D_NET *26 0.000164066
*CONN
*I *837:A I *D sky130_fd_sc_hd__dlygate4sd3_1
*I *714:X O *D sky130_fd_sc_hd__mux2_1
*CAP
1 *837:A 3.00232e-05
2 *714:X 3.00232e-05
3 *837:A *718:S 4.66786e-05
4 *837:A *132:47 5.73404e-05
*RES
1 *714:X *837:A 47.1186 
*END

*D_NET *27 0.00070435
*CONN
*I *758:D I *D sky130_fd_sc_hd__dfrtp_1
*I *715:X O *D sky130_fd_sc_hd__mux2_1
*CAP
1 *758:D 0
2 *715:X 0.000352175
3 *27:10 0.000352175
4 *27:10 *125:93 0
5 *27:10 *173:19 0
*RES
1 *715:X *27:10 43.1371 
2 *27:10 *758:D 38 
*END

*D_NET *28 0.0010078
*CONN
*I *760:D I *D sky130_fd_sc_hd__dfrtp_1
*I *716:X O *D sky130_fd_sc_hd__mux2_1
*CAP
1 *760:D 0
2 *716:X 0.000251846
3 *28:10 0.000251846
4 *28:10 *54:10 8.4047e-05
5 *28:10 *58:12 0.000351626
6 *28:10 *115:18 6.8437e-05
7 *28:10 *131:21 0
*RES
1 *716:X *28:10 43.8207 
2 *28:10 *760:D 38 
*END

*D_NET *29 0.000778867
*CONN
*I *842:A I *D sky130_fd_sc_hd__dlygate4sd3_1
*I *717:X O *D sky130_fd_sc_hd__mux2_1
*CAP
1 *842:A 0
2 *717:X 0.000360965
3 *29:10 0.000360965
4 *29:10 *717:A0 5.69373e-05
5 *29:10 *135:28 0
6 *29:10 *138:27 0
*RES
1 *717:X *29:10 42.9093 
2 *29:10 *842:A 38 
*END

*D_NET *30 0.000886458
*CONN
*I *832:A I *D sky130_fd_sc_hd__dlygate4sd3_1
*I *718:X O *D sky130_fd_sc_hd__mux2_1
*CAP
1 *832:A 0
2 *718:X 0.000382588
3 *30:10 0.000382588
4 *30:10 *718:A0 7.53384e-06
5 *30:10 *132:123 0.000113749
6 *30:10 *174:8 0
*RES
1 *718:X *30:10 44.7736 
2 *30:10 *832:A 38 
*END

*D_NET *31 0.00181705
*CONN
*I *821:A I *D sky130_fd_sc_hd__dlygate4sd3_1
*I *719:X O *D sky130_fd_sc_hd__mux2_1
*CAP
1 *821:A 0.000116967
2 *719:X 0.000394775
3 *31:10 0.000511742
4 *821:A *763:D 9.84851e-05
5 *821:A *126:101 0.000359332
6 *31:10 *80:8 0.000122417
7 *31:10 *123:36 0
8 *31:10 *207:21 9.84794e-05
9 *31:10 *210:44 0.000114856
*RES
1 *719:X *31:10 45.7471 
2 *31:10 *821:A 41.9564 
*END

*D_NET *32 0.000587839
*CONN
*I *845:A I *D sky130_fd_sc_hd__dlygate4sd3_1
*I *720:X O *D sky130_fd_sc_hd__mux2_1
*CAP
1 *845:A 3.52192e-05
2 *720:X 7.44884e-05
3 *32:8 0.000109708
4 *845:A *660:C1 9.41704e-05
5 *845:A *76:8 9.77405e-05
6 *32:8 *70:8 5.11807e-05
7 *32:8 *230:33 0.000125332
*RES
1 *720:X *32:8 39.9057 
2 *32:8 *845:A 39.0979 
*END

*D_NET *33 0.000501278
*CONN
*I *765:D I *D sky130_fd_sc_hd__dfrtp_1
*I *721:X O *D sky130_fd_sc_hd__mux2_1
*CAP
1 *765:D 0
2 *721:X 0.00023157
3 *33:10 0.00023157
4 *33:10 *125:31 3.81391e-05
*RES
1 *721:X *33:10 41.6043 
2 *33:10 *765:D 38 
*END

*D_NET *34 0.000507722
*CONN
*I *766:D I *D sky130_fd_sc_hd__dfrtp_1
*I *722:X O *D sky130_fd_sc_hd__mux2_1
*CAP
1 *766:D 0
2 *722:X 0.000133553
3 *34:10 0.000133553
4 *34:10 *766:CLK 4.48568e-05
5 *34:10 *134:36 0.000138718
6 *34:10 *194:22 5.70419e-05
*RES
1 *722:X *34:10 41.0036 
2 *34:10 *766:D 38 
*END

*D_NET *35 0.000487988
*CONN
*I *767:D I *D sky130_fd_sc_hd__dfrtp_1
*I *723:X O *D sky130_fd_sc_hd__mux2_1
*CAP
1 *767:D 0
2 *723:X 0.000238784
3 *35:10 0.000238784
4 *35:10 *772:CLK 0
5 *35:10 *124:22 0
6 *35:10 *172:49 1.04196e-05
7 *35:10 *194:48 0
*RES
1 *723:X *35:10 41.7079 
2 *35:10 *767:D 38 
*END

*D_NET *36 0.00111935
*CONN
*I *835:A I *D sky130_fd_sc_hd__dlygate4sd3_1
*I *724:X O *D sky130_fd_sc_hd__mux2_1
*CAP
1 *835:A 0
2 *724:X 0.000372953
3 *36:10 0.000372953
4 *36:10 *721:A1 0.000129513
5 *36:10 *724:A0 0.000238559
6 *36:10 *724:A1 5.37348e-06
7 *36:10 *177:10 0
*RES
1 *724:X *36:10 45.25 
2 *36:10 *835:A 38 
*END

*D_NET *37 0.000868019
*CONN
*I *770:D I *D sky130_fd_sc_hd__dfrtp_1
*I *725:X O *D sky130_fd_sc_hd__mux2_1
*CAP
1 *770:D 0
2 *725:X 0.000191255
3 *37:10 0.000191255
4 *37:10 *766:CLK 4.59027e-05
5 *37:10 *770:CLK 5.93278e-05
6 *37:10 *770:RESET_B 0.000141879
7 *37:10 *129:14 5.3304e-05
8 *37:10 *134:36 0.000185095
*RES
1 *725:X *37:10 42.9921 
2 *37:10 *770:D 38 
*END

*D_NET *38 0.000854019
*CONN
*I *771:D I *D sky130_fd_sc_hd__dfrtp_1
*I *726:X O *D sky130_fd_sc_hd__mux2_1
*CAP
1 *771:D 7.65763e-05
2 *726:X 0.000155752
3 *38:8 0.000232328
4 *771:D *124:14 4.74443e-05
5 *38:8 *116:12 0.000296026
6 *38:8 *133:20 0
7 *38:8 *208:8 4.58924e-05
*RES
1 *726:X *38:8 42.0186 
2 *38:8 *771:D 38.9995 
*END

*D_NET *39 0.000536382
*CONN
*I *772:D I *D sky130_fd_sc_hd__dfrtp_1
*I *727:X O *D sky130_fd_sc_hd__mux2_1
*CAP
1 *772:D 0
2 *727:X 0.000196136
3 *39:10 0.000196136
4 *39:10 *724:S 0
5 *39:10 *172:49 0.00014411
*RES
1 *727:X *39:10 41.48 
2 *39:10 *772:D 38 
*END

*D_NET *40 0.00134424
*CONN
*I *773:D I *D sky130_fd_sc_hd__dfrtp_1
*I *728:X O *D sky130_fd_sc_hd__or2_1
*CAP
1 *773:D 0
2 *728:X 0.000545004
3 *40:10 0.000545004
4 *40:10 *759:CLK 2.22079e-05
5 *40:10 *41:10 3.5664e-05
6 *40:10 *124:22 0.000123256
7 *40:10 *124:24 7.31082e-05
8 *40:10 *124:50 0
9 *40:10 *154:12 0
*RES
1 *728:X *40:10 48.7714 
2 *40:10 *773:D 38 
*END

*D_NET *41 0.00101651
*CONN
*I *774:D I *D sky130_fd_sc_hd__dfrtp_1
*I *729:X O *D sky130_fd_sc_hd__mux2_1
*CAP
1 *774:D 7.99385e-05
2 *729:X 0.0003037
3 *41:10 0.000383639
4 *774:D *775:CLK 7.88926e-05
5 *41:10 *729:A1 2.9938e-05
6 *41:10 *812:A 3.22879e-05
7 *41:10 *154:6 7.24484e-05
8 *41:10 *228:10 0
9 *40:10 *41:10 3.5664e-05
*RES
1 *729:X *41:10 43.0336 
2 *41:10 *774:D 39.5743 
*END

*D_NET *42 0.000765236
*CONN
*I *775:D I *D sky130_fd_sc_hd__dfrtp_1
*I *730:X O *D sky130_fd_sc_hd__mux2_1
*CAP
1 *775:D 0
2 *730:X 0.000309207
3 *42:10 0.000309207
4 *42:10 *730:A1 0.000123902
5 *42:10 *133:22 0
6 *42:10 *133:24 0
7 *42:10 *229:10 2.29192e-05
*RES
1 *730:X *42:10 42.785 
2 *42:10 *775:D 38 
*END

*D_NET *43 0.00159021
*CONN
*I *776:D I *D sky130_fd_sc_hd__dfrtp_1
*I *731:X O *D sky130_fd_sc_hd__mux2_1
*CAP
1 *776:D 0.000329905
2 *731:X 5.62067e-05
3 *43:8 0.000386111
4 *776:D *776:RESET_B 0.000124348
5 *776:D *81:10 3.7122e-06
6 *776:D *196:31 0.00035919
7 *776:D *231:6 5.3304e-05
8 *43:8 *123:23 0.000138718
9 *43:8 *214:8 0.000138718
*RES
1 *731:X *43:8 39.9057 
2 *43:8 *776:D 46.2443 
*END

*D_NET *44 0.000852922
*CONN
*I *809:A I *D sky130_fd_sc_hd__dlygate4sd3_1
*I *732:X O *D sky130_fd_sc_hd__mux2_1
*CAP
1 *809:A 0
2 *732:X 0.000291703
3 *44:10 0.000291703
4 *44:10 *45:10 0
5 *44:10 *119:10 9.84851e-05
6 *44:10 *149:18 4.6318e-06
7 *44:10 *196:97 0.000157185
8 *44:10 *221:12 9.21347e-06
*RES
1 *732:X *44:10 43.8207 
2 *44:10 *809:A 38 
*END

*D_NET *45 0.000447543
*CONN
*I *778:D I *D sky130_fd_sc_hd__dfrtp_1
*I *733:X O *D sky130_fd_sc_hd__mux2_1
*CAP
1 *778:D 0
2 *733:X 0.000164114
3 *45:10 0.000164114
4 *45:10 *638:B1 3.83778e-05
5 *45:10 *733:S 1.21972e-05
6 *45:10 *808:A 1.37349e-05
7 *45:10 *119:10 5.50049e-05
8 *45:10 *149:18 0
9 *44:10 *45:10 0
*RES
1 *733:X *45:10 40.6514 
2 *45:10 *778:D 38 
*END

*D_NET *46 0.00059446
*CONN
*I *779:D I *D sky130_fd_sc_hd__dfrtp_1
*I *734:X O *D sky130_fd_sc_hd__mux2_1
*CAP
1 *779:D 0
2 *734:X 0.000209757
3 *46:10 0.000209757
4 *46:10 *137:29 0.000100519
5 *46:10 *197:115 0
6 *46:10 *197:125 7.44257e-05
*RES
1 *734:X *46:10 41.48 
2 *46:10 *779:D 38 
*END

*D_NET *47 0.000634493
*CONN
*I *851:A I *D sky130_fd_sc_hd__dlygate4sd3_1
*I *735:X O *D sky130_fd_sc_hd__mux2_1
*CAP
1 *851:A 0
2 *735:X 0.00015608
3 *47:8 0.00015608
4 *47:8 *143:10 0.000322334
*RES
1 *735:X *47:8 27.3293 
2 *47:8 *851:A 23 
*END

*D_NET *48 0.000749282
*CONN
*I *782:D I *D sky130_fd_sc_hd__dfrtp_2
*I *738:X O *D sky130_fd_sc_hd__and2_1
*CAP
1 *782:D 0
2 *738:X 0.000232893
3 *48:10 0.000232893
4 *48:10 *128:8 5.45887e-05
5 *48:10 *202:16 0.000228909
*RES
1 *738:X *48:10 42.0807 
2 *48:10 *782:D 38 
*END

*D_NET *49 0.000414158
*CONN
*I *783:D I *D sky130_fd_sc_hd__dfrtp_4
*I *739:Y O *D sky130_fd_sc_hd__xnor2_1
*CAP
1 *783:D 0.000109097
2 *739:Y 0.000109097
3 *783:D *117:38 9.91798e-05
4 *783:D *202:31 9.67842e-05
*RES
1 *739:Y *783:D 48.5479 
*END

*D_NET *50 0.000915437
*CONN
*I *784:D I *D sky130_fd_sc_hd__dfrtp_2
*I *741:X O *D sky130_fd_sc_hd__a31o_1
*CAP
1 *784:D 4.41216e-05
2 *741:X 0.000263273
3 *50:10 0.000307394
4 *784:D *94:8 0.000103637
5 *784:D *96:20 0.000103637
6 *50:10 *740:B1 5.50106e-05
7 *50:10 *741:A3 3.22879e-05
8 *50:10 *784:RESET_B 0
9 *50:10 *117:57 6.07611e-06
10 *50:10 *126:10 0
11 *50:10 *126:14 0
*RES
1 *741:X *50:10 41.9357 
2 *50:10 *784:D 40.0507 
*END

*D_NET *51 0.00167312
*CONN
*I *642:C1 I *D sky130_fd_sc_hd__o211ai_1
*I *640:Y O *D sky130_fd_sc_hd__xnor2_1
*CAP
1 *642:C1 0
2 *640:Y 0.000549248
3 *51:10 0.000549248
4 *51:10 *761:RESET_B 0.000272734
5 *51:10 *125:20 0.000187129
6 *51:10 *138:33 0
7 *51:10 *211:34 0.000108681
8 *51:10 *230:33 6.07611e-06
*RES
1 *640:Y *51:10 46.7207 
2 *51:10 *642:C1 38 
*END

*D_NET *52 0.00103699
*CONN
*I *643:B1 I *D sky130_fd_sc_hd__a211o_1
*I *641:X O *D sky130_fd_sc_hd__a2bb2o_1
*CAP
1 *643:B1 0
2 *641:X 0.000318742
3 *52:10 0.000318742
4 *52:10 *643:A2 0
5 *52:10 *668:B1 6.32792e-05
6 *52:10 *53:10 1.14452e-05
7 *52:10 *115:18 0.000269781
8 *52:10 *115:41 5.50049e-05
9 *52:10 *130:56 0
10 *3:13 *52:10 0
*RES
1 *641:X *52:10 43.3857 
2 *52:10 *643:B1 38 
*END

*D_NET *53 0.0017715
*CONN
*I *643:C1 I *D sky130_fd_sc_hd__a211o_1
*I *642:Y O *D sky130_fd_sc_hd__o211ai_1
*CAP
1 *643:C1 0
2 *642:Y 0.000440584
3 *53:10 0.000440584
4 *53:10 *668:B1 3.70094e-05
5 *53:10 *760:RESET_B 0.000134234
6 *53:10 *764:RESET_B 5.62433e-05
7 *53:10 *798:A 0.000186606
8 *53:10 *819:A 5.25848e-05
9 *53:10 *134:8 0.000393293
10 *53:10 *159:23 6.7177e-06
11 *53:10 *211:24 1.21972e-05
12 *3:13 *53:10 0
13 *52:10 *53:10 1.14452e-05
*RES
1 *642:Y *53:10 48.3779 
2 *53:10 *643:C1 38 
*END

*D_NET *54 0.00154627
*CONN
*I *669:A I *D sky130_fd_sc_hd__and4_1
*I *643:X O *D sky130_fd_sc_hd__a211o_1
*CAP
1 *669:A 0
2 *643:X 0.000490219
3 *54:10 0.000490219
4 *54:10 *643:A2 9.75779e-05
5 *54:10 *81:18 9.20311e-06
6 *54:10 *129:53 0.000352421
7 *54:10 *130:62 2.25809e-05
8 *54:10 *131:21 0
9 *28:10 *54:10 8.4047e-05
*RES
1 *643:X *54:10 45.4157 
2 *54:10 *669:A 38 
*END

*D_NET *55 0.00245623
*CONN
*I *647:B1 I *D sky130_fd_sc_hd__a211o_1
*I *644:X O *D sky130_fd_sc_hd__xor2_1
*CAP
1 *647:B1 0.000143483
2 *644:X 0.000419643
3 *55:8 0.000563127
4 *647:B1 *647:A2 8.13415e-05
5 *647:B1 *115:99 0.000481943
6 *647:B1 *130:97 0.00018418
7 *55:8 *711:S 0.000376242
8 *55:8 *756:RESET_B 0.00018406
9 *55:8 *129:89 0
10 *55:8 *135:102 2.22079e-05
*RES
1 *644:X *55:8 48.005 
2 *55:8 *647:B1 43.8829 
*END

*D_NET *56 0.000433943
*CONN
*I *646:C1 I *D sky130_fd_sc_hd__o211ai_1
*I *645:Y O *D sky130_fd_sc_hd__xnor2_1
*CAP
1 *646:C1 6.76212e-05
2 *645:Y 6.76212e-05
3 *646:C1 *645:B 7.88828e-05
4 *646:C1 *708:A1 3.52912e-05
5 *646:C1 *199:67 0.000184527
*RES
1 *645:Y *646:C1 48.5479 
*END

*D_NET *57 0.000280858
*CONN
*I *647:C1 I *D sky130_fd_sc_hd__a211o_1
*I *646:Y O *D sky130_fd_sc_hd__o211ai_1
*CAP
1 *647:C1 0
2 *646:Y 0.000115545
3 *57:8 0.000115545
4 *57:8 *646:A1 4.13358e-05
5 *57:8 *123:45 0
6 *57:8 *130:97 4.21594e-06
7 *57:8 *199:67 0
8 *57:8 *219:53 4.21594e-06
*RES
1 *646:Y *57:8 39.9057 
2 *57:8 *647:C1 38 
*END

*D_NET *58 0.00307519
*CONN
*I *669:B I *D sky130_fd_sc_hd__and4_1
*I *647:X O *D sky130_fd_sc_hd__a211o_1
*CAP
1 *669:B 0
2 *647:X 0.000107944
3 *58:12 0.00048088
4 *58:8 0.000588824
5 *58:8 *130:97 0.000182832
6 *58:12 *711:S 0.000138718
7 *58:12 *713:S 0.000236011
8 *58:12 *81:18 0.000613795
9 *58:12 *127:28 0.000106707
10 *58:12 *129:55 0.000181054
11 *58:12 *129:64 8.67978e-05
12 *58:12 *131:21 0
13 *28:10 *58:12 0.000351626
*RES
1 *647:X *58:8 40.0507 
2 *58:8 *58:12 30.6393 
3 *58:12 *669:B 23 
*END

*D_NET *59 0.00500906
*CONN
*I *651:B1 I *D sky130_fd_sc_hd__a211o_1
*I *648:X O *D sky130_fd_sc_hd__xor2_1
*CAP
1 *651:B1 0
2 *648:X 0.00110307
3 *59:16 0.00066444
4 *59:6 0.00176751
5 *59:6 *649:A 1.59071e-05
6 *59:6 *649:B 6.8137e-05
7 *59:6 *60:8 0.000395895
8 *59:16 *650:C1 0.000697172
9 *59:16 *651:A1 2.02517e-05
10 *59:16 *61:8 7.461e-05
11 *59:16 *71:10 0
12 *59:16 *81:10 0.000112906
13 *59:16 *138:65 8.91584e-05
14 *59:16 *231:31 0
15 *3:13 *59:16 0
*RES
1 *648:X *59:6 37.9143 
2 *59:6 *59:16 44.8936 
3 *59:16 *651:B1 23 
*END

*D_NET *60 0.00298019
*CONN
*I *650:C1 I *D sky130_fd_sc_hd__o211ai_1
*I *649:Y O *D sky130_fd_sc_hd__xnor2_1
*CAP
1 *650:C1 0.000283581
2 *649:Y 0.000126197
3 *60:8 0.000409778
4 *650:C1 *650:B1 5.50106e-05
5 *650:C1 *75:24 5.67058e-05
6 *650:C1 *122:8 0.000570839
7 *650:C1 *217:25 0
8 *60:8 *649:A 0.000331705
9 *60:8 *649:B 5.3304e-05
10 *59:6 *60:8 0.000395895
11 *59:16 *650:C1 0.000697172
*RES
1 *649:Y *60:8 42.9093 
2 *60:8 *650:C1 47.9221 
*END

*D_NET *61 0.000332794
*CONN
*I *651:C1 I *D sky130_fd_sc_hd__a211o_1
*I *650:Y O *D sky130_fd_sc_hd__o211ai_1
*CAP
1 *651:C1 0
2 *650:Y 0.000129092
3 *61:8 0.000129092
4 *61:8 *650:A2 0
5 *61:8 *213:10 0
6 *59:16 *61:8 7.461e-05
*RES
1 *650:Y *61:8 40.2579 
2 *61:8 *651:C1 38 
*END

*D_NET *62 0.00164876
*CONN
*I *670:B I *D sky130_fd_sc_hd__and4_1
*I *651:X O *D sky130_fd_sc_hd__a211o_1
*CAP
1 *670:B 0
2 *651:X 0.000427283
3 *62:10 0.000427283
4 *62:10 *731:S 2.4754e-05
5 *62:10 *71:10 0.000168754
6 *62:10 *81:10 0.000166522
7 *62:10 *81:16 0.000434159
*RES
1 *651:X *62:10 45.6436 
2 *62:10 *670:B 38 
*END

*D_NET *63 0.00324089
*CONN
*I *654:C1 I *D sky130_fd_sc_hd__o211ai_1
*I *652:Y O *D sky130_fd_sc_hd__xnor2_1
*CAP
1 *654:C1 0
2 *652:Y 0.00100345
3 *63:22 0.000193097
4 *63:10 0.00119655
5 *63:10 *779:RESET_B 7.31752e-05
6 *63:10 *127:123 2.4754e-05
7 *63:10 *129:89 0.00039759
8 *63:10 *132:22 7.09236e-05
9 *63:10 *223:59 5.79715e-05
10 *63:10 *234:21 9.84794e-05
11 *63:22 *735:A1 1.83667e-05
12 *63:22 *115:131 3.70187e-05
13 *63:22 *132:22 1.7992e-05
14 *63:22 *223:59 1.05569e-05
15 *63:22 *234:21 4.09683e-05
*RES
1 *652:Y *63:10 38.5564 
2 *63:10 *63:22 33.4179 
3 *63:22 *654:C1 23 
*END

*D_NET *64 0.000951763
*CONN
*I *655:B1 I *D sky130_fd_sc_hd__a211o_1
*I *653:X O *D sky130_fd_sc_hd__a2bb2o_1
*CAP
1 *655:B1 0.000101912
2 *653:X 7.07e-05
3 *64:8 0.000172612
4 *655:B1 *131:57 1.76557e-05
5 *655:B1 *138:65 0.000218471
6 *655:B1 *222:20 0.000133842
7 *64:8 *707:A1 3.01561e-05
8 *64:8 *750:RESET_B 0.000135557
9 *64:8 *219:21 1.14452e-05
10 *64:8 *222:20 5.94125e-05
*RES
1 *653:X *64:8 39.9057 
2 *64:8 *655:B1 41.0243 
*END

*D_NET *65 0.00507755
*CONN
*I *655:C1 I *D sky130_fd_sc_hd__a211o_1
*I *654:Y O *D sky130_fd_sc_hd__o211ai_1
*CAP
1 *655:C1 0
2 *654:Y 0
3 *65:22 0.000138462
4 *65:16 0.00198874
5 *65:6 0.00185028
6 *65:16 *653:A2_N 0.000126046
7 *65:16 *653:B2 5.50049e-05
8 *65:16 *662:B 0
9 *65:16 *663:A2 0
10 *65:16 *735:A1 8.62876e-05
11 *65:16 *743:CLK 1.03955e-05
12 *65:16 *753:RESET_B 4.39607e-05
13 *65:16 *75:24 9.5877e-05
14 *65:16 *115:131 0
15 *65:16 *131:78 1.41077e-05
16 *65:16 *148:10 0
17 *65:16 *156:8 0.000422223
18 *65:16 *157:10 0
19 *65:16 *197:94 0
20 *65:16 *223:28 5.50106e-05
21 *65:16 *225:10 0
22 *65:16 *225:23 0
23 *65:22 *123:45 0.000191157
*RES
1 *654:Y *65:6 38 
2 *65:6 *65:16 45.74 
3 *65:16 *65:22 32.61 
4 *65:22 *655:C1 23 
*END

*D_NET *66 0.00151692
*CONN
*I *669:C I *D sky130_fd_sc_hd__and4_1
*I *655:X O *D sky130_fd_sc_hd__a211o_1
*CAP
1 *669:C 0.00020722
2 *655:X 0.00039331
3 *66:8 0.00060053
4 *669:C *115:18 0.000315857
5 *66:8 *81:18 0
6 *66:8 *123:36 0
7 *66:8 *123:45 0
8 *66:8 *129:55 0
*RES
1 *655:X *66:8 44.8357 
2 *66:8 *669:C 41.48 
*END

*D_NET *67 0.000782099
*CONN
*I *659:B1 I *D sky130_fd_sc_hd__a221o_1
*I *656:Y O *D sky130_fd_sc_hd__nand2_1
*CAP
1 *659:B1 0
2 *656:Y 0.000332116
3 *67:10 0.000332116
4 *67:10 *656:A 1.32314e-05
5 *67:10 *665:A 0.000104636
6 *67:10 *727:A1 0
7 *67:10 *132:65 0
*RES
1 *656:Y *67:10 43.0336 
2 *67:10 *659:B1 38 
*END

*D_NET *68 0.000248695
*CONN
*I *659:B2 I *D sky130_fd_sc_hd__a221o_1
*I *657:X O *D sky130_fd_sc_hd__or2_1
*CAP
1 *659:B2 0.000117486
2 *657:X 0.000117486
3 *659:B2 *172:74 1.37232e-05
*RES
1 *657:X *659:B2 48.2216 
*END

*D_NET *69 0.00307896
*CONN
*I *660:B1 I *D sky130_fd_sc_hd__a211o_1
*I *658:Y O *D sky130_fd_sc_hd__o22ai_1
*CAP
1 *660:B1 0
2 *658:Y 5.75053e-05
3 *69:14 0.000389776
4 *69:8 0.000447282
5 *69:8 *115:30 6.17437e-06
6 *69:14 *658:B1 0.000114074
7 *69:14 *787:A 0.000592312
8 *69:14 *76:8 5.3304e-05
9 *69:14 *161:37 0.000120405
10 *69:14 *161:52 0.00100666
11 *69:14 *172:27 0.00029147
*RES
1 *658:Y *69:8 38.6214 
2 *69:8 *69:14 30.5564 
3 *69:14 *660:B1 23 
*END

*D_NET *70 0.00129041
*CONN
*I *660:C1 I *D sky130_fd_sc_hd__a211o_1
*I *659:X O *D sky130_fd_sc_hd__a221o_1
*CAP
1 *660:C1 0.000372768
2 *659:X 8.35483e-05
3 *70:8 0.000456316
4 *660:C1 *660:A2 0
5 *660:C1 *76:8 0.000232425
6 *845:A *660:C1 9.41704e-05
7 *32:8 *70:8 5.11807e-05
*RES
1 *659:X *70:8 39.5536 
2 *70:8 *660:C1 44.3593 
*END

*D_NET *71 0.00176438
*CONN
*I *670:C I *D sky130_fd_sc_hd__and4_1
*I *660:X O *D sky130_fd_sc_hd__a211o_1
*CAP
1 *670:C 0
2 *660:X 0.000372892
3 *71:10 0.000372892
4 *71:10 *819:A 0.000346225
5 *71:10 *81:10 1.47563e-05
6 *71:10 *123:8 0.000139346
7 *71:10 *123:23 7.34858e-05
8 *71:10 *159:23 9.80568e-05
9 *71:10 *160:10 8.85189e-05
10 *71:10 *213:10 0
11 *71:10 *231:31 8.94487e-05
12 *59:16 *71:10 0
13 *62:10 *71:10 0.000168754
*RES
1 *660:X *71:10 47.4664 
2 *71:10 *670:C 38 
*END

*D_NET *72 0.00314607
*CONN
*I *664:B1 I *D sky130_fd_sc_hd__a211o_1
*I *661:X O *D sky130_fd_sc_hd__xor2_1
*CAP
1 *664:B1 0
2 *661:X 0.000356448
3 *72:12 0.00056724
4 *72:8 0.000923688
5 *72:8 *661:B 0.00011807
6 *72:8 *155:6 3.16784e-05
7 *72:12 *708:S 0
8 *72:12 *127:80 0
9 *72:12 *131:93 0.000112803
10 *72:12 *197:57 3.70094e-05
11 *72:12 *197:115 0
12 *72:12 *200:19 0.000999136
*RES
1 *661:X *72:8 42.9093 
2 *72:8 *72:12 28.5264 
3 *72:12 *664:B1 23 
*END

*D_NET *73 0.00047944
*CONN
*I *663:C1 I *D sky130_fd_sc_hd__o211ai_1
*I *662:Y O *D sky130_fd_sc_hd__xnor2_1
*CAP
1 *663:C1 0.000147684
2 *662:Y 0.000147684
3 *663:C1 *662:B 9.84794e-05
4 *663:C1 *663:A2 5.3304e-05
5 *663:C1 *663:B1 3.22879e-05
*RES
1 *662:Y *663:C1 49.0243 
*END

*D_NET *74 0.002225
*CONN
*I *664:C1 I *D sky130_fd_sc_hd__a211o_1
*I *663:Y O *D sky130_fd_sc_hd__o211ai_1
*CAP
1 *664:C1 0.000232809
2 *663:Y 0.000104317
3 *74:8 0.000337127
4 *664:C1 *676:A1 9.5877e-05
5 *664:C1 *856:A 5.3304e-05
6 *664:C1 *147:6 0.000571488
7 *664:C1 *197:81 0.000135037
8 *664:C1 *197:94 4.2573e-05
9 *664:C1 *223:28 9.41704e-05
10 *664:C1 *225:31 9.7001e-05
11 *74:8 *662:B 0.000139647
12 *74:8 *226:10 3.47781e-05
13 *14:10 *664:C1 0.00028687
*RES
1 *663:Y *74:8 40.2579 
2 *74:8 *664:C1 47.1971 
*END

*D_NET *75 0.00538459
*CONN
*I *670:D I *D sky130_fd_sc_hd__and4_1
*I *664:X O *D sky130_fd_sc_hd__a211o_1
*CAP
1 *670:D 0
2 *664:X 0.000529012
3 *75:24 0.00138581
4 *75:10 0.00191482
5 *75:10 *710:A0 5.3304e-05
6 *75:10 *793:A 2.64616e-05
7 *75:10 *846:A 9.50411e-05
8 *75:10 *123:45 0.000166532
9 *75:10 *197:45 1.12251e-05
10 *75:10 *219:21 0.000164291
11 *75:10 *223:28 0.00014196
12 *75:24 *650:A2 5.50049e-05
13 *75:24 *650:B1 0.000199112
14 *75:24 *713:A0 7.33566e-05
15 *75:24 *713:S 8.1796e-05
16 *75:24 *753:RESET_B 7.06491e-05
17 *75:24 *131:40 4.1572e-05
18 *75:24 *231:12 2.3853e-05
19 *650:C1 *75:24 5.67058e-05
20 *753:D *75:24 0.000198206
21 *65:16 *75:24 9.5877e-05
*RES
1 *664:X *75:10 46.5964 
2 *75:10 *75:24 37.6407 
3 *75:24 *670:D 23 
*END

*D_NET *76 0.00319201
*CONN
*I *668:B1 I *D sky130_fd_sc_hd__a211o_1
*I *665:X O *D sky130_fd_sc_hd__xor2_1
*CAP
1 *668:B1 0.000349628
2 *665:X 0.000460683
3 *76:8 0.000810311
4 *668:B1 *643:A2 0
5 *668:B1 *666:A 5.31444e-05
6 *668:B1 *668:A1 2.02517e-05
7 *668:B1 *764:RESET_B 0.000457435
8 *668:B1 *115:30 3.32282e-05
9 *668:B1 *159:23 7.80251e-05
10 *668:B1 *199:16 3.97502e-05
11 *668:B1 *211:10 7.03766e-05
12 *76:8 *660:A2 6.99492e-05
13 *76:8 *123:8 0.000265466
14 *660:C1 *76:8 0.000232425
15 *845:A *76:8 9.77405e-05
16 *52:10 *668:B1 6.32792e-05
17 *53:10 *668:B1 3.70094e-05
18 *69:14 *76:8 5.3304e-05
*RES
1 *665:X *76:8 48.15 
2 *76:8 *668:B1 47.8393 
*END

*D_NET *77 0.000191095
*CONN
*I *667:C1 I *D sky130_fd_sc_hd__o211ai_1
*I *666:Y O *D sky130_fd_sc_hd__xnor2_1
*CAP
1 *667:C1 7.05758e-05
2 *666:Y 7.05758e-05
3 *667:C1 *666:A 3.22879e-05
4 *667:C1 *667:A1 0
5 *667:C1 *229:29 1.76557e-05
*RES
1 *666:Y *667:C1 47.595 
*END

*D_NET *78 0.000342259
*CONN
*I *668:C1 I *D sky130_fd_sc_hd__a211o_1
*I *667:Y O *D sky130_fd_sc_hd__o211ai_1
*CAP
1 *668:C1 0
2 *667:Y 5.58686e-05
3 *78:8 5.58686e-05
4 *78:8 *666:A 0.000171906
5 *78:8 *159:23 5.86165e-05
*RES
1 *667:Y *78:8 40.2579 
2 *78:8 *668:C1 38 
*END

*D_NET *79 0.00250301
*CONN
*I *669:D I *D sky130_fd_sc_hd__and4_1
*I *668:X O *D sky130_fd_sc_hd__a211o_1
*CAP
1 *669:D 0.000153789
2 *668:X 0.000263125
3 *79:8 0.000416914
4 *669:D *80:8 0.000159681
5 *669:D *81:18 0.000410379
6 *79:8 *668:A1 0.000139346
7 *79:8 *668:A2 5.50049e-05
8 *79:8 *162:6 0.000213863
9 *79:8 *162:14 5.50049e-05
10 *79:8 *207:21 1.72202e-05
11 *79:8 *207:30 0.00022109
12 *79:8 *210:44 0.000397596
*RES
1 *668:X *79:8 45.7679 
2 *79:8 *669:D 43.4271 
*END

*D_NET *80 0.00208795
*CONN
*I *671:A1 I *D sky130_fd_sc_hd__a21oi_1
*I *674:B I *D sky130_fd_sc_hd__and3_1
*I *669:X O *D sky130_fd_sc_hd__and4_1
*CAP
1 *671:A1 5.67095e-05
2 *674:B 0.000194802
3 *669:X 0.000422623
4 *80:8 0.000674135
5 *671:A1 *850:A 1.59094e-05
6 *674:B *631:A 9.03784e-05
7 *674:B *198:10 0.000136486
8 *80:8 *631:A 0.000131735
9 *80:8 *81:18 8.30722e-05
10 *669:D *80:8 0.000159681
11 *31:10 *80:8 0.000122417
*RES
1 *669:X *80:8 47.6529 
2 *80:8 *674:B 41.5836 
3 *80:8 *671:A1 38.6214 
*END

*D_NET *81 0.00761865
*CONN
*I *671:A2 I *D sky130_fd_sc_hd__a21oi_1
*I *674:C I *D sky130_fd_sc_hd__and3_1
*I *670:X O *D sky130_fd_sc_hd__and4_1
*CAP
1 *671:A2 4.55321e-05
2 *674:C 0.000186261
3 *670:X 0.000318817
4 *81:18 0.000906267
5 *81:16 0.00105988
6 *81:10 0.000704224
7 *671:A2 *201:12 3.7122e-06
8 *674:C *631:A 1.22803e-05
9 *674:C *847:A 7.28526e-05
10 *674:C *129:27 0
11 *674:C *198:10 2.95125e-05
12 *674:C *201:12 0.000171906
13 *674:C *207:21 5.03449e-05
14 *81:10 *650:B1 0.000181125
15 *81:10 *231:6 5.61255e-06
16 *81:10 *231:31 1.4471e-05
17 *81:16 *731:S 5.67058e-05
18 *81:16 *138:65 0.000961099
19 *81:16 *166:8 0.000185434
20 *81:18 *631:A 9.64022e-05
21 *81:18 *129:55 0.000509855
22 *81:18 *131:21 0
23 *81:18 *207:21 0.000197853
24 *669:D *81:18 0.000410379
25 *776:D *81:10 3.7122e-06
26 *54:10 *81:18 9.20311e-06
27 *58:12 *81:18 0.000613795
28 *59:16 *81:10 0.000112906
29 *62:10 *81:10 0.000166522
30 *62:10 *81:16 0.000434159
31 *66:8 *81:18 0
32 *71:10 *81:10 1.47563e-05
33 *80:8 *81:18 8.30722e-05
*RES
1 *670:X *81:10 43.8414 
2 *81:10 *81:16 41.5793 
3 *81:16 *81:18 20.2171 
4 *81:18 *674:C 42.7436 
5 *81:18 *671:A2 38.6214 
*END

*D_NET *82 0.00172151
*CONN
*I *794:A I *D sky130_fd_sc_hd__clkbuf_2
*I *674:X O *D sky130_fd_sc_hd__and3_1
*CAP
1 *794:A 0.000437767
2 *674:X 6.90544e-05
3 *82:8 0.000506821
4 *794:A *804:A 9.90162e-05
5 *794:A *129:14 4.75206e-05
6 *794:A *192:22 4.75937e-05
7 *794:A *194:6 0.000141052
8 *794:A *194:14 0.000226306
9 *794:A *198:10 3.22879e-05
10 *82:8 *129:27 0
11 *82:8 *201:12 0.000114092
*RES
1 *674:X *82:8 39.5536 
2 *82:8 *794:A 47.1971 
*END

*D_NET *83 0.00237894
*CONN
*I *681:B1 I *D sky130_fd_sc_hd__a21oi_1
*I *696:B1 I *D sky130_fd_sc_hd__a211o_1
*I *678:Y O *D sky130_fd_sc_hd__nor2_1
*CAP
1 *681:B1 0
2 *696:B1 0.000111709
3 *678:Y 0.00026598
4 *83:25 0.000135186
5 *83:10 0.000512876
6 *696:B1 *112:43 2.99918e-05
7 *696:B1 *204:41 1.30173e-06
8 *696:B1 *206:35 2.45549e-06
9 *83:10 *85:10 0.000136743
10 *83:10 *203:75 9.84794e-05
11 *83:10 *203:85 0.00026025
12 *83:10 *204:41 5.83012e-05
13 *83:10 *204:52 9.51273e-05
14 *83:10 *204:61 5.3304e-05
15 *83:10 *206:35 3.55513e-05
16 *83:25 *85:10 1.69668e-05
17 *83:25 *88:12 5.8808e-05
18 *83:25 *204:22 0.00020892
19 *696:C1 *696:B1 2.15138e-05
20 *11:16 *696:B1 0.000135037
21 *11:16 *83:10 0.000140434
*RES
1 *678:Y *83:10 30.4571 
2 *83:10 *696:B1 25.4236 
3 *83:10 *83:25 32.9621 
4 *83:25 *681:B1 23 
*END

*D_NET *84 0.00120682
*CONN
*I *695:A1 I *D sky130_fd_sc_hd__a21o_1
*I *681:A1 I *D sky130_fd_sc_hd__a21oi_1
*I *679:X O *D sky130_fd_sc_hd__a211o_1
*CAP
1 *695:A1 8.05001e-05
2 *681:A1 0.000205866
3 *679:X 0
4 *84:6 0.000286367
5 *681:A1 *686:B 0
6 *681:A1 *85:10 2.35393e-05
7 *681:A1 *88:6 1.32314e-05
8 *681:A1 *88:34 0.000135604
9 *681:A1 *113:12 0.000158646
10 *681:A1 *202:89 9.16111e-05
11 *681:A1 *203:75 1.05441e-05
12 *681:A1 *203:85 1.34395e-05
13 *695:A1 *700:A1 0.000111447
14 *695:A1 *113:27 5.33851e-05
15 *695:A1 *203:75 2.26406e-05
*RES
1 *679:X *84:6 38 
2 *84:6 *681:A1 43.0336 
3 *84:6 *695:A1 39.9057 
*END

*D_NET *85 0.000886526
*CONN
*I *681:A2 I *D sky130_fd_sc_hd__a21oi_1
*I *680:X O *D sky130_fd_sc_hd__a211o_1
*CAP
1 *681:A2 0
2 *680:X 0.000163302
3 *85:10 0.000163302
4 *85:10 *88:12 0.000135016
5 *85:10 *88:34 0
6 *85:10 *113:12 0.000110913
7 *681:A1 *85:10 2.35393e-05
8 *11:16 *85:10 0.000136743
9 *83:10 *85:10 0.000136743
10 *83:25 *85:10 1.69668e-05
*RES
1 *680:X *85:10 42.1843 
2 *85:10 *681:A2 38 
*END

*D_NET *86 0.00127139
*CONN
*I *689:A1 I *D sky130_fd_sc_hd__o221a_1
*I *681:Y O *D sky130_fd_sc_hd__a21oi_1
*CAP
1 *689:A1 0
2 *681:Y 0.000321212
3 *86:10 0.000321212
4 *86:10 *88:6 5.3304e-05
5 *86:10 *106:10 5.68329e-05
6 *86:10 *202:89 1.57571e-05
7 *86:10 *204:22 0.000119046
8 *86:10 *204:41 3.34818e-06
9 *86:10 *205:53 0.000160312
10 *696:C1 *86:10 0.000134088
11 *748:D *86:10 8.62783e-05
*RES
1 *681:Y *86:10 43.8207 
2 *86:10 *689:A1 38 
*END

*D_NET *87 0.0050197
*CONN
*I *696:A2 I *D sky130_fd_sc_hd__a211o_1
*I *684:B I *D sky130_fd_sc_hd__and3_1
*I *697:A1 I *D sky130_fd_sc_hd__a21oi_1
*I *682:Y O *D sky130_fd_sc_hd__nand2_1
*CAP
1 *696:A2 0.000180507
2 *684:B 0
3 *697:A1 0
4 *682:Y 0
5 *87:29 0.000857823
6 *87:14 0.00133619
7 *87:6 0.000658871
8 *696:A2 *682:B 5.55874e-05
9 *696:A2 *93:8 4.95487e-06
10 *696:A2 *100:8 6.74576e-05
11 *696:A2 *106:10 5.2894e-05
12 *696:A2 *112:43 0.000222208
13 *696:A2 *203:19 3.41998e-06
14 *696:A2 *203:63 1.98125e-05
15 *87:14 *682:B 3.76959e-05
16 *87:14 *689:C1 0.000238194
17 *87:14 *697:A2 0
18 *87:14 *697:B1 0.000400886
19 *87:14 *749:CLK 1.74166e-05
20 *87:14 *96:10 1.16877e-05
21 *87:14 *100:8 4.95169e-05
22 *87:14 *101:10 0.000348447
23 *87:14 *118:31 3.83059e-05
24 *87:14 *126:118 0
25 *87:14 *206:82 0
26 *87:29 *697:A2 5.41288e-05
27 *87:29 *749:CLK 2.26778e-05
28 *87:29 *89:12 5.12254e-05
29 *87:29 *195:8 0
30 *87:29 *205:66 0.000141954
31 *87:29 *206:66 8.48502e-06
32 *87:29 *206:82 0
33 *749:D *87:29 0.000139357
34 *12:8 *87:14 0
*RES
1 *682:Y *87:6 38 
2 *87:6 *87:14 26.6 
3 *87:14 *697:A1 23 
4 *87:14 *87:29 42.7807 
5 *87:29 *684:B 23 
6 *87:6 *696:A2 42.8057 
*END

*D_NET *88 0.00375775
*CONN
*I *690:A I *D sky130_fd_sc_hd__nand2_1
*I *684:C I *D sky130_fd_sc_hd__and3_1
*I *704:C I *D sky130_fd_sc_hd__and3_1
*I *683:X O *D sky130_fd_sc_hd__or2_1
*CAP
1 *690:A 0
2 *684:C 0.000265542
3 *704:C 4.71902e-05
4 *683:X 7.74002e-05
5 *88:34 0.000139371
6 *88:12 0.000841603
7 *88:6 0.000745642
8 *684:C *90:16 0.000251314
9 *684:C *206:70 1.56665e-05
10 *684:C *206:74 5.50106e-05
11 *704:C *206:74 6.25657e-05
12 *88:6 *202:89 6.07194e-05
13 *88:12 *691:B1 3.884e-05
14 *88:12 *700:A1 2.472e-05
15 *88:12 *90:16 4.96264e-05
16 *88:12 *92:16 8.85189e-05
17 *88:12 *97:31 2.26497e-05
18 *88:12 *106:10 0
19 *88:12 *113:12 1.31913e-05
20 *88:12 *113:27 0.000129757
21 *88:12 *118:42 2.8936e-05
22 *88:12 *204:22 3.7473e-07
23 *88:12 *204:41 2.05503e-05
24 *88:12 *205:53 2.61727e-05
25 *88:12 *206:35 2.77178e-05
26 *88:34 *686:B 9.84794e-05
27 *88:34 *95:8 1.01436e-05
28 *88:34 *113:12 5.50049e-05
29 *88:34 *113:55 0.000127821
30 *88:34 *202:89 1.22822e-05
31 *88:34 *204:67 2.49733e-05
32 *681:A1 *88:6 1.32314e-05
33 *681:A1 *88:34 0.000135604
34 *83:25 *88:12 5.8808e-05
35 *85:10 *88:12 0.000135016
36 *85:10 *88:34 0
37 *86:10 *88:6 5.3304e-05
*RES
1 *683:X *88:6 24.5743 
2 *88:6 *88:12 40.005 
3 *88:12 *704:C 23.7043 
4 *88:12 *684:C 26.8218 
5 *88:6 *88:34 33.8529 
6 *88:34 *690:A 23 
*END

*D_NET *89 0.00243483
*CONN
*I *689:A2 I *D sky130_fd_sc_hd__o221a_1
*I *684:X O *D sky130_fd_sc_hd__and3_1
*CAP
1 *689:A2 0.00023252
2 *684:X 0.00034822
3 *89:12 0.00058074
4 *689:A2 *695:A2 9.5877e-05
5 *689:A2 *701:A 6.17437e-06
6 *689:A2 *92:8 1.24376e-05
7 *689:A2 *92:16 0.000158334
8 *689:A2 *99:10 0.000228909
9 *689:A2 *113:27 4.2062e-05
10 *689:A2 *205:53 0.000164364
11 *89:12 *704:B 0
12 *89:12 *95:8 0.00021356
13 *89:12 *195:8 7.45997e-05
14 *89:12 *205:66 1.17152e-05
15 *89:12 *206:10 6.7177e-06
16 *89:12 *206:12 9.43928e-05
17 *89:12 *206:14 1.62015e-05
18 *89:12 *206:66 9.67842e-05
19 *87:29 *89:12 5.12254e-05
*RES
1 *684:X *89:12 45.3743 
2 *89:12 *689:A2 44.815 
*END

*D_NET *90 0.00475982
*CONN
*I *705:A1 I *D sky130_fd_sc_hd__a221o_1
*I *698:A1 I *D sky130_fd_sc_hd__a311o_1
*I *697:B1 I *D sky130_fd_sc_hd__a21oi_1
*I *689:C1 I *D sky130_fd_sc_hd__o221a_1
*I *685:Y O *D sky130_fd_sc_hd__nand2_1
*CAP
1 *705:A1 0
2 *698:A1 0
3 *697:B1 0.000206882
4 *689:C1 0.000192566
5 *685:Y 0.000355798
6 *90:24 0.000399448
7 *90:22 0.000178
8 *90:20 0.000280913
9 *90:16 0.000458711
10 *689:C1 *682:A 4.0365e-05
11 *689:C1 *682:B 5.50049e-05
12 *689:C1 *689:B2 2.93104e-06
13 *689:C1 *96:10 2.95125e-05
14 *689:C1 *99:10 0.000369121
15 *697:B1 *96:10 4.95339e-05
16 *697:B1 *126:118 0
17 *90:16 *684:A 1.14154e-05
18 *90:16 *206:64 2.18409e-05
19 *90:16 *206:66 0.000233406
20 *90:16 *206:70 9.67842e-05
21 *90:16 *206:105 6.33511e-05
22 *90:20 *700:A1 5.50106e-05
23 *90:20 *705:B2 1.28818e-05
24 *90:20 *95:20 8.43466e-05
25 *90:20 *95:28 0.000268868
26 *90:20 *105:10 9.98593e-05
27 *90:22 *698:A3 9.17998e-05
28 *90:22 *95:28 5.67058e-05
29 *90:22 *105:10 3.32498e-05
30 *90:22 *108:10 5.67058e-05
31 *90:22 *118:42 1.47872e-05
32 *684:C *90:16 0.000251314
33 *17:10 *697:B1 0
34 *87:14 *689:C1 0.000238194
35 *87:14 *697:B1 0.000400886
36 *88:12 *90:16 4.96264e-05
*RES
1 *685:Y *90:16 45.6021 
2 *90:16 *90:20 18.9564 
3 *90:20 *90:22 3.48 
4 *90:22 *90:24 15 
5 *90:24 *689:C1 43.8621 
6 *90:24 *697:B1 43.4271 
7 *90:22 *698:A1 23 
8 *90:20 *705:A1 23 
*END

*D_NET *91 0.000798128
*CONN
*I *690:B I *D sky130_fd_sc_hd__nand2_1
*I *686:Y O *D sky130_fd_sc_hd__nand2_1
*CAP
1 *690:B 0.000116182
2 *686:Y 0.000116182
3 *690:B *686:A 0.0002263
4 *690:B *686:B 4.50413e-05
5 *690:B *112:18 0.000111596
6 *690:B *112:72 0.000182826
7 *690:B *202:89 0
*RES
1 *686:Y *690:B 49.9771 
*END

*D_NET *92 0.00185823
*CONN
*I *694:B I *D sky130_fd_sc_hd__or3b_1
*I *700:B1 I *D sky130_fd_sc_hd__a2111oi_1
*I *687:Y O *D sky130_fd_sc_hd__nor2_1
*CAP
1 *694:B 0
2 *700:B1 0
3 *687:Y 0.000199031
4 *92:16 0.000300204
5 *92:8 0.000499235
6 *92:8 *694:A 0.000267167
7 *92:8 *701:A 1.03955e-05
8 *92:8 *701:B 0.000181125
9 *92:8 *104:10 5.67058e-05
10 *92:8 *112:72 2.61526e-05
11 *92:8 *203:100 2.93845e-05
12 *92:16 *700:A1 2.95366e-05
13 *689:A2 *92:8 1.24376e-05
14 *689:A2 *92:16 0.000158334
15 *88:12 *92:16 8.85189e-05
*RES
1 *687:Y *92:8 28.4064 
2 *92:8 *92:16 34.6814 
3 *92:16 *700:B1 23 
4 *92:8 *694:B 23 
*END

*D_NET *93 0.00246233
*CONN
*I *697:A2 I *D sky130_fd_sc_hd__a21oi_1
*I *689:B1 I *D sky130_fd_sc_hd__o221a_1
*I *688:X O *D sky130_fd_sc_hd__or2_1
*CAP
1 *697:A2 0.000395612
2 *689:B1 1.80182e-05
3 *688:X 0.000248926
4 *93:8 0.000662556
5 *689:B1 *682:A 5.50106e-05
6 *689:B1 *99:10 2.93845e-05
7 *697:A2 *749:CLK 9.84794e-05
8 *697:A2 *95:28 0.00014411
9 *697:A2 *100:8 0.000200538
10 *697:A2 *101:10 7.38691e-05
11 *697:A2 *106:10 7.45577e-05
12 *697:A2 *107:10 0
13 *697:A2 *108:10 4.96264e-05
14 *697:A2 *118:31 1.37349e-05
15 *697:A2 *206:82 7.30875e-05
16 *93:8 *100:8 0.000185946
17 *93:8 *106:10 3.56711e-05
18 *93:8 *112:37 4.412e-05
19 *93:8 *203:19 0
20 *696:A2 *93:8 4.95487e-06
21 *696:C1 *93:8 0
22 *87:14 *697:A2 0
23 *87:29 *697:A2 5.41288e-05
*RES
1 *688:X *93:8 42.7229 
2 *93:8 *689:B1 38.6214 
3 *93:8 *697:A2 48.0464 
*END

*D_NET *94 0.0039514
*CONN
*I *692:B1 I *D sky130_fd_sc_hd__o22a_1
*I *689:X O *D sky130_fd_sc_hd__o221a_1
*CAP
1 *692:B1 0
2 *689:X 0.0015131
3 *94:8 0.0015131
4 *94:8 *635:A 1.59094e-05
5 *94:8 *784:CLK 1.94812e-05
6 *94:8 *96:20 0.000222497
7 *94:8 *99:10 0.000563675
8 *784:D *94:8 0.000103637
*RES
1 *689:X *94:8 45.3093 
2 *94:8 *692:B1 23 
*END

*D_NET *95 0.00446102
*CONN
*I *702:A2 I *D sky130_fd_sc_hd__a211o_1
*I *700:A2 I *D sky130_fd_sc_hd__a2111oi_1
*I *691:A3 I *D sky130_fd_sc_hd__a31o_1
*I *690:Y O *D sky130_fd_sc_hd__nand2_1
*CAP
1 *702:A2 0.000121331
2 *700:A2 0
3 *691:A3 0
4 *690:Y 0.000398887
5 *95:28 0.00030751
6 *95:20 0.000575868
7 *95:10 0.000389689
8 *95:8 0.000398887
9 *702:A2 *702:A1 5.50106e-05
10 *702:A2 *853:A 9.84794e-05
11 *702:A2 *103:8 0.000392386
12 *702:A2 *105:10 0.000126056
13 *95:8 *700:A1 3.75169e-05
14 *95:8 *701:A 0.000153208
15 *95:8 *203:75 2.12347e-06
16 *95:8 *203:85 5.94125e-05
17 *95:8 *204:67 0.000184816
18 *95:8 *205:53 8.68903e-05
19 *95:8 *205:66 4.18957e-05
20 *95:8 *206:14 0
21 *95:8 *206:18 1.02387e-05
22 *95:20 *700:A1 5.28582e-05
23 *95:20 *103:8 9.67842e-05
24 *95:20 *105:10 6.68919e-05
25 *95:20 *206:105 2.65505e-05
26 *95:28 *691:B1 0
27 *95:28 *107:10 0
28 *697:A2 *95:28 0.00014411
29 *88:34 *95:8 1.01436e-05
30 *89:12 *95:8 0.00021356
31 *90:20 *95:20 8.43466e-05
32 *90:20 *95:28 0.000268868
33 *90:22 *95:28 5.67058e-05
*RES
1 *690:Y *95:8 46.2443 
2 *95:8 *95:10 15 
3 *95:10 *95:20 5.24071 
4 *95:20 *95:28 35.3857 
5 *95:28 *691:A3 23 
6 *95:20 *700:A2 23 
7 *95:10 *702:A2 27.4329 
*END

*D_NET *96 0.00393806
*CONN
*I *692:B2 I *D sky130_fd_sc_hd__o22a_1
*I *691:X O *D sky130_fd_sc_hd__a31o_1
*CAP
1 *692:B2 0
2 *691:X 0.00051853
3 *96:20 0.000895495
4 *96:10 0.00141403
5 *96:10 *682:B 1.14987e-05
6 *96:10 *784:RESET_B 5.11935e-06
7 *96:10 *97:31 4.82774e-05
8 *96:10 *99:10 0.000190227
9 *96:10 *108:16 0.000219383
10 *96:10 *115:146 0
11 *96:10 *204:8 1.01436e-05
12 *96:20 *635:A 5.3304e-05
13 *96:20 *784:CLK 5.67058e-05
14 *689:C1 *96:10 2.95125e-05
15 *697:B1 *96:10 4.95339e-05
16 *784:D *96:20 0.000103637
17 *16:10 *96:20 9.84794e-05
18 *17:10 *96:10 0
19 *87:14 *96:10 1.16877e-05
20 *94:8 *96:20 0.000222497
*RES
1 *691:X *96:10 46.7829 
2 *96:10 *96:20 31.0536 
3 *96:20 *692:B2 23 
*END

*D_NET *97 0.00332086
*CONN
*I *695:B1 I *D sky130_fd_sc_hd__a21o_1
*I *741:A3 I *D sky130_fd_sc_hd__a31o_1
*I *693:X O *D sky130_fd_sc_hd__and2_1
*CAP
1 *695:B1 0
2 *741:A3 0.000440245
3 *693:X 0
4 *97:31 0.000761619
5 *97:6 0.00120186
6 *741:A3 *740:B1 0.000100561
7 *741:A3 *741:B1 1.21343e-05
8 *741:A3 *784:RESET_B 4.6318e-06
9 *741:A3 *112:43 0.000182826
10 *741:A3 *136:83 6.4393e-05
11 *741:A3 *202:61 8.62876e-05
12 *741:A3 *204:14 2.95125e-05
13 *97:31 *700:A1 5.58873e-06
14 *97:31 *784:RESET_B 5.4859e-05
15 *97:31 *203:69 0.000227085
16 *97:31 *204:8 3.01458e-05
17 *97:31 *204:14 1.58894e-05
18 *50:10 *741:A3 3.22879e-05
19 *88:12 *97:31 2.26497e-05
20 *96:10 *97:31 4.82774e-05
*RES
1 *693:X *97:6 38 
2 *97:6 *741:A3 46.1407 
3 *97:6 *97:31 34.6523 
4 *97:31 *695:B1 23 
*END

*D_NET *98 0.000312603
*CONN
*I *695:A2 I *D sky130_fd_sc_hd__a21o_1
*I *694:X O *D sky130_fd_sc_hd__or3b_1
*CAP
1 *695:A2 8.17109e-05
2 *694:X 8.17109e-05
3 *695:A2 *205:53 5.3304e-05
4 *689:A2 *695:A2 9.5877e-05
*RES
1 *694:X *695:A2 47.9471 
*END

*D_NET *99 0.00193621
*CONN
*I *698:A2 I *D sky130_fd_sc_hd__a311o_1
*I *695:X O *D sky130_fd_sc_hd__a21o_1
*CAP
1 *698:A2 0
2 *695:X 0.000260664
3 *99:10 0.000260664
4 *99:10 *682:A 2.61408e-05
5 *99:10 *113:27 7.43025e-06
6 *689:A2 *99:10 0.000228909
7 *689:B1 *99:10 2.93845e-05
8 *689:C1 *99:10 0.000369121
9 *94:8 *99:10 0.000563675
10 *96:10 *99:10 0.000190227
*RES
1 *695:X *99:10 47.425 
2 *99:10 *698:A2 38 
*END

*D_NET *100 0.0016446
*CONN
*I *698:A3 I *D sky130_fd_sc_hd__a311o_1
*I *696:X O *D sky130_fd_sc_hd__a211o_1
*CAP
1 *698:A3 0.000177738
2 *696:X 0.000244365
3 *100:8 0.000422103
4 *698:A3 *699:A2 0
5 *698:A3 *699:B1 4.00259e-06
6 *698:A3 *118:25 0.000112087
7 *698:A3 *118:42 2.64616e-05
8 *100:8 *118:31 6.25829e-05
9 *696:A2 *100:8 6.74576e-05
10 *697:A2 *100:8 0.000200538
11 *87:14 *100:8 4.95169e-05
12 *90:22 *698:A3 9.17998e-05
13 *93:8 *100:8 0.000185946
*RES
1 *696:X *100:8 43.4271 
2 *100:8 *698:A3 41.5007 
*END

*D_NET *101 0.00109585
*CONN
*I *698:B1 I *D sky130_fd_sc_hd__a311o_1
*I *697:Y O *D sky130_fd_sc_hd__a21oi_1
*CAP
1 *698:B1 0
2 *697:Y 0.000233648
3 *101:10 0.000233648
4 *101:10 *749:CLK 8.38808e-05
5 *101:10 *108:10 0.000110913
6 *101:10 *118:31 1.14452e-05
7 *697:A2 *101:10 7.38691e-05
8 *87:14 *101:10 0.000348447
*RES
1 *697:Y *101:10 43.8207 
2 *101:10 *698:B1 38 
*END

*D_NET *102 0.000147658
*CONN
*I *699:B1 I *D sky130_fd_sc_hd__o21ai_1
*I *698:X O *D sky130_fd_sc_hd__a311o_1
*CAP
1 *699:B1 3.57441e-05
2 *698:X 3.57441e-05
3 *699:B1 *118:25 6.81213e-05
4 *698:A3 *699:B1 4.00259e-06
5 *17:10 *699:B1 4.04598e-06
*RES
1 *698:X *699:B1 47.1186 
*END

*D_NET *103 0.00127367
*CONN
*I *702:B1 I *D sky130_fd_sc_hd__a211o_1
*I *700:Y O *D sky130_fd_sc_hd__a2111oi_1
*CAP
1 *702:B1 0
2 *700:Y 0.00037692
3 *103:8 0.00037692
4 *103:8 *702:A1 3.06608e-05
5 *702:A2 *103:8 0.000392386
6 *95:20 *103:8 9.67842e-05
*RES
1 *700:Y *103:8 30.3121 
2 *103:8 *702:B1 23 
*END

*D_NET *104 0.000579987
*CONN
*I *702:C1 I *D sky130_fd_sc_hd__a211o_1
*I *701:X O *D sky130_fd_sc_hd__and3_1
*CAP
1 *702:C1 0
2 *701:X 0.000248346
3 *104:10 0.000248346
4 *104:10 *112:72 2.65879e-05
5 *104:10 *205:84 0
6 *92:8 *104:10 5.67058e-05
*RES
1 *701:X *104:10 41.8321 
2 *104:10 *702:C1 38 
*END

*D_NET *105 0.00205505
*CONN
*I *705:A2 I *D sky130_fd_sc_hd__a221o_1
*I *702:X O *D sky130_fd_sc_hd__a211o_1
*CAP
1 *705:A2 0
2 *702:X 0.000401934
3 *105:10 0.000401934
4 *105:10 *700:A1 4.66047e-05
5 *105:10 *700:D1 9.67842e-05
6 *105:10 *705:B2 7.80291e-06
7 *105:10 *853:A 5.67058e-05
8 *105:10 *118:42 0.00022726
9 *105:10 *205:34 0.000392386
10 *105:10 *206:105 9.75779e-05
11 *702:A2 *105:10 0.000126056
12 *90:20 *105:10 9.98593e-05
13 *90:22 *105:10 3.32498e-05
14 *95:20 *105:10 6.68919e-05
*RES
1 *702:X *105:10 34.6466 
2 *105:10 *705:A2 23 
*END

*D_NET *106 0.00122855
*CONN
*I *705:B1 I *D sky130_fd_sc_hd__a221o_1
*I *703:X O *D sky130_fd_sc_hd__a21o_1
*CAP
1 *705:B1 0
2 *703:X 0.000464516
3 *106:10 0.000464516
4 *106:10 *107:10 6.07611e-06
5 *106:10 *112:37 2.93747e-05
6 *106:10 *112:43 9.24795e-06
7 *106:10 *118:42 2.472e-05
8 *696:A2 *106:10 5.2894e-05
9 *696:C1 *106:10 1.01436e-05
10 *697:A2 *106:10 7.45577e-05
11 *86:10 *106:10 5.68329e-05
12 *88:12 *106:10 0
13 *93:8 *106:10 3.56711e-05
*RES
1 *703:X *106:10 45.6021 
2 *106:10 *705:B1 38 
*END

*D_NET *107 0.000510638
*CONN
*I *705:B2 I *D sky130_fd_sc_hd__a221o_1
*I *704:X O *D sky130_fd_sc_hd__and3_1
*CAP
1 *705:B2 4.02164e-06
2 *704:X 0.000144607
3 *107:10 0.000148629
4 *107:10 *691:B1 0.000123172
5 *107:10 *118:42 1.01436e-05
6 *107:10 *206:74 5.3304e-05
7 *697:A2 *107:10 0
8 *90:20 *705:B2 1.28818e-05
9 *95:28 *107:10 0
10 *105:10 *705:B2 7.80291e-06
11 *106:10 *107:10 6.07611e-06
*RES
1 *704:X *107:10 40.5271 
2 *107:10 *705:B2 38.1502 
*END

*D_NET *108 0.00240066
*CONN
*I *706:B1 I *D sky130_fd_sc_hd__o21a_1
*I *705:X O *D sky130_fd_sc_hd__a221o_1
*CAP
1 *706:B1 0
2 *705:X 0.000103142
3 *108:16 0.000699316
4 *108:10 0.000802458
5 *108:16 *706:A1 0.000321976
6 *108:16 *706:A2 3.71369e-05
7 *697:A2 *108:10 4.96264e-05
8 *90:22 *108:10 5.67058e-05
9 *96:10 *108:16 0.000219383
10 *101:10 *108:10 0.000110913
*RES
1 *705:X *108:10 40.175 
2 *108:10 *108:16 28.5057 
3 *108:16 *706:B1 23 
*END

*D_NET *109 0.00141717
*CONN
*I *739:B I *D sky130_fd_sc_hd__xnor2_1
*I *738:A I *D sky130_fd_sc_hd__and2_1
*I *736:Y O *D sky130_fd_sc_hd__nand2_1
*CAP
1 *739:B 0
2 *738:A 3.39716e-05
3 *736:Y 0.000218464
4 *109:14 5.08539e-05
5 *109:10 0.000235346
6 *738:A *117:34 0.000184527
7 *738:A *202:16 0.00010655
8 *109:10 *782:CLK 0.000137651
9 *109:10 *782:RESET_B 2.55136e-05
10 *109:10 *126:16 7.75329e-06
11 *109:10 *126:18 9.21347e-06
12 *109:10 *126:24 2.4754e-05
13 *109:10 *202:16 0.000191497
14 *109:10 *202:23 9.58714e-05
15 *109:10 *203:42 1.83564e-05
16 *109:14 *117:34 5.50049e-05
17 *109:14 *202:16 2.18409e-05
*RES
1 *736:Y *109:10 43.1371 
2 *109:10 *109:14 15.6214 
3 *109:14 *738:A 25.0507 
4 *109:14 *739:B 23 
*END

*D_NET *110 0.000564717
*CONN
*I *738:B I *D sky130_fd_sc_hd__and2_1
*I *737:X O *D sky130_fd_sc_hd__or2_1
*CAP
1 *738:B 3.63611e-05
2 *737:X 3.63611e-05
3 *738:B *117:19 0.000143655
4 *738:B *117:34 7.42621e-05
5 *738:B *202:16 0.000274078
*RES
1 *737:X *738:B 49.0036 
*END

*D_NET *111 0.000223609
*CONN
*I *741:B1 I *D sky130_fd_sc_hd__a31o_1
*I *740:Y O *D sky130_fd_sc_hd__a31oi_1
*CAP
1 *741:B1 6.50073e-05
2 *740:Y 6.50073e-05
3 *741:B1 *740:A1 5.67058e-05
4 *741:B1 *740:B1 2.4754e-05
5 *741:B1 *745:CLK 0
6 *741:A3 *741:B1 1.21343e-05
*RES
1 *740:Y *741:B1 47.595 
*END

*D_NET *112 0.00739852
*CONN
*I *687:A I *D sky130_fd_sc_hd__nor2_1
*I *696:A1 I *D sky130_fd_sc_hd__a211o_1
*I *693:A I *D sky130_fd_sc_hd__and2_1
*I *740:B1 I *D sky130_fd_sc_hd__a31oi_1
*I *688:A I *D sky130_fd_sc_hd__or2_1
*I *628:Y O *D sky130_fd_sc_hd__inv_2
*CAP
1 *687:A 0
2 *696:A1 0
3 *693:A 0
4 *740:B1 0.000126579
5 *688:A 0.00016801
6 *628:Y 0
7 *112:72 0.000530483
8 *112:43 0.000469522
9 *112:37 0.000529438
10 *112:18 0.000879157
11 *112:4 0.00105514
12 *688:A *688:B 0
13 *688:A *202:70 0.00010018
14 *740:B1 *740:A1 5.67058e-05
15 *740:B1 *203:34 0.000532323
16 *112:18 *686:B 8.16064e-05
17 *112:18 *202:61 0
18 *112:18 *202:89 0.000304934
19 *112:18 *204:22 9.84851e-05
20 *112:37 *688:B 0
21 *112:37 *203:19 0
22 *112:43 *703:B1 4.2573e-05
23 *112:43 *203:25 0.000242249
24 *112:43 *203:34 2.80394e-05
25 *112:72 *694:A 2.64616e-05
26 *112:72 *136:53 0.00021137
27 *112:72 *203:100 5.50106e-05
28 *112:72 *205:10 0.000268221
29 *112:72 *205:19 0.000179702
30 *690:B *112:18 0.000111596
31 *690:B *112:72 0.000182826
32 *696:A2 *112:43 0.000222208
33 *696:B1 *112:43 2.99918e-05
34 *696:C1 *112:37 7.52238e-05
35 *701:C *112:72 6.04112e-05
36 *741:A3 *740:B1 0.000100561
37 *741:A3 *112:43 0.000182826
38 *741:B1 *740:B1 2.4754e-05
39 *748:D *112:18 4.87927e-05
40 *748:D *112:37 0.000182652
41 *50:10 *740:B1 5.50106e-05
42 *92:8 *112:72 2.61526e-05
43 *93:8 *112:37 4.412e-05
44 *104:10 *112:72 2.65879e-05
45 *106:10 *112:37 2.93747e-05
46 *106:10 *112:43 9.24795e-06
*RES
1 *628:Y *112:4 23 
2 *112:4 *112:18 24.7254 
3 *112:18 *688:A 40.9932 
4 *112:18 *112:37 19.1118 
5 *112:37 *112:43 8.51357 
6 *112:43 *740:B1 28.8621 
7 *112:43 *693:A 23 
8 *112:37 *696:A1 23 
9 *112:4 *112:72 41.6829 
10 *112:72 *687:A 23 
*END

*D_NET *113 0.00367493
*CONN
*I *678:A I *D sky130_fd_sc_hd__nor2_1
*I *689:B2 I *D sky130_fd_sc_hd__o221a_1
*I *682:A I *D sky130_fd_sc_hd__nand2_1
*I *679:A2 I *D sky130_fd_sc_hd__a211o_1
*I *629:Y O *D sky130_fd_sc_hd__inv_2
*CAP
1 *678:A 0
2 *689:B2 1.77033e-05
3 *682:A 0.000124076
4 *679:A2 0
5 *629:Y 0
6 *113:55 0.000335806
7 *113:27 0.000544498
8 *113:12 0.000573645
9 *113:4 0.000506732
10 *682:A *682:B 1.00493e-05
11 *113:27 *205:53 0.000181125
12 *113:55 *680:C1 1.14452e-05
13 *113:55 *686:B 0.000180836
14 *113:55 *136:53 0.000187996
15 *113:55 *204:67 6.7177e-06
16 *681:A1 *113:12 0.000158646
17 *689:A2 *113:27 4.2062e-05
18 *689:B1 *682:A 5.50106e-05
19 *689:C1 *682:A 4.0365e-05
20 *689:C1 *689:B2 2.93104e-06
21 *695:A1 *113:27 5.33851e-05
22 *11:10 *113:55 0.000136857
23 *11:42 *113:55 3.47879e-05
24 *85:10 *113:12 0.000110913
25 *88:12 *113:12 1.31913e-05
26 *88:12 *113:27 0.000129757
27 *88:34 *113:12 5.50049e-05
28 *88:34 *113:55 0.000127821
29 *99:10 *682:A 2.61408e-05
30 *99:10 *113:27 7.43025e-06
*RES
1 *629:Y *113:4 23 
2 *113:4 *113:12 18.5007 
3 *113:12 *679:A2 38 
4 *113:12 *113:27 21.3593 
5 *113:27 *682:A 25.5479 
6 *113:27 *689:B2 23.4971 
7 *113:4 *113:55 37.2086 
8 *113:55 *678:A 23 
*END

*D_NET *114 0.00070198
*CONN
*I *796:A I *D sky130_fd_sc_hd__clkbuf_2
*I *631:Y O *D sky130_fd_sc_hd__inv_2
*CAP
1 *796:A 0
2 *631:Y 0.000330725
3 *114:6 0.000330725
4 *114:6 *131:21 4.05309e-05
*RES
1 *631:Y *114:6 28.3857 
2 *114:6 *796:A 23 
*END

*D_NET *115 0.0223046
*CONN
*I *699:A1 I *D sky130_fd_sc_hd__o21ai_1
*I *654:A1 I *D sky130_fd_sc_hd__o211ai_1
*I *638:A1 I *D sky130_fd_sc_hd__o211ai_1
*I *637:B2 I *D sky130_fd_sc_hd__a2bb2o_1
*I *653:B2 I *D sky130_fd_sc_hd__a2bb2o_1
*I *641:B2 I *D sky130_fd_sc_hd__a2bb2o_1
*I *642:A1 I *D sky130_fd_sc_hd__o211ai_1
*I *659:A2 I *D sky130_fd_sc_hd__a221o_1
*I *658:B2 I *D sky130_fd_sc_hd__o22ai_1
*I *632:Y O *D sky130_fd_sc_hd__inv_2
*CAP
1 *699:A1 0
2 *654:A1 0
3 *638:A1 0
4 *637:B2 7.67562e-05
5 *653:B2 1.9139e-05
6 *641:B2 0
7 *642:A1 0
8 *659:A2 0.000291154
9 *658:B2 0
10 *632:Y 0
11 *115:146 0.000956436
12 *115:131 0.00101767
13 *115:118 0.000342145
14 *115:99 0.00154217
15 *115:93 0.00247525
16 *115:80 0.000895032
17 *115:64 0.000299866
18 *115:41 0.00105538
19 *115:30 0.000744088
20 *115:18 0.00220054
21 *115:6 0.00165023
22 *115:4 0.00107298
23 *653:B2 *653:A2_N 5.3304e-05
24 *659:A2 *720:A0 2.46906e-05
25 *659:A2 *720:A1 5.79559e-05
26 *659:A2 *172:74 0.000122277
27 *659:A2 *194:93 6.15667e-05
28 *115:6 *632:A 2.93747e-05
29 *115:18 *641:A1_N 4.5051e-05
30 *115:18 *641:A2_N 9.84794e-05
31 *115:18 *716:A0 0.00010018
32 *115:30 *643:A2 0
33 *115:30 *658:A1 9.03639e-05
34 *115:30 *658:A2 0.000100546
35 *115:30 *666:A 0.000382564
36 *115:30 *766:RESET_B 0
37 *115:30 *134:36 4.6318e-06
38 *115:30 *159:23 0
39 *115:30 *199:16 8.72173e-05
40 *115:30 *207:45 0
41 *115:30 *210:10 0
42 *115:30 *211:10 0.000139647
43 *115:41 *720:A0 2.65505e-05
44 *115:41 *720:A1 8.29713e-05
45 *115:41 *211:14 9.17998e-05
46 *115:41 *211:24 0.000130676
47 *115:64 *798:A 5.56279e-05
48 *115:64 *138:33 1.00084e-05
49 *115:64 *211:24 0.000395686
50 *115:64 *230:33 1.0417e-05
51 *115:80 *123:36 0
52 *115:80 *123:45 0
53 *115:80 *127:14 8.21866e-05
54 *115:80 *127:20 3.47879e-05
55 *115:80 *131:57 0.000133666
56 *115:80 *138:73 9.26005e-05
57 *115:80 *199:57 0.000135682
58 *115:93 *750:RESET_B 0
59 *115:93 *127:10 0.000154147
60 *115:93 *127:12 0.000153208
61 *115:93 *127:14 5.94125e-05
62 *115:93 *127:80 0
63 *115:93 *131:57 1.02387e-05
64 *115:93 *137:45 0
65 *115:93 *199:57 4.17929e-05
66 *115:99 *647:A2 0.00011277
67 *115:99 *130:97 2.80512e-05
68 *115:99 *199:67 0.000166072
69 *115:99 *216:14 0.000249708
70 *115:118 *754:CLK 2.93845e-05
71 *115:118 *121:10 0.000423224
72 *115:118 *132:47 0.000222123
73 *115:118 *135:102 1.98161e-05
74 *115:118 *216:24 0.000188926
75 *115:118 *217:19 3.91386e-05
76 *115:131 *662:A 0.000164364
77 *115:131 *735:A1 3.04021e-05
78 *115:131 *131:93 0.000479335
79 *115:131 *132:22 2.96154e-05
80 *115:131 *144:10 0.000169674
81 *115:131 *197:94 0
82 *115:131 *199:67 4.5051e-05
83 *115:131 *223:10 0
84 *115:131 *223:59 2.01531e-05
85 *115:146 *699:A2 9.84851e-05
86 *115:146 *747:RESET_B 0
87 *115:146 *118:25 5.70419e-05
88 *115:146 *126:82 0
89 *115:146 *153:8 7.03869e-05
90 *115:146 *199:44 0
91 *115:146 *199:57 0
92 *115:146 *200:19 0.000435924
93 *647:B1 *115:99 0.000481943
94 *668:B1 *115:30 3.32282e-05
95 *669:C *115:18 0.000315857
96 *3:13 *115:118 7.20518e-05
97 *17:10 *115:146 9.22856e-05
98 *28:10 *115:18 6.8437e-05
99 *52:10 *115:18 0.000269781
100 *52:10 *115:41 5.50049e-05
101 *63:22 *115:131 3.70187e-05
102 *65:16 *653:B2 5.50049e-05
103 *65:16 *115:131 0
104 *69:8 *115:30 6.17437e-06
105 *96:10 *115:146 0
*RES
1 *632:Y *115:4 23 
2 *115:4 *115:6 1.57429 
3 *115:6 *115:18 20.9836 
4 *115:18 *115:30 45.8879 
5 *115:30 *658:B2 23 
6 *115:18 *115:41 7.45714 
7 *115:41 *659:A2 28.6654 
8 *115:41 *115:64 36.4629 
9 *115:64 *642:A1 23 
10 *115:18 *641:B2 23 
11 *115:6 *115:80 25.9786 
12 *115:80 *653:B2 38.6214 
13 *115:80 *115:93 21.8357 
14 *115:93 *115:99 17.4621 
15 *115:99 *637:B2 24.0979 
16 *115:99 *115:118 39.28 
17 *115:118 *638:A1 23 
18 *115:93 *115:131 47.2136 
19 *115:131 *654:A1 23 
20 *115:4 *115:146 47.6486 
21 *115:146 *699:A1 23 
*END

*D_NET *116 0.00169352
*CONN
*I *659:C1 I *D sky130_fd_sc_hd__a221o_1
*I *633:Y O *D sky130_fd_sc_hd__inv_2
*CAP
1 *659:C1 0.000213883
2 *633:Y 0.000417572
3 *116:12 0.000631455
4 *659:C1 *727:A1 0
5 *659:C1 *133:20 0
6 *659:C1 *172:41 0
7 *659:C1 *172:74 0
8 *659:C1 *230:33 0
9 *116:12 *633:A 7.53384e-06
10 *116:12 *133:20 0
11 *116:12 *133:22 0
12 *116:12 *172:41 4.0773e-05
13 *116:12 *229:29 8.62783e-05
14 *116:12 *230:33 0
15 *38:8 *116:12 0.000296026
*RES
1 *633:Y *116:12 46.6068 
2 *116:12 *659:C1 41.4904 
*END

*D_NET *117 0.00806021
*CONN
*I *635:A I *D sky130_fd_sc_hd__inv_2
*I *706:A2 I *D sky130_fd_sc_hd__o21a_1
*I *699:A2 I *D sky130_fd_sc_hd__o21ai_1
*I *740:A3 I *D sky130_fd_sc_hd__a31oi_1
*I *741:A2 I *D sky130_fd_sc_hd__a31o_1
*I *736:B I *D sky130_fd_sc_hd__nand2_1
*I *692:A2 I *D sky130_fd_sc_hd__o22a_1
*I *737:B I *D sky130_fd_sc_hd__or2_1
*I *634:X O *D sky130_fd_sc_hd__or2_2
*CAP
1 *635:A 3.00574e-05
2 *706:A2 0.000225099
3 *699:A2 0.000411362
4 *740:A3 0
5 *741:A2 0
6 *736:B 0
7 *692:A2 0
8 *737:B 0.000188975
9 *634:X 0
10 *117:79 0.000842789
11 *117:75 0.000359049
12 *117:66 0.00023434
13 *117:57 0.000224437
14 *117:44 0.000140569
15 *117:38 0.000485022
16 *117:34 0.000539584
17 *117:25 0.000311486
18 *117:19 0.000802291
19 *117:4 0.000371889
20 *699:A2 *671:B1 5.50106e-05
21 *699:A2 *118:25 0.000234473
22 *706:A2 *123:36 0
23 *706:A2 *126:71 5.26308e-05
24 *706:A2 *126:82 0
25 *737:B *634:A 8.1796e-05
26 *117:19 *634:A 0.00018282
27 *117:19 *202:16 4.95081e-05
28 *117:19 *239:10 0.000201109
29 *117:25 *192:10 3.92407e-05
30 *117:25 *192:22 0.000225275
31 *117:25 *201:12 0
32 *117:25 *203:42 0
33 *117:25 *239:10 0
34 *117:34 *202:16 4.21352e-05
35 *117:44 *126:16 1.19692e-05
36 *117:44 *126:18 1.69668e-05
37 *117:44 *202:31 6.4393e-05
38 *117:44 *202:35 2.64506e-05
39 *117:57 *136:83 0
40 *117:57 *202:31 4.75206e-05
41 *117:57 *202:35 0.000197479
42 *117:57 *202:55 1.94812e-05
43 *117:66 *126:14 5.24393e-05
44 *117:66 *126:16 0.000141888
45 *117:66 *203:42 0
46 *117:75 *126:14 0.000187986
47 *117:75 *203:42 0
48 *117:79 *118:8 0.000140949
49 *117:79 *123:36 0
50 *117:79 *126:10 1.62615e-05
51 *117:79 *126:71 2.47097e-05
52 *698:A3 *699:A2 0
53 *738:A *117:34 0.000184527
54 *738:B *117:19 0.000143655
55 *738:B *117:34 7.42621e-05
56 *783:D *117:38 9.91798e-05
57 *16:10 *117:25 0
58 *17:10 *699:A2 1.32314e-05
59 *50:10 *117:57 6.07611e-06
60 *94:8 *635:A 1.59094e-05
61 *96:20 *635:A 5.3304e-05
62 *108:16 *706:A2 3.71369e-05
63 *109:14 *117:34 5.50049e-05
64 *115:146 *699:A2 9.84851e-05
*RES
1 *634:X *117:4 23 
2 *117:4 *737:B 26.5214 
3 *117:4 *117:19 6.71143 
4 *117:19 *117:25 35.7793 
5 *117:25 *692:A2 23 
6 *117:19 *117:34 6.35929 
7 *117:34 *117:38 2.54786 
8 *117:38 *117:44 32.9621 
9 *117:44 *736:B 23 
10 *117:38 *117:57 34.6607 
11 *117:57 *741:A2 23 
12 *117:34 *117:66 17.61 
13 *117:66 *740:A3 38 
14 *117:66 *117:75 2.61 
15 *117:75 *117:79 4.28786 
16 *117:79 *699:A2 46.7414 
17 *117:79 *706:A2 42.06 
18 *117:75 *635:A 38.6214 
*END

*D_NET *118 0.00524381
*CONN
*I *691:B1 I *D sky130_fd_sc_hd__a31o_1
*I *705:C1 I *D sky130_fd_sc_hd__a221o_1
*I *698:C1 I *D sky130_fd_sc_hd__a311o_1
*I *671:B1 I *D sky130_fd_sc_hd__a21oi_1
*I *635:Y O *D sky130_fd_sc_hd__inv_2
*CAP
1 *691:B1 0.00014738
2 *705:C1 0
3 *698:C1 0
4 *671:B1 0.000398385
5 *635:Y 7.06628e-05
6 *118:42 0.000465578
7 *118:31 3.4972e-05
8 *118:25 0.0010031
9 *118:10 0.00104832
10 *118:8 7.06628e-05
11 *671:B1 *850:A 0.00010018
12 *671:B1 *192:10 0.00010776
13 *691:B1 *691:A2 5.41288e-05
14 *691:B1 *206:74 9.84794e-05
15 *118:8 *126:10 5.45887e-05
16 *118:8 *126:71 1.22803e-05
17 *118:25 *126:8 0.000272383
18 *697:A2 *118:31 1.37349e-05
19 *698:A3 *118:25 0.000112087
20 *698:A3 *118:42 2.64616e-05
21 *699:A2 *671:B1 5.50106e-05
22 *699:A2 *118:25 0.000234473
23 *699:B1 *118:25 6.81213e-05
24 *17:10 *118:25 1.68748e-05
25 *87:14 *118:31 3.83059e-05
26 *88:12 *691:B1 3.884e-05
27 *88:12 *118:42 2.8936e-05
28 *90:22 *118:42 1.47872e-05
29 *95:28 *691:B1 0
30 *100:8 *118:31 6.25829e-05
31 *101:10 *118:31 1.14452e-05
32 *105:10 *118:42 0.00022726
33 *106:10 *118:42 2.472e-05
34 *107:10 *691:B1 0.000123172
35 *107:10 *118:42 1.01436e-05
36 *115:146 *118:25 5.70419e-05
37 *117:79 *118:8 0.000140949
*RES
1 *635:Y *118:8 39.9057 
2 *118:8 *118:10 15 
3 *118:10 *671:B1 31.6171 
4 *118:10 *118:25 13.1743 
5 *118:25 *118:31 31.2014 
6 *118:31 *698:C1 23 
7 *118:25 *118:42 20.1579 
8 *118:42 *705:C1 38 
9 *118:42 *691:B1 41.7079 
*END

*D_NET *119 0.00529942
*CONN
*I *638:C1 I *D sky130_fd_sc_hd__o211ai_1
*I *636:Y O *D sky130_fd_sc_hd__xnor2_1
*CAP
1 *638:C1 0
2 *636:Y 0.00156182
3 *119:16 0.000185025
4 *119:10 0.00174685
5 *119:10 *733:S 0.000145611
6 *119:10 *755:CLK 0.00066034
7 *119:10 *196:79 0.000269781
8 *119:10 *218:18 3.72951e-05
9 *119:10 *221:6 1.28774e-05
10 *119:10 *221:21 8.06804e-06
11 *119:16 *638:B1 0.000261317
12 *119:16 *149:18 0
13 *119:16 *231:31 0
14 *755:D *119:10 0.000140259
15 *3:13 *119:10 0.000116687
16 *44:10 *119:10 9.84851e-05
17 *45:10 *119:10 5.50049e-05
*RES
1 *636:Y *119:10 47.6086 
2 *119:10 *119:16 33.6664 
3 *119:16 *638:C1 23 
*END

*D_NET *120 0.000837702
*CONN
*I *639:B1 I *D sky130_fd_sc_hd__a211o_1
*I *637:X O *D sky130_fd_sc_hd__a2bb2o_1
*CAP
1 *639:B1 0.000141468
2 *637:X 6.74265e-05
3 *120:8 0.000208894
4 *639:B1 *639:A1 0.000217656
5 *639:B1 *129:76 4.75206e-05
6 *639:B1 *216:24 7.15126e-05
7 *120:8 *639:A1 4.08537e-05
8 *120:8 *756:RESET_B 3.56537e-05
9 *120:8 *216:24 6.7177e-06
*RES
1 *637:X *120:8 39.5536 
2 *120:8 *639:B1 41.5007 
*END

*D_NET *121 0.00159284
*CONN
*I *639:C1 I *D sky130_fd_sc_hd__a211o_1
*I *638:Y O *D sky130_fd_sc_hd__o211ai_1
*CAP
1 *639:C1 0
2 *638:Y 0.000324629
3 *121:10 0.000324629
4 *121:10 *754:CLK 8.48502e-06
5 *121:10 *217:19 0.000141954
6 *3:13 *121:10 0.00036992
7 *115:118 *121:10 0.000423224
*RES
1 *638:Y *121:10 45.6021 
2 *121:10 *639:C1 38 
*END

*D_NET *122 0.00145564
*CONN
*I *670:A I *D sky130_fd_sc_hd__and4_1
*I *639:X O *D sky130_fd_sc_hd__a211o_1
*CAP
1 *670:A 9.1387e-05
2 *639:X 0.000281792
3 *122:8 0.000373179
4 *670:A *650:B1 0.000138444
5 *122:8 *217:25 0
6 *650:C1 *122:8 0.000570839
7 *3:13 *122:8 0
*RES
1 *639:X *122:8 45.54 
2 *122:8 *670:A 39.5743 
*END

*D_NET *123 0.0121476
*CONN
*I *790:A I *D sky130_fd_sc_hd__clkbuf_16
*I *789:A I *D sky130_fd_sc_hd__clkbuf_16
*I *788:A I *D sky130_fd_sc_hd__clkbuf_16
*I *787:A I *D sky130_fd_sc_hd__clkbuf_16
*I *786:X O *D sky130_fd_sc_hd__clkbuf_16
*CAP
1 *790:A 0
2 *789:A 0
3 *788:A 0
4 *787:A 0.000298014
5 *786:X 0
6 *123:45 0.000651678
7 *123:36 0.000759013
8 *123:32 0.00183876
9 *123:23 0.00095498
10 *123:8 0.00193336
11 *123:4 0.00110843
12 *787:A *720:A1 1.42006e-05
13 *787:A *172:27 0.000194309
14 *787:A *187:8 0.000137879
15 *787:A *211:24 0
16 *123:8 *660:A2 5.79161e-05
17 *123:8 *129:53 0.000166944
18 *123:8 *130:62 0.000310641
19 *123:23 *731:S 1.80023e-05
20 *123:23 *819:A 0.000346225
21 *123:23 *125:10 0.000792493
22 *123:23 *138:27 0
23 *123:23 *159:23 0
24 *123:23 *211:24 0
25 *123:23 *214:8 9.27917e-05
26 *123:23 *231:31 0.000231212
27 *123:32 *129:53 1.21972e-05
28 *123:36 *126:82 0
29 *123:36 *126:101 0.000156449
30 *123:36 *199:44 0
31 *123:36 *199:57 0
32 *123:45 *707:A1 0.000313399
33 *123:45 *130:97 0
34 *123:45 *199:67 1.14452e-05
35 *123:45 *219:21 5.96687e-05
36 *123:45 *219:32 9.03157e-05
37 *123:45 *219:53 7.65883e-06
38 *706:A2 *123:36 0
39 *18:8 *123:36 2.26385e-05
40 *22:8 *123:45 0
41 *31:10 *123:36 0
42 *43:8 *123:23 0.000138718
43 *57:8 *123:45 0
44 *65:22 *123:45 0.000191157
45 *66:8 *123:36 0
46 *66:8 *123:45 0
47 *69:14 *787:A 0.000592312
48 *71:10 *123:8 0.000139346
49 *71:10 *123:23 7.34858e-05
50 *75:10 *123:45 0.000166532
51 *76:8 *123:8 0.000265466
52 *115:80 *123:36 0
53 *115:80 *123:45 0
54 *117:79 *123:36 0
*RES
1 *786:X *123:4 23 
2 *123:4 *123:8 28.485 
3 *123:8 *787:A 46.5964 
4 *123:8 *123:23 34.0779 
5 *123:23 *788:A 23 
6 *123:4 *123:32 21.815 
7 *123:32 *123:36 29.2307 
8 *123:36 *789:A 23 
9 *123:32 *123:45 28.8786 
10 *123:45 *790:A 23 
*END

*D_NET *124 0.0127491
*CONN
*I *764:CLK I *D sky130_fd_sc_hd__dfrtp_1
*I *771:CLK I *D sky130_fd_sc_hd__dfrtp_1
*I *767:CLK I *D sky130_fd_sc_hd__dfrtp_1
*I *772:CLK I *D sky130_fd_sc_hd__dfrtp_1
*I *774:CLK I *D sky130_fd_sc_hd__dfrtp_1
*I *775:CLK I *D sky130_fd_sc_hd__dfrtp_1
*I *766:CLK I *D sky130_fd_sc_hd__dfrtp_1
*I *770:CLK I *D sky130_fd_sc_hd__dfrtp_1
*I *785:CLK I *D sky130_fd_sc_hd__dfrtp_1
*I *781:CLK I *D sky130_fd_sc_hd__dfrtp_1
*I *769:CLK I *D sky130_fd_sc_hd__dfrtp_1
*I *773:CLK I *D sky130_fd_sc_hd__dfrtp_1
*I *759:CLK I *D sky130_fd_sc_hd__dfrtp_1
*I *787:X O *D sky130_fd_sc_hd__clkbuf_16
*CAP
1 *764:CLK 8.66227e-05
2 *771:CLK 0
3 *767:CLK 0
4 *772:CLK 0.000365483
5 *774:CLK 0
6 *775:CLK 0.000535886
7 *766:CLK 0.000417403
8 *770:CLK 0.000125129
9 *785:CLK 0
10 *781:CLK 0
11 *769:CLK 0
12 *773:CLK 0
13 *759:CLK 0.00026683
14 *787:X 0.000151899
15 *124:93 0.000535886
16 *124:73 0.000637316
17 *124:64 0.000522288
18 *124:57 0.000874714
19 *124:50 0.000335768
20 *124:42 0.00109752
21 *124:35 0.000314545
22 *124:24 0.000432843
23 *124:22 0.000556675
24 *124:20 0.000875507
25 *124:16 0.000639
26 *124:14 0.000884805
27 *124:8 0.000603688
28 *759:CLK *150:10 4.83778e-05
29 *764:CLK *230:33 0.000128574
30 *766:CLK *134:36 0
31 *766:CLK *141:8 0
32 *766:CLK *159:12 0
33 *766:CLK *159:23 3.98859e-05
34 *766:CLK *161:37 0
35 *770:CLK *141:8 0
36 *770:CLK *161:18 0
37 *772:CLK *172:49 0.000183898
38 *775:CLK *774:RESET_B 2.33744e-05
39 *775:CLK *775:RESET_B 7.27182e-05
40 *124:8 *208:21 6.40928e-05
41 *124:14 *771:RESET_B 0.000189459
42 *124:14 *229:29 4.81964e-05
43 *124:14 *230:33 0.000275482
44 *124:16 *771:RESET_B 0.000248742
45 *124:22 *154:12 0
46 *124:50 *759:RESET_B 0
47 *124:50 *769:RESET_B 1.24376e-05
48 *124:50 *133:24 0
49 *124:50 *133:26 0
50 *124:57 *773:RESET_B 2.56078e-05
51 *124:57 *228:10 7.73389e-05
52 *124:64 *781:D 0.00021078
53 *124:64 *781:RESET_B 9.8326e-05
54 *124:73 *781:RESET_B 7.82633e-05
55 *771:D *124:14 4.74443e-05
56 *774:D *775:CLK 7.88926e-05
57 *9:17 *759:CLK 0
58 *10:10 *770:CLK 0.000168744
59 *34:10 *766:CLK 4.48568e-05
60 *35:10 *772:CLK 0
61 *35:10 *124:22 0
62 *37:10 *766:CLK 4.59027e-05
63 *37:10 *770:CLK 5.93278e-05
64 *40:10 *759:CLK 2.22079e-05
65 *40:10 *124:22 0.000123256
66 *40:10 *124:24 7.31082e-05
67 *40:10 *124:50 0
*RES
1 *787:X *124:8 40.0507 
2 *124:8 *124:14 24.0521 
3 *124:14 *124:16 10.15 
4 *124:16 *124:20 17.0507 
5 *124:20 *124:22 8.59643 
6 *124:22 *124:24 2.96214 
7 *124:24 *759:CLK 43.7793 
8 *124:24 *124:35 15 
9 *124:35 *773:CLK 23 
10 *124:35 *124:42 5.38571 
11 *124:42 *124:50 35.9657 
12 *124:50 *769:CLK 23 
13 *124:42 *124:57 8.72071 
14 *124:57 *781:CLK 23 
15 *124:57 *124:64 9.67357 
16 *124:64 *785:CLK 23 
17 *124:64 *124:73 17.0507 
18 *124:73 *770:CLK 40.9621 
19 *124:73 *766:CLK 46.2443 
20 *124:22 *124:93 15 
21 *124:93 *775:CLK 33.1707 
22 *124:93 *774:CLK 23 
23 *124:20 *772:CLK 46.2443 
24 *124:16 *767:CLK 23 
25 *124:14 *771:CLK 23 
26 *124:8 *764:CLK 39.9057 
*END

*D_NET *125 0.0187359
*CONN
*I *756:CLK I *D sky130_fd_sc_hd__dfrtp_1
*I *776:CLK I *D sky130_fd_sc_hd__dfrtp_1
*I *761:CLK I *D sky130_fd_sc_hd__dfrtp_1
*I *778:CLK I *D sky130_fd_sc_hd__dfrtp_1
*I *777:CLK I *D sky130_fd_sc_hd__dfrtp_1
*I *758:CLK I *D sky130_fd_sc_hd__dfrtp_1
*I *755:CLK I *D sky130_fd_sc_hd__dfrtp_1
*I *754:CLK I *D sky130_fd_sc_hd__dfrtp_1
*I *757:CLK I *D sky130_fd_sc_hd__dfrtp_1
*I *762:CLK I *D sky130_fd_sc_hd__dfrtp_1
*I *791:A I *D sky130_fd_sc_hd__clkbuf_4
*I *765:CLK I *D sky130_fd_sc_hd__dfrtp_1
*I *768:CLK I *D sky130_fd_sc_hd__dfrtp_1
*I *788:X O *D sky130_fd_sc_hd__clkbuf_16
*CAP
1 *756:CLK 0.000226742
2 *776:CLK 0
3 *761:CLK 0
4 *778:CLK 0.00046242
5 *777:CLK 0
6 *758:CLK 0
7 *755:CLK 0.000275549
8 *754:CLK 0.000412048
9 *757:CLK 0
10 *762:CLK 0
11 *791:A 0.000681382
12 *765:CLK 0
13 *768:CLK 0.000109591
14 *788:X 0
15 *125:102 0.00112482
16 *125:93 0.000845172
17 *125:76 0.000624593
18 *125:62 0.00102057
19 *125:53 0.000608521
20 *125:51 0.00058863
21 *125:40 0.00129167
22 *125:31 0.000487359
23 *125:20 0.00106171
24 *125:14 0.000755475
25 *125:10 0.000642023
26 *125:4 0.000765979
27 *754:CLK *757:D 6.97002e-05
28 *754:CLK *135:24 2.93747e-05
29 *754:CLK *135:58 0.000171354
30 *754:CLK *135:83 0.000163874
31 *754:CLK *135:102 0.00082192
32 *754:CLK *138:25 0.000174015
33 *754:CLK *217:8 0.000201109
34 *754:CLK *217:19 0.000128391
35 *755:CLK *132:123 0.000620173
36 *755:CLK *218:18 7.00283e-05
37 *768:CLK *177:10 3.81391e-05
38 *778:CLK *777:RESET_B 9.96577e-05
39 *778:CLK *778:RESET_B 0.00023878
40 *778:CLK *232:8 2.30292e-05
41 *125:10 *761:RESET_B 2.08324e-05
42 *125:10 *765:RESET_B 9.67842e-05
43 *125:10 *135:28 1.12487e-05
44 *125:10 *135:30 6.43005e-05
45 *125:10 *212:25 6.11286e-05
46 *125:14 *640:B 7.31082e-05
47 *125:14 *761:RESET_B 0.000113624
48 *125:14 *212:25 4.21594e-06
49 *125:20 *640:A 9.84851e-05
50 *125:20 *640:B 0.00010655
51 *125:20 *177:10 9.84851e-05
52 *125:51 *174:8 0
53 *125:62 *757:D 2.93845e-05
54 *125:62 *762:D 7.88828e-05
55 *125:62 *762:RESET_B 0.000172298
56 *125:62 *135:24 0.000173452
57 *125:62 *138:14 7.42621e-05
58 *125:62 *138:25 4.56951e-05
59 *125:76 *174:8 0
60 *125:93 *139:8 8.1796e-05
61 *125:102 *139:8 0.000285694
62 *3:13 *755:CLK 0.000101071
63 *8:11 *125:76 0.000238762
64 *8:11 *125:93 0.000156117
65 *27:10 *125:93 0
66 *33:10 *125:31 3.81391e-05
67 *51:10 *125:20 0.000187129
68 *115:118 *754:CLK 2.93845e-05
69 *119:10 *755:CLK 0.00066034
70 *121:10 *754:CLK 8.48502e-06
71 *123:23 *125:10 0.000792493
*RES
1 *788:X *125:4 23 
2 *125:4 *125:10 28.2364 
3 *125:10 *125:14 17.9621 
4 *125:14 *125:20 27.905 
5 *125:20 *768:CLK 40.2579 
6 *125:20 *125:31 6.13143 
7 *125:31 *765:CLK 38 
8 *125:31 *125:40 3.66643 
9 *125:40 *791:A 49.1029 
10 *125:40 *125:51 7.89214 
11 *125:51 *125:53 15 
12 *125:53 *762:CLK 23 
13 *125:53 *125:62 13.0293 
14 *125:62 *757:CLK 23 
15 *125:62 *754:CLK 39.3436 
16 *125:51 *125:76 3.66643 
17 *125:76 *755:CLK 48.1707 
18 *125:76 *125:93 19.3086 
19 *125:93 *758:CLK 23 
20 *125:93 *125:102 13.5057 
21 *125:102 *777:CLK 23 
22 *125:102 *778:CLK 32.6736 
23 *125:14 *761:CLK 23 
24 *125:10 *776:CLK 38 
25 *125:4 *756:CLK 26.48 
*END

*D_NET *126 0.0125167
*CONN
*I *749:CLK I *D sky130_fd_sc_hd__dfrtp_4
*I *746:CLK I *D sky130_fd_sc_hd__dfrtp_4
*I *763:CLK I *D sky130_fd_sc_hd__dfrtp_1
*I *747:CLK I *D sky130_fd_sc_hd__dfrtp_1
*I *792:A I *D sky130_fd_sc_hd__bufinv_16
*I *784:CLK I *D sky130_fd_sc_hd__dfrtp_2
*I *745:CLK I *D sky130_fd_sc_hd__dfrtp_1
*I *783:CLK I *D sky130_fd_sc_hd__dfrtp_4
*I *782:CLK I *D sky130_fd_sc_hd__dfrtp_2
*I *748:CLK I *D sky130_fd_sc_hd__dfrtp_4
*I *789:X O *D sky130_fd_sc_hd__clkbuf_16
*CAP
1 *749:CLK 0.000261874
2 *746:CLK 0
3 *763:CLK 0
4 *747:CLK 0.0001731
5 *792:A 0
6 *784:CLK 1.56432e-05
7 *745:CLK 0.000105998
8 *783:CLK 0
9 *782:CLK 0.000765537
10 *748:CLK 0
11 *789:X 0.000177031
12 *126:118 0.000162236
13 *126:112 0.000954533
14 *126:101 0.000275211
15 *126:84 0.000717948
16 *126:82 0.000931752
17 *126:71 0.000353328
18 *126:24 0.000681669
19 *126:18 0.00153179
20 *126:16 0.000212031
21 *126:14 0.000440669
22 *126:10 0.000331214
23 *126:8 0.000507013
24 *745:CLK *203:42 7.4416e-05
25 *749:CLK *811:A 5.41385e-05
26 *782:CLK *782:RESET_B 4.57412e-05
27 *126:14 *202:35 0
28 *126:16 *202:35 0
29 *126:18 *202:16 4.85126e-05
30 *126:18 *202:31 8.62876e-05
31 *126:24 *782:RESET_B 0.000750597
32 *126:24 *202:16 2.71291e-05
33 *126:24 *202:23 5.50106e-05
34 *126:24 *202:31 5.94125e-05
35 *126:101 *763:D 2.32004e-05
36 *126:101 *199:16 0.000530622
37 *126:112 *811:A 0.000123934
38 *126:112 *200:6 2.13733e-05
39 *126:118 *200:19 0
40 *697:A2 *749:CLK 9.84794e-05
41 *697:B1 *126:118 0
42 *706:A2 *126:71 5.26308e-05
43 *706:A2 *126:82 0
44 *741:B1 *745:CLK 0
45 *747:D *747:CLK 6.17437e-06
46 *747:D *126:84 2.64616e-05
47 *748:D *126:24 7.53384e-06
48 *749:D *749:CLK 7.53384e-06
49 *821:A *126:101 0.000359332
50 *12:8 *126:118 0
51 *17:10 *126:118 6.95872e-05
52 *18:8 *126:82 0
53 *18:8 *126:101 6.25829e-05
54 *50:10 *126:10 0
55 *50:10 *126:14 0
56 *87:14 *749:CLK 1.74166e-05
57 *87:14 *126:118 0
58 *87:29 *749:CLK 2.26778e-05
59 *94:8 *784:CLK 1.94812e-05
60 *96:20 *784:CLK 5.67058e-05
61 *101:10 *749:CLK 8.38808e-05
62 *109:10 *782:CLK 0.000137651
63 *109:10 *126:16 7.75329e-06
64 *109:10 *126:18 9.21347e-06
65 *109:10 *126:24 2.4754e-05
66 *115:146 *126:82 0
67 *117:44 *126:16 1.19692e-05
68 *117:44 *126:18 1.69668e-05
69 *117:66 *126:14 5.24393e-05
70 *117:66 *126:16 0.000141888
71 *117:75 *126:14 0.000187986
72 *117:79 *126:10 1.62615e-05
73 *117:79 *126:71 2.47097e-05
74 *118:8 *126:10 5.45887e-05
75 *118:8 *126:71 1.22803e-05
76 *118:25 *126:8 0.000272383
77 *123:36 *126:82 0
78 *123:36 *126:101 0.000156449
*RES
1 *789:X *126:8 41.0036 
2 *126:8 *126:10 2.25786 
3 *126:10 *126:14 3.93571 
4 *126:14 *126:16 2.61 
5 *126:16 *126:18 1.90571 
6 *126:18 *126:24 31.1157 
7 *126:24 *748:CLK 23 
8 *126:18 *782:CLK 48.5229 
9 *126:16 *783:CLK 38 
10 *126:14 *745:CLK 40.0714 
11 *126:10 *784:CLK 38.6214 
12 *126:8 *126:71 4.28786 
13 *126:71 *792:A 38 
14 *126:71 *126:82 17.2579 
15 *126:82 *126:84 3.48 
16 *126:84 *747:CLK 25.4236 
17 *126:84 *126:101 39.8807 
18 *126:101 *763:CLK 23 
19 *126:82 *126:112 8.41 
20 *126:112 *126:118 33.3143 
21 *126:118 *746:CLK 23 
22 *126:112 *749:CLK 28.5514 
*END

*D_NET *127 0.0139879
*CONN
*I *744:CLK I *D sky130_fd_sc_hd__dfrtp_1
*I *752:CLK I *D sky130_fd_sc_hd__dfrtp_1
*I *779:CLK I *D sky130_fd_sc_hd__dfrtp_1
*I *751:CLK I *D sky130_fd_sc_hd__dfrtp_1
*I *780:CLK I *D sky130_fd_sc_hd__dfrtp_1
*I *793:A I *D sky130_fd_sc_hd__clkinv_2
*I *743:CLK I *D sky130_fd_sc_hd__dfrtp_1
*I *742:CLK I *D sky130_fd_sc_hd__dfrtp_1
*I *750:CLK I *D sky130_fd_sc_hd__dfrtp_1
*I *760:CLK I *D sky130_fd_sc_hd__dfrtp_1
*I *753:CLK I *D sky130_fd_sc_hd__dfrtp_1
*I *790:X O *D sky130_fd_sc_hd__clkbuf_16
*CAP
1 *744:CLK 7.78907e-05
2 *752:CLK 0.000686096
3 *779:CLK 0
4 *751:CLK 0.00034598
5 *780:CLK 0.000225582
6 *793:A 3.21736e-05
7 *743:CLK 0.000212683
8 *742:CLK 3.28791e-05
9 *750:CLK 0
10 *760:CLK 4.01155e-05
11 *753:CLK 0
12 *790:X 0
13 *127:123 0.00101381
14 *127:110 0.000424632
15 *127:95 0.000834563
16 *127:80 0.000773362
17 *127:44 0.000243681
18 *127:28 0.000471427
19 *127:20 0.00135916
20 *127:14 0.00117178
21 *127:12 0.000396298
22 *127:10 0.000350445
23 *127:4 0.000482023
24 *742:CLK *138:73 1.40958e-05
25 *743:CLK *653:A2_N 0.00022109
26 *743:CLK *131:78 0.000267167
27 *743:CLK *156:8 0.000151601
28 *744:CLK *677:S 0
29 *744:CLK *152:33 4.96264e-05
30 *744:CLK *224:25 0.000125413
31 *751:CLK *751:RESET_B 8.658e-06
32 *751:CLK *137:37 4.45734e-07
33 *751:CLK *137:43 3.53051e-05
34 *752:CLK *752:D 0.000141954
35 *752:CLK *197:125 2.81066e-05
36 *752:CLK *221:34 0.000185207
37 *780:CLK *708:S 5.50106e-05
38 *780:CLK *780:RESET_B 0.000280214
39 *793:A *197:45 2.64616e-05
40 *127:10 *662:A 6.51763e-05
41 *127:10 *199:57 0.000164291
42 *127:10 *199:67 1.59094e-05
43 *127:12 *199:57 0.000161121
44 *127:14 *199:57 0.000238194
45 *127:20 *707:A1 0.000185434
46 *127:20 *707:S 0.000108869
47 *127:20 *138:73 9.03784e-05
48 *127:20 *164:14 2.4754e-05
49 *127:20 *199:57 0.000164282
50 *127:28 *713:A1 0
51 *127:28 *713:S 1.01436e-05
52 *127:28 *716:A0 0
53 *127:28 *131:21 3.56537e-05
54 *127:44 *138:73 0.000156572
55 *127:44 *222:29 0.000116554
56 *127:80 *131:93 3.9185e-05
57 *127:80 *137:45 0
58 *127:80 *199:57 0
59 *127:95 *708:S 0.000111852
60 *127:95 *137:37 1.04196e-05
61 *127:95 *137:43 0
62 *127:110 *708:S 0
63 *127:110 *137:29 1.47563e-05
64 *127:110 *137:37 5.21127e-05
65 *127:110 *197:115 0
66 *127:123 *652:B 0.000133316
67 *127:123 *677:S 0
68 *127:123 *129:89 0.000185434
69 *127:123 *132:22 9.88411e-05
70 *127:123 *152:33 4.6318e-06
71 *127:123 *224:25 0.000142818
72 *827:A *127:123 5.50106e-05
73 *13:10 *743:CLK 9.75779e-05
74 *20:8 *127:95 0
75 *20:8 *127:110 8.75792e-05
76 *58:12 *127:28 0.000106707
77 *63:10 *127:123 2.4754e-05
78 *65:16 *743:CLK 1.03955e-05
79 *72:12 *127:80 0
80 *75:10 *793:A 2.64616e-05
81 *115:80 *127:14 8.21866e-05
82 *115:80 *127:20 3.47879e-05
83 *115:93 *127:10 0.000154147
84 *115:93 *127:12 0.000153208
85 *115:93 *127:14 5.94125e-05
86 *115:93 *127:80 0
*RES
1 *790:X *127:4 23 
2 *127:4 *127:10 19.785 
3 *127:10 *127:12 2.25786 
4 *127:12 *127:14 3.31429 
5 *127:14 *127:20 27.8843 
6 *127:20 *127:28 37.25 
7 *127:28 *753:CLK 23 
8 *127:20 *760:CLK 23.8493 
9 *127:14 *127:44 19.9093 
10 *127:44 *750:CLK 23 
11 *127:44 *742:CLK 23.6214 
12 *127:12 *743:CLK 44.3593 
13 *127:10 *793:A 38.6214 
14 *127:4 *127:80 19.0186 
15 *127:80 *780:CLK 42.9093 
16 *127:80 *127:95 19.9093 
17 *127:95 *751:CLK 27.8057 
18 *127:95 *127:110 33.6664 
19 *127:110 *779:CLK 23 
20 *127:110 *127:123 21.6907 
21 *127:123 *752:CLK 48.0464 
22 *127:123 *744:CLK 39.9057 
*END

*D_NET *128 0.00100782
*CONN
*I *634:A I *D sky130_fd_sc_hd__or2_2
*I *858:X O *D sky130_fd_sc_hd__clkbuf_1
*CAP
1 *634:A 5.21799e-05
2 *858:X 0.000273622
3 *128:8 0.000325802
4 *128:8 *161:8 0
5 *128:8 *201:12 3.70094e-05
6 *737:B *634:A 8.1796e-05
7 *48:10 *128:8 5.45887e-05
8 *117:19 *634:A 0.00018282
*RES
1 *858:X *128:8 42.7229 
2 *128:8 *634:A 40.0507 
*END

*D_NET *129 0.0154501
*CONN
*I *677:S I *D sky130_fd_sc_hd__mux2_1
*I *805:A I *D sky130_fd_sc_hd__clkbuf_4
*I *806:A I *D sky130_fd_sc_hd__clkbuf_4
*I *716:S I *D sky130_fd_sc_hd__mux2_1
*I *719:S I *D sky130_fd_sc_hd__mux2_1
*I *804:A I *D sky130_fd_sc_hd__clkbuf_4
*I *794:X O *D sky130_fd_sc_hd__clkbuf_2
*CAP
1 *677:S 0.000514101
2 *805:A 0
3 *806:A 0
4 *716:S 0
5 *719:S 0
6 *804:A 6.93303e-05
7 *794:X 0.000376703
8 *129:89 0.00116532
9 *129:76 0.000525636
10 *129:64 0.00146678
11 *129:55 0.000841238
12 *129:53 0.000887739
13 *129:38 0.000555803
14 *129:27 0.000784154
15 *129:14 0.00101081
16 *677:S *677:A1 0.000272383
17 *677:S *137:29 0.00014847
18 *677:S *145:6 2.4754e-05
19 *677:S *146:10 0.000171906
20 *677:S *152:33 4.96264e-05
21 *677:S *224:25 0
22 *804:A *725:S 0
23 *804:A *192:22 0.000272383
24 *804:A *194:6 9.84851e-05
25 *129:14 *161:18 1.86973e-05
26 *129:14 *192:22 0.000109895
27 *129:14 *194:14 8.92783e-05
28 *129:27 *658:A2 0.000167708
29 *129:27 *847:A 0
30 *129:27 *130:30 8.51432e-05
31 *129:27 *131:21 4.58924e-05
32 *129:27 *134:36 0
33 *129:27 *161:18 2.36844e-05
34 *129:27 *161:31 4.23714e-05
35 *129:27 *207:21 0
36 *129:38 *130:30 3.47776e-05
37 *129:38 *130:43 0.000163802
38 *129:38 *130:56 0
39 *129:38 *131:21 9.20311e-06
40 *129:38 *162:14 0.000353849
41 *129:38 *210:44 2.35393e-05
42 *129:53 *716:A0 0.000110913
43 *129:53 *130:43 1.01436e-05
44 *129:53 *130:56 0.000191166
45 *129:53 *130:62 6.17437e-06
46 *129:53 *131:21 0
47 *129:55 *713:A0 0.000169683
48 *129:64 *646:A1 0
49 *129:64 *711:S 8.57061e-05
50 *129:64 *713:A0 1.14452e-05
51 *129:64 *130:97 0
52 *129:64 *167:8 0.000157309
53 *129:64 *220:14 0
54 *129:76 *649:A 0.00113959
55 *129:76 *711:S 1.09783e-05
56 *129:76 *216:24 0.000301084
57 *129:89 *652:B 0.000270682
58 *129:89 *711:S 4.9844e-05
59 *129:89 *132:22 3.28867e-05
60 *129:89 *132:37 0.000359332
61 *129:89 *220:10 0
62 *129:89 *220:14 0
63 *129:89 *233:21 0
64 *639:B1 *129:76 4.75206e-05
65 *674:C *129:27 0
66 *744:CLK *677:S 0
67 *794:A *804:A 9.90162e-05
68 *794:A *129:14 4.75206e-05
69 *22:8 *129:55 0
70 *37:10 *129:14 5.3304e-05
71 *54:10 *129:53 0.000352421
72 *55:8 *129:89 0
73 *58:12 *129:55 0.000181054
74 *58:12 *129:64 8.67978e-05
75 *63:10 *129:89 0.00039759
76 *66:8 *129:55 0
77 *81:18 *129:55 0.000509855
78 *82:8 *129:27 0
79 *123:8 *129:53 0.000166944
80 *123:32 *129:53 1.21972e-05
81 *127:123 *677:S 0
82 *127:123 *129:89 0.000185434
*RES
1 *794:X *129:14 44.8771 
2 *129:14 *804:A 41.5007 
3 *129:14 *129:27 11.4136 
4 *129:27 *719:S 38 
5 *129:27 *129:38 6.40071 
6 *129:38 *716:S 38 
7 *129:38 *129:53 38.4721 
8 *129:53 *129:55 11.7657 
9 *129:55 *806:A 38 
10 *129:55 *129:64 6.3075 
11 *129:64 *129:76 29.4689 
12 *129:76 *805:A 23 
13 *129:64 *129:89 45.6289 
14 *129:89 *677:S 49.5171 
*END

*D_NET *130 0.0119889
*CONN
*I *639:A1 I *D sky130_fd_sc_hd__a211o_1
*I *646:A1 I *D sky130_fd_sc_hd__o211ai_1
*I *647:A1 I *D sky130_fd_sc_hd__a211o_1
*I *637:A1_N I *D sky130_fd_sc_hd__a2bb2o_1
*I *643:A1 I *D sky130_fd_sc_hd__a211o_1
*I *660:A2 I *D sky130_fd_sc_hd__a211o_1
*I *641:A1_N I *D sky130_fd_sc_hd__a2bb2o_1
*I *668:A1 I *D sky130_fd_sc_hd__a211o_1
*I *658:A2 I *D sky130_fd_sc_hd__o22ai_1
*I *667:A1 I *D sky130_fd_sc_hd__o211ai_1
*I *795:X O *D sky130_fd_sc_hd__buf_2
*CAP
1 *639:A1 0.000347572
2 *646:A1 0.000292052
3 *647:A1 0
4 *637:A1_N 0
5 *643:A1 0
6 *660:A2 0.000236619
7 *641:A1_N 7.94401e-05
8 *668:A1 0.000232633
9 *658:A2 0.000601676
10 *667:A1 8.42321e-05
11 *795:X 0
12 *130:97 0.000701228
13 *130:82 0.000409177
14 *130:80 0.000961758
15 *130:62 0.000344652
16 *130:56 0.000884511
17 *130:43 0.00040308
18 *130:30 0.000493184
19 *130:17 0.000785136
20 *130:4 0.00016849
21 *639:A1 *756:RESET_B 0
22 *639:A1 *216:24 0.000205883
23 *641:A1_N *641:A2_N 5.50049e-05
24 *646:A1 *645:B 9.84851e-05
25 *646:A1 *708:A1 0.000181381
26 *646:A1 *219:53 5.50106e-05
27 *658:A2 *766:RESET_B 0.000219891
28 *658:A2 *134:36 5.18019e-05
29 *660:A2 *643:A2 3.91386e-05
30 *667:A1 *795:A 0
31 *667:A1 *207:45 3.53115e-05
32 *668:A1 *668:A2 4.95081e-05
33 *130:17 *795:A 2.64616e-05
34 *130:17 *207:45 5.67058e-05
35 *130:30 *766:RESET_B 0.000234373
36 *130:43 *766:RESET_B 9.85378e-05
37 *130:43 *210:10 0.000118807
38 *130:56 *643:A2 7.21237e-05
39 *130:56 *716:A0 2.24048e-05
40 *130:56 *210:10 1.12487e-05
41 *130:62 *643:A2 8.41336e-05
42 *130:80 *713:A1 0.000129504
43 *130:80 *713:S 0
44 *130:80 *716:A0 0.000484291
45 *130:80 *756:RESET_B 0
46 *130:80 *131:40 7.69954e-05
47 *130:97 *647:A2 6.64204e-05
48 *130:97 *216:14 0.000268074
49 *639:B1 *639:A1 0.000217656
50 *647:B1 *130:97 0.00018418
51 *660:C1 *660:A2 0
52 *667:C1 *667:A1 0
53 *668:B1 *668:A1 2.02517e-05
54 *786:A *130:62 5.50106e-05
55 *3:13 *639:A1 0
56 *3:13 *130:56 9.48381e-06
57 *3:13 *130:80 0
58 *25:10 *130:80 3.31683e-05
59 *52:10 *130:56 0
60 *54:10 *130:62 2.25809e-05
61 *57:8 *646:A1 4.13358e-05
62 *57:8 *130:97 4.21594e-06
63 *58:8 *130:97 0.000182832
64 *76:8 *660:A2 6.99492e-05
65 *79:8 *668:A1 0.000139346
66 *115:18 *641:A1_N 4.5051e-05
67 *115:30 *658:A2 0.000100546
68 *115:99 *130:97 2.80512e-05
69 *120:8 *639:A1 4.08537e-05
70 *123:8 *660:A2 5.79161e-05
71 *123:8 *130:62 0.000310641
72 *123:45 *130:97 0
73 *129:27 *658:A2 0.000167708
74 *129:27 *130:30 8.51432e-05
75 *129:38 *130:30 3.47776e-05
76 *129:38 *130:43 0.000163802
77 *129:38 *130:56 0
78 *129:53 *130:43 1.01436e-05
79 *129:53 *130:56 0.000191166
80 *129:53 *130:62 6.17437e-06
81 *129:64 *646:A1 0
82 *129:64 *130:97 0
*RES
1 *795:X *130:4 23 
2 *130:4 *667:A1 24.9471 
3 *130:4 *130:17 16.5743 
4 *130:17 *658:A2 48.7093 
5 *130:17 *130:30 3.31429 
6 *130:30 *668:A1 41.8529 
7 *130:30 *130:43 4.72286 
8 *130:43 *641:A1_N 39.5743 
9 *130:43 *130:56 3.93571 
10 *130:56 *130:62 18.9771 
11 *130:62 *660:A2 27.4743 
12 *130:62 *643:A1 23 
13 *130:56 *130:80 13.8786 
14 *130:80 *130:82 15 
15 *130:82 *637:A1_N 23 
16 *130:82 *130:97 24.7357 
17 *130:97 *647:A1 38 
18 *130:97 *646:A1 44.235 
19 *130:80 *639:A1 44.2557 
*END

*D_NET *131 0.0112168
*CONN
*I *655:A1 I *D sky130_fd_sc_hd__a211o_1
*I *663:A1 I *D sky130_fd_sc_hd__o211ai_1
*I *664:A1 I *D sky130_fd_sc_hd__a211o_1
*I *653:A1_N I *D sky130_fd_sc_hd__a2bb2o_1
*I *650:A1 I *D sky130_fd_sc_hd__o211ai_1
*I *651:A1 I *D sky130_fd_sc_hd__a211o_1
*I *795:A I *D sky130_fd_sc_hd__buf_2
*I *796:X O *D sky130_fd_sc_hd__clkbuf_2
*CAP
1 *655:A1 1.24673e-05
2 *663:A1 0
3 *664:A1 0
4 *653:A1_N 0
5 *650:A1 0
6 *651:A1 0.000109848
7 *795:A 0.000127384
8 *796:X 0
9 *131:93 0.000466953
10 *131:78 0.000979395
11 *131:57 0.000958668
12 *131:47 0.000875845
13 *131:40 0.000210586
14 *131:23 0.000503564
15 *131:21 0.00147611
16 *131:4 0.00100321
17 *651:A1 *824:A 9.41704e-05
18 *651:A1 *138:65 2.32004e-05
19 *655:A1 *222:20 5.0554e-05
20 *131:21 *716:A0 0.000172372
21 *131:21 *162:14 0.000136039
22 *131:21 *207:21 0
23 *131:21 *210:44 0.000133316
24 *131:23 *824:A 5.50106e-05
25 *131:23 *138:65 0.000136687
26 *131:47 *138:65 0.000320345
27 *131:47 *222:20 3.22879e-05
28 *131:57 *750:RESET_B 0.000242657
29 *131:57 *138:65 2.87173e-05
30 *131:57 *222:20 0.000256855
31 *131:78 *653:A2_N 0.000112592
32 *131:78 *197:57 0.000154405
33 *131:78 *199:57 0
34 *131:78 *225:31 1.14452e-05
35 *131:93 *662:A 0.000651537
36 *131:93 *662:B 0.00010655
37 *131:93 *197:57 3.92407e-05
38 *131:93 *199:57 0
39 *131:93 *225:31 7.79942e-05
40 *655:B1 *131:57 1.76557e-05
41 *667:A1 *795:A 0
42 *743:CLK *131:78 0.000267167
43 *3:13 *131:40 0.000259658
44 *25:10 *131:40 2.64616e-05
45 *28:10 *131:21 0
46 *54:10 *131:21 0
47 *58:12 *131:21 0
48 *59:16 *651:A1 2.02517e-05
49 *65:16 *131:78 1.41077e-05
50 *72:12 *131:93 0.000112803
51 *75:24 *131:40 4.1572e-05
52 *81:18 *131:21 0
53 *114:6 *131:21 4.05309e-05
54 *115:80 *131:57 0.000133666
55 *115:93 *131:57 1.02387e-05
56 *115:131 *131:93 0.000479335
57 *127:28 *131:21 3.56537e-05
58 *127:80 *131:93 3.9185e-05
59 *129:27 *131:21 4.58924e-05
60 *129:38 *131:21 9.20311e-06
61 *129:53 *131:21 0
62 *130:17 *795:A 2.64616e-05
63 *130:80 *131:40 7.69954e-05
*RES
1 *796:X *131:4 23 
2 *131:4 *795:A 25.2993 
3 *131:4 *131:21 47.69 
4 *131:21 *131:23 3.48 
5 *131:23 *651:A1 25.0714 
6 *131:23 *131:40 34.7643 
7 *131:40 *650:A1 23 
8 *131:21 *131:47 8.24429 
9 *131:47 *131:57 38.9486 
10 *131:57 *653:A1_N 23 
11 *131:57 *131:78 24.1971 
12 *131:78 *664:A1 38 
13 *131:78 *131:93 28.8371 
14 *131:93 *663:A1 23 
15 *131:47 *655:A1 23.4971 
*END

*D_NET *132 0.0197293
*CONN
*I *661:A I *D sky130_fd_sc_hd__xor2_1
*I *644:A I *D sky130_fd_sc_hd__xor2_1
*I *636:A I *D sky130_fd_sc_hd__xnor2_1
*I *648:A I *D sky130_fd_sc_hd__xor2_1
*I *640:A I *D sky130_fd_sc_hd__xnor2_1
*I *665:A I *D sky130_fd_sc_hd__xor2_1
*I *656:B I *D sky130_fd_sc_hd__nand2_1
*I *657:B I *D sky130_fd_sc_hd__or2_1
*I *727:A1 I *D sky130_fd_sc_hd__mux2_1
*I *652:A I *D sky130_fd_sc_hd__xnor2_1
*I *797:X O *D sky130_fd_sc_hd__clkbuf_4
*CAP
1 *661:A 0.000194199
2 *644:A 0.000170677
3 *636:A 0
4 *648:A 8.18661e-05
5 *640:A 4.2583e-05
6 *665:A 0.00014245
7 *656:B 0
8 *657:B 0
9 *727:A1 0.000310252
10 *652:A 0
11 *797:X 7.51577e-05
12 *132:123 0.000390609
13 *132:65 0.000433072
14 *132:61 0.000142176
15 *132:59 0.000490138
16 *132:53 0.000874015
17 *132:51 0.000680248
18 *132:49 0.000485891
19 *132:47 0.00184454
20 *132:37 0.00266164
21 *132:22 0.00182488
22 *132:8 0.00144782
23 *644:A *733:S 5.50106e-05
24 *644:A *149:18 6.16531e-05
25 *644:A *152:14 0.000272383
26 *644:A *221:21 8.82787e-05
27 *661:A *661:B 0.000327273
28 *665:A *656:A 5.19667e-05
29 *727:A1 *727:A0 0.000184527
30 *727:A1 *849:A 0.000304914
31 *727:A1 *133:20 7.76364e-06
32 *727:A1 *194:74 0.00016679
33 *132:8 *661:B 3.39231e-05
34 *132:8 *854:A 4.21594e-06
35 *132:22 *652:B 0.000272383
36 *132:22 *661:B 1.19796e-05
37 *132:22 *779:RESET_B 0.000263165
38 *132:22 *169:10 7.88828e-05
39 *132:22 *200:19 0
40 *132:22 *223:59 8.80821e-05
41 *132:22 *234:10 7.66316e-05
42 *132:22 *234:21 0
43 *132:37 *135:102 0.000181259
44 *132:37 *220:10 5.47808e-05
45 *132:47 *711:A1 0.000183177
46 *132:47 *714:A0 2.47815e-05
47 *132:47 *714:A1 1.21972e-05
48 *132:47 *718:S 0.000555522
49 *132:47 *756:RESET_B 0
50 *132:47 *135:102 0
51 *132:47 *196:51 6.67968e-05
52 *132:51 *212:14 0.000167443
53 *132:53 *640:B 0
54 *132:53 *721:A1 7.4878e-05
55 *132:53 *212:14 0.000354778
56 *132:53 *212:25 0
57 *132:59 *656:A 2.64616e-05
58 *132:59 *721:A1 4.23817e-05
59 *132:59 *724:A0 9.28699e-05
60 *132:59 *724:A1 0.000141052
61 *132:59 *724:S 6.07611e-06
62 *132:59 *133:18 0.000129412
63 *132:59 *183:25 2.18409e-05
64 *132:61 *656:A 5.90675e-06
65 *132:61 *183:25 5.90675e-06
66 *132:65 *849:A 2.55642e-05
67 *132:65 *133:18 7.75329e-06
68 *132:65 *183:21 0.000111852
69 *132:123 *173:19 0.000185676
70 *132:123 *212:14 0.000111852
71 *132:123 *215:8 0
72 *132:123 *218:18 0.000321966
73 *659:C1 *727:A1 0
74 *755:CLK *132:123 0.000620173
75 *827:A *132:22 2.93845e-05
76 *837:A *132:47 5.73404e-05
77 *3:13 *644:A 4.13945e-05
78 *3:13 *132:47 5.73167e-05
79 *3:13 *132:123 0.000104555
80 *23:10 *132:47 0.000116314
81 *30:10 *132:123 0.000113749
82 *63:10 *132:22 7.09236e-05
83 *63:22 *132:22 1.7992e-05
84 *67:10 *665:A 0.000104636
85 *67:10 *727:A1 0
86 *67:10 *132:65 0
87 *115:118 *132:47 0.000222123
88 *115:131 *132:22 2.96154e-05
89 *125:20 *640:A 9.84851e-05
90 *127:123 *132:22 9.88411e-05
91 *129:89 *132:22 3.28867e-05
92 *129:89 *132:37 0.000359332
*RES
1 *797:X *132:8 39.5536 
2 *132:8 *132:22 36.0457 
3 *132:22 *652:A 23 
4 *132:22 *132:37 27.1179 
5 *132:37 *132:47 43.0264 
6 *132:47 *132:49 15 
7 *132:49 *132:51 2.25786 
8 *132:51 *132:53 11.4136 
9 *132:53 *132:59 22.9543 
10 *132:59 *132:61 0.497143 
11 *132:61 *132:65 17.2579 
12 *132:65 *727:A1 46.0993 
13 *132:65 *657:B 38 
14 *132:61 *656:B 23 
15 *132:59 *665:A 27.1221 
16 *132:53 *640:A 39.0979 
17 *132:51 *648:A 39.0979 
18 *132:49 *132:123 28.6507 
19 *132:123 *636:A 23 
20 *132:37 *644:A 43.2614 
21 *132:8 *661:A 42.4536 
*END

*D_NET *133 0.0108214
*CONN
*I *760:RESET_B I *D sky130_fd_sc_hd__dfrtp_1
*I *772:RESET_B I *D sky130_fd_sc_hd__dfrtp_1
*I *771:RESET_B I *D sky130_fd_sc_hd__dfrtp_1
*I *767:RESET_B I *D sky130_fd_sc_hd__dfrtp_1
*I *775:RESET_B I *D sky130_fd_sc_hd__dfrtp_1
*I *774:RESET_B I *D sky130_fd_sc_hd__dfrtp_1
*I *773:RESET_B I *D sky130_fd_sc_hd__dfrtp_1
*I *769:RESET_B I *D sky130_fd_sc_hd__dfrtp_1
*I *759:RESET_B I *D sky130_fd_sc_hd__dfrtp_1
*I *768:RESET_B I *D sky130_fd_sc_hd__dfrtp_1
*I *798:X O *D sky130_fd_sc_hd__clkbuf_4
*CAP
1 *760:RESET_B 0.000794478
2 *772:RESET_B 4.08008e-05
3 *771:RESET_B 0.000215549
4 *767:RESET_B 0.000281938
5 *775:RESET_B 0.000196367
6 *774:RESET_B 4.01072e-05
7 *773:RESET_B 3.27288e-05
8 *769:RESET_B 0.000262413
9 *759:RESET_B 0.000280302
10 *768:RESET_B 2.51449e-05
11 *798:X 0
12 *133:56 0.000236474
13 *133:26 0.000631349
14 *133:24 0.000311224
15 *133:22 0.000539289
16 *133:20 0.000917166
17 *133:18 0.000789247
18 *133:8 0.000600729
19 *133:4 0.00112297
20 *759:RESET_B *140:10 4.83778e-05
21 *760:RESET_B *798:A 3.24262e-05
22 *760:RESET_B *819:A 9.58714e-05
23 *760:RESET_B *160:10 9.75779e-05
24 *760:RESET_B *211:24 0.00018536
25 *760:RESET_B *211:34 0.000185368
26 *760:RESET_B *213:10 0.00010018
27 *768:RESET_B *176:8 4.83893e-05
28 *771:RESET_B *229:29 0.000311905
29 *775:RESET_B *229:10 0.00031495
30 *133:8 *176:8 0.00014196
31 *133:8 *209:6 0.000177899
32 *133:18 *724:S 0
33 *133:18 *849:A 1.83667e-05
34 *133:18 *183:21 5.20202e-05
35 *133:18 *209:12 0
36 *133:20 *724:S 0
37 *133:20 *849:A 0.000125904
38 *133:20 *194:48 0
39 *133:20 *194:61 0
40 *133:20 *208:8 0
41 *133:22 *633:A 0.000244517
42 *133:22 *158:10 4.90994e-05
43 *133:22 *194:37 0
44 *133:22 *194:48 0
45 *133:22 *228:10 0.000157309
46 *133:22 *229:10 0
47 *133:22 *229:29 0
48 *133:24 *228:10 0.000192087
49 num_to_send_o[2] *133:18 7.20154e-05
50 *659:C1 *133:20 0
51 *727:A1 *133:20 7.76364e-06
52 *775:CLK *774:RESET_B 2.33744e-05
53 *775:CLK *775:RESET_B 7.27182e-05
54 *38:8 *133:20 0
55 *42:10 *133:22 0
56 *42:10 *133:24 0
57 *53:10 *760:RESET_B 0.000134234
58 *116:12 *133:20 0
59 *116:12 *133:22 0
60 *124:14 *771:RESET_B 0.000189459
61 *124:16 *771:RESET_B 0.000248742
62 *124:50 *759:RESET_B 0
63 *124:50 *769:RESET_B 1.24376e-05
64 *124:50 *133:24 0
65 *124:50 *133:26 0
66 *124:57 *773:RESET_B 2.56078e-05
67 *132:59 *133:18 0.000129412
68 *132:65 *133:18 7.75329e-06
*RES
1 *798:X *133:4 23 
2 *133:4 *133:8 7.31214 
3 *133:8 *768:RESET_B 0.548929 
4 *133:8 *133:18 20.7793 
5 *133:18 *133:20 9.30071 
6 *133:20 *133:22 7.89214 
7 *133:22 *133:24 4.01857 
8 *133:24 *133:26 1.55357 
9 *133:26 *759:RESET_B 19.9196 
10 *133:26 *769:RESET_B 19.3811 
11 *133:24 *773:RESET_B 15.5489 
12 *133:22 *133:56 15 
13 *133:56 *774:RESET_B 0.548929 
14 *133:56 *775:RESET_B 5.31321 
15 *133:20 *767:RESET_B 16.0979 
16 *767:RESET_B *771:RESET_B 7.31214 
17 *133:18 *772:RESET_B 15.5489 
18 *133:4 *760:RESET_B 14.0546 
*END

*D_NET *134 0.00802732
*CONN
*I *763:RESET_B I *D sky130_fd_sc_hd__dfrtp_1
*I *781:RESET_B I *D sky130_fd_sc_hd__dfrtp_1
*I *785:RESET_B I *D sky130_fd_sc_hd__dfrtp_1
*I *770:RESET_B I *D sky130_fd_sc_hd__dfrtp_1
*I *766:RESET_B I *D sky130_fd_sc_hd__dfrtp_1
*I *764:RESET_B I *D sky130_fd_sc_hd__dfrtp_1
*I *799:X O *D sky130_fd_sc_hd__clkbuf_2
*CAP
1 *763:RESET_B 2.17728e-05
2 *781:RESET_B 0.000362306
3 *785:RESET_B 0.000362306
4 *770:RESET_B 0.000208115
5 *766:RESET_B 0.000805527
6 *764:RESET_B 0.0004746
7 *799:X 0.000299214
8 *134:36 0.000735047
9 *134:21 0.000554054
10 *134:8 0.000520128
11 *763:RESET_B *199:16 2.33744e-05
12 *763:RESET_B *210:44 3.46476e-05
13 *764:RESET_B *159:23 0.000582829
14 *766:RESET_B *207:45 0.000167443
15 *766:RESET_B *210:10 3.47781e-05
16 *770:RESET_B *161:18 0
17 *781:RESET_B *781:D 9.18637e-05
18 *134:21 *726:A1 7.06588e-05
19 *134:21 *199:16 0.000192904
20 *134:21 *210:6 5.50049e-05
21 *134:21 *210:44 5.3304e-05
22 *134:36 *159:23 0
23 *134:36 *161:18 0
24 *134:36 *194:14 0.000218952
25 *658:A2 *766:RESET_B 0.000219891
26 *658:A2 *134:36 5.18019e-05
27 *668:B1 *764:RESET_B 0.000457435
28 *766:CLK *134:36 0
29 *34:10 *134:36 0.000138718
30 *37:10 *770:RESET_B 0.000141879
31 *37:10 *134:36 0.000185095
32 *53:10 *764:RESET_B 5.62433e-05
33 *53:10 *134:8 0.000393293
34 *115:30 *766:RESET_B 0
35 *115:30 *134:36 4.6318e-06
36 *124:64 *781:RESET_B 9.8326e-05
37 *124:73 *781:RESET_B 7.82633e-05
38 *129:27 *134:36 0
39 *130:30 *766:RESET_B 0.000234373
40 *130:43 *766:RESET_B 9.85378e-05
*RES
1 *799:X *134:8 42.4329 
2 *134:8 *764:RESET_B 22.8921 
3 *764:RESET_B *134:21 5.47893 
4 *134:21 *766:RESET_B 37.54 
5 *766:RESET_B *134:36 26.6311 
6 *134:36 *770:RESET_B 18.8839 
7 *134:36 *785:RESET_B 15 
8 *785:RESET_B *781:RESET_B 7.00143 
9 *134:21 *763:RESET_B 0.548929 
*END

*D_NET *135 0.0129951
*CONN
*I *758:RESET_B I *D sky130_fd_sc_hd__dfrtp_1
*I *754:RESET_B I *D sky130_fd_sc_hd__dfrtp_1
*I *756:RESET_B I *D sky130_fd_sc_hd__dfrtp_1
*I *757:RESET_B I *D sky130_fd_sc_hd__dfrtp_1
*I *777:RESET_B I *D sky130_fd_sc_hd__dfrtp_1
*I *755:RESET_B I *D sky130_fd_sc_hd__dfrtp_1
*I *765:RESET_B I *D sky130_fd_sc_hd__dfrtp_1
*I *776:RESET_B I *D sky130_fd_sc_hd__dfrtp_1
*I *761:RESET_B I *D sky130_fd_sc_hd__dfrtp_1
*I *762:RESET_B I *D sky130_fd_sc_hd__dfrtp_1
*I *800:X O *D sky130_fd_sc_hd__clkbuf_4
*CAP
1 *758:RESET_B 0.00016029
2 *754:RESET_B 0
3 *756:RESET_B 0.000531204
4 *757:RESET_B 5.04633e-05
5 *777:RESET_B 0.00026767
6 *755:RESET_B 0
7 *765:RESET_B 0.000287548
8 *776:RESET_B 0.000156587
9 *761:RESET_B 0.000254049
10 *762:RESET_B 0.000125193
11 *800:X 8.81957e-05
12 *135:102 0.00119205
13 *135:83 0.000957376
14 *135:62 0.000414968
15 *135:58 0.000618451
16 *135:30 0.000467134
17 *135:28 0.000956735
18 *135:24 0.00110392
19 *135:10 0.000439868
20 *135:8 0.000297024
21 *756:RESET_B *711:S 0
22 *756:RESET_B *713:S 0
23 *756:RESET_B *216:10 0.000166513
24 *756:RESET_B *216:24 0
25 *757:RESET_B *778:RESET_B 6.07306e-05
26 *758:RESET_B *803:A 8.96345e-05
27 *758:RESET_B *833:A 0
28 *758:RESET_B *138:14 7.93051e-05
29 *758:RESET_B *173:19 7.99094e-05
30 *761:RESET_B *184:8 0.0002499
31 *761:RESET_B *211:34 0
32 *762:RESET_B *803:A 4.18957e-05
33 *762:RESET_B *138:14 0.000144459
34 *765:RESET_B *212:14 4.19048e-05
35 *765:RESET_B *212:25 3.64736e-05
36 *776:RESET_B *196:31 8.06804e-06
37 *777:RESET_B *778:RESET_B 0
38 *777:RESET_B *151:10 1.14452e-05
39 *135:8 *218:18 9.41704e-05
40 *135:10 *803:A 3.83778e-05
41 *135:10 *138:14 7.48331e-05
42 *135:28 *648:B 0
43 *135:28 *803:A 0
44 *135:28 *179:8 5.21024e-05
45 *135:28 *184:8 0.000438165
46 *135:28 *212:25 0
47 *135:28 *215:8 0
48 *135:30 *184:8 0.000139657
49 *135:62 *778:RESET_B 0
50 *639:A1 *756:RESET_B 0
51 *754:CLK *135:24 2.93747e-05
52 *754:CLK *135:58 0.000171354
53 *754:CLK *135:83 0.000163874
54 *754:CLK *135:102 0.00082192
55 *776:D *776:RESET_B 0.000124348
56 *778:CLK *777:RESET_B 9.96577e-05
57 *23:10 *756:RESET_B 0
58 *24:8 *777:RESET_B 0
59 *29:10 *135:28 0
60 *51:10 *761:RESET_B 0.000272734
61 *55:8 *756:RESET_B 0.00018406
62 *55:8 *135:102 2.22079e-05
63 *115:118 *135:102 1.98161e-05
64 *120:8 *756:RESET_B 3.56537e-05
65 *125:10 *761:RESET_B 2.08324e-05
66 *125:10 *765:RESET_B 9.67842e-05
67 *125:10 *135:28 1.12487e-05
68 *125:10 *135:30 6.43005e-05
69 *125:14 *761:RESET_B 0.000113624
70 *125:62 *762:RESET_B 0.000172298
71 *125:62 *135:24 0.000173452
72 *130:80 *756:RESET_B 0
73 *132:37 *135:102 0.000181259
74 *132:47 *756:RESET_B 0
75 *132:47 *135:102 0
*RES
1 *800:X *135:8 39.0979 
2 *135:8 *135:10 1.20143 
3 *135:10 *762:RESET_B 18.1796 
4 *135:10 *135:24 18.9564 
5 *135:24 *135:28 27.8221 
6 *135:28 *135:30 1.90571 
7 *135:30 *761:RESET_B 21.9496 
8 *135:30 *776:RESET_B 17.9311 
9 *135:28 *765:RESET_B 20.3132 
10 *135:24 *135:58 3.48 
11 *135:58 *135:62 17.61 
12 *135:62 *755:RESET_B 15 
13 *135:62 *777:RESET_B 19.5054 
14 *135:58 *135:83 3.97714 
15 *135:83 *757:RESET_B 30.8493 
16 *135:83 *135:102 29.5 
17 *135:102 *756:RESET_B 26.4136 
18 *135:102 *754:RESET_B 15 
19 *135:8 *758:RESET_B 18.6664 
*END

*D_NET *136 0.0192709
*CONN
*I *742:RESET_B I *D sky130_fd_sc_hd__dfrtp_1
*I *749:RESET_B I *D sky130_fd_sc_hd__dfrtp_4
*I *748:RESET_B I *D sky130_fd_sc_hd__dfrtp_4
*I *784:RESET_B I *D sky130_fd_sc_hd__dfrtp_2
*I *745:RESET_B I *D sky130_fd_sc_hd__dfrtp_1
*I *783:RESET_B I *D sky130_fd_sc_hd__dfrtp_4
*I *782:RESET_B I *D sky130_fd_sc_hd__dfrtp_2
*I *746:RESET_B I *D sky130_fd_sc_hd__dfrtp_4
*I *747:RESET_B I *D sky130_fd_sc_hd__dfrtp_1
*I *743:RESET_B I *D sky130_fd_sc_hd__dfrtp_1
*I *801:X O *D sky130_fd_sc_hd__clkbuf_4
*CAP
1 *742:RESET_B 0.000288318
2 *749:RESET_B 0.00012274
3 *748:RESET_B 8.91991e-05
4 *784:RESET_B 9.7523e-05
5 *745:RESET_B 0.000852596
6 *783:RESET_B 2.51449e-05
7 *782:RESET_B 0.000605815
8 *746:RESET_B 3.6701e-05
9 *747:RESET_B 0.000262116
10 *743:RESET_B 0.000183178
11 *801:X 0.000178349
12 *136:83 0.00121642
13 *136:73 0.000342922
14 *136:57 0.00155859
15 *136:53 0.00207989
16 *136:47 0.00160892
17 *136:22 0.00134829
18 *136:20 0.00205814
19 *136:16 0.001165
20 *136:6 0.000626326
21 *742:RESET_B *138:73 9.18637e-05
22 *742:RESET_B *225:10 2.54193e-05
23 *743:RESET_B *138:81 0.000401106
24 *743:RESET_B *156:8 1.72e-05
25 *743:RESET_B *226:10 0.00010018
26 *745:RESET_B *203:34 0.000746299
27 *745:RESET_B *203:42 0.0002246
28 *749:RESET_B *206:10 2.64616e-05
29 *782:RESET_B *202:6 2.02517e-05
30 *782:RESET_B *202:16 3.22879e-05
31 *782:RESET_B *202:23 1.72202e-05
32 *783:RESET_B *202:55 4.83893e-05
33 *136:6 *138:81 0.000129522
34 *136:16 *138:81 0
35 *136:16 *225:23 0
36 *136:20 *195:8 4.54033e-05
37 *136:20 *206:82 0
38 *136:22 *673:B 0.000125404
39 *136:22 *206:82 5.41385e-05
40 *136:47 *673:B 3.3577e-05
41 *136:47 *195:8 0
42 *136:53 *680:C1 2.70366e-05
43 *136:53 *685:B 6.78463e-05
44 *136:53 *195:8 0
45 *136:53 *203:69 0
46 *136:53 *204:67 0
47 *136:53 *205:10 2.12347e-06
48 *136:53 *205:19 1.34354e-05
49 *136:53 *205:30 3.35885e-05
50 *136:53 *205:84 1.59312e-05
51 *136:53 *206:10 0.000223043
52 *136:53 *206:12 0.000339903
53 *136:53 *206:14 8.4047e-05
54 *136:53 *206:18 5.72853e-05
55 *136:57 *203:69 0
56 *136:57 *204:14 8.80494e-05
57 *136:57 *204:41 1.40375e-05
58 *136:73 *202:61 7.75736e-06
59 *136:83 *202:61 6.11183e-05
60 *741:A3 *784:RESET_B 4.6318e-06
61 *741:A3 *136:83 6.4393e-05
62 *748:D *748:RESET_B 0
63 *782:CLK *782:RESET_B 4.57412e-05
64 *50:10 *784:RESET_B 0
65 *96:10 *784:RESET_B 5.11935e-06
66 *97:31 *784:RESET_B 5.4859e-05
67 *109:10 *782:RESET_B 2.55136e-05
68 *112:72 *136:53 0.00021137
69 *113:55 *136:53 0.000187996
70 *115:146 *747:RESET_B 0
71 *117:57 *136:83 0
72 *126:24 *782:RESET_B 0.000750597
*RES
1 *801:X *136:6 26.48 
2 *136:6 *743:RESET_B 4.83679 
3 *136:6 *136:16 19.0186 
4 *136:16 *136:20 26.7657 
5 *136:20 *136:22 13.9614 
6 *136:22 *747:RESET_B 33.9564 
7 *136:22 *746:RESET_B 1.04607 
8 *136:20 *136:47 20.51 
9 *136:47 *136:53 24.6442 
10 *136:53 *136:57 9.94507 
11 *136:57 *782:RESET_B 28.9821 
12 *136:57 *136:73 0.673214 
13 *136:73 *783:RESET_B 15.5489 
14 *136:73 *136:83 4.37071 
15 *136:83 *745:RESET_B 29.0546 
16 *136:83 *784:RESET_B 16.9057 
17 *136:53 *748:RESET_B 24.3775 
18 *136:47 *749:RESET_B 16.9782 
19 *136:16 *742:RESET_B 20.3132 
*END

*D_NET *137 0.00955528
*CONN
*I *744:RESET_B I *D sky130_fd_sc_hd__dfrtp_1
*I *779:RESET_B I *D sky130_fd_sc_hd__dfrtp_1
*I *751:RESET_B I *D sky130_fd_sc_hd__dfrtp_1
*I *780:RESET_B I *D sky130_fd_sc_hd__dfrtp_1
*I *753:RESET_B I *D sky130_fd_sc_hd__dfrtp_1
*I *750:RESET_B I *D sky130_fd_sc_hd__dfrtp_1
*I *752:RESET_B I *D sky130_fd_sc_hd__dfrtp_1
*I *802:X O *D sky130_fd_sc_hd__buf_2
*CAP
1 *744:RESET_B 8.16584e-05
2 *779:RESET_B 7.59226e-05
3 *751:RESET_B 1.34064e-05
4 *780:RESET_B 0.000651713
5 *753:RESET_B 0.000178426
6 *750:RESET_B 0.000158097
7 *752:RESET_B 6.17069e-05
8 *802:X 0.00029397
9 *137:45 0.000726152
10 *137:43 0.00128296
11 *137:37 0.00048869
12 *137:29 0.00061905
13 *137:21 0.000772579
14 *137:10 0.000737134
15 *750:RESET_B *219:21 5.30518e-05
16 *750:RESET_B *222:20 1.37246e-05
17 *752:RESET_B *197:125 6.68587e-05
18 *752:RESET_B *221:34 0.000140949
19 *780:RESET_B *708:A0 0.000271476
20 *780:RESET_B *708:A1 0.000272383
21 *780:RESET_B *708:S 4.79544e-05
22 *137:10 *138:114 2.93747e-05
23 *137:10 *146:10 0
24 *137:10 *170:8 0.000166522
25 *137:10 *171:8 0
26 *137:10 *197:125 2.24973e-05
27 *137:10 *224:25 2.04774e-05
28 *137:10 *233:21 1.4471e-05
29 *137:21 *152:33 0.000262864
30 *137:29 *197:115 0
31 *137:43 *169:10 1.14452e-05
32 *137:43 *199:67 2.472e-05
33 *137:43 *233:21 0
34 *137:45 *199:67 1.94522e-05
35 *137:45 *219:21 8.57765e-05
36 *137:45 *219:32 9.39159e-05
37 *137:45 *219:53 7.56417e-05
38 *677:S *137:29 0.00014847
39 *751:CLK *751:RESET_B 8.658e-06
40 *751:CLK *137:37 4.45734e-07
41 *751:CLK *137:43 3.53051e-05
42 *780:CLK *780:RESET_B 0.000280214
43 *20:8 *137:43 0.000194309
44 *21:10 *137:10 4.58924e-05
45 *46:10 *137:29 0.000100519
46 *63:10 *779:RESET_B 7.31752e-05
47 *64:8 *750:RESET_B 0.000135557
48 *65:16 *753:RESET_B 4.39607e-05
49 *75:24 *753:RESET_B 7.06491e-05
50 *115:93 *750:RESET_B 0
51 *115:93 *137:45 0
52 *127:80 *137:45 0
53 *127:95 *137:37 1.04196e-05
54 *127:95 *137:43 0
55 *127:110 *137:29 1.47563e-05
56 *127:110 *137:37 5.21127e-05
57 *131:57 *750:RESET_B 0.000242657
58 *132:22 *779:RESET_B 0.000263165
*RES
1 *802:X *137:10 44.4007 
2 *137:10 *752:RESET_B 16.9057 
3 *137:10 *137:21 19.9093 
4 *137:21 *137:29 21.1936 
5 *137:29 *137:37 18.625 
6 *137:37 *137:43 20.2407 
7 *137:43 *137:45 7.89214 
8 *137:45 *750:RESET_B 18.6664 
9 *137:45 *753:RESET_B 17.9311 
10 *137:43 *780:RESET_B 29.0546 
11 *137:37 *751:RESET_B 0.548929 
12 *137:29 *779:RESET_B 17.9311 
13 *137:21 *744:RESET_B 1.5225 
*END

*D_NET *138 0.0209754
*CONN
*I *802:A I *D sky130_fd_sc_hd__buf_2
*I *778:RESET_B I *D sky130_fd_sc_hd__dfrtp_1
*I *801:A I *D sky130_fd_sc_hd__clkbuf_4
*I *799:A I *D sky130_fd_sc_hd__clkbuf_2
*I *798:A I *D sky130_fd_sc_hd__clkbuf_4
*I *800:A I *D sky130_fd_sc_hd__clkbuf_4
*I *803:X O *D sky130_fd_sc_hd__clkbuf_2
*CAP
1 *802:A 0
2 *778:RESET_B 0.00201747
3 *801:A 0
4 *799:A 0
5 *798:A 0.000196267
6 *800:A 0
7 *803:X 0
8 *138:114 0.000828325
9 *138:81 0.000333909
10 *138:73 0.00143235
11 *138:65 0.00217379
12 *138:33 0.000386003
13 *138:27 0.0019545
14 *138:25 0.00251242
15 *138:14 0.000220328
16 *138:4 0.00085418
17 *778:RESET_B *151:10 0
18 *778:RESET_B *196:73 0.000173579
19 *778:RESET_B *221:12 0.000346842
20 *778:RESET_B *232:8 7.05707e-05
21 *778:RESET_B *233:8 1.37232e-05
22 *798:A *642:A2 3.23857e-06
23 *798:A *211:24 3.74633e-05
24 *798:A *211:34 7.26547e-05
25 *798:A *230:33 5.56279e-05
26 *138:14 *173:19 0.000270453
27 *138:25 *757:D 0.000184415
28 *138:27 *731:S 0.000141869
29 *138:27 *196:10 0.000187335
30 *138:27 *196:12 0.000475077
31 *138:27 *196:47 0.000228981
32 *138:27 *196:73 0.000153218
33 *138:27 *211:34 0
34 *138:33 *211:24 3.64246e-05
35 *138:33 *211:34 0
36 *138:65 *731:S 0.000353209
37 *138:65 *824:A 0.000136743
38 *138:65 *222:6 9.41704e-05
39 *138:65 *222:20 0.000112463
40 *138:65 *222:29 0.000167358
41 *138:73 *222:29 2.03764e-06
42 *138:81 *814:A 0.000145611
43 *138:81 *156:8 0.00014196
44 *138:81 *225:10 0.000111852
45 *138:81 *225:23 6.16531e-05
46 *138:114 *152:33 0.00014196
47 *138:114 *171:8 0
48 *138:114 *233:8 0.000185428
49 *651:A1 *138:65 2.32004e-05
50 *655:B1 *138:65 0.000218471
51 *742:CLK *138:73 1.40958e-05
52 *742:RESET_B *138:73 9.18637e-05
53 *743:RESET_B *138:81 0.000401106
54 *754:CLK *138:25 0.000174015
55 *757:RESET_B *778:RESET_B 6.07306e-05
56 *758:RESET_B *138:14 7.93051e-05
57 *760:RESET_B *798:A 3.24262e-05
58 *762:RESET_B *138:14 0.000144459
59 *777:RESET_B *778:RESET_B 0
60 *778:CLK *778:RESET_B 0.00023878
61 *21:10 *138:114 0
62 *29:10 *138:27 0
63 *51:10 *138:33 0
64 *53:10 *798:A 0.000186606
65 *59:16 *138:65 8.91584e-05
66 *81:16 *138:65 0.000961099
67 *115:64 *798:A 5.56279e-05
68 *115:64 *138:33 1.00084e-05
69 *115:80 *138:73 9.26005e-05
70 *123:23 *138:27 0
71 *125:62 *138:14 7.42621e-05
72 *125:62 *138:25 4.56951e-05
73 *127:20 *138:73 9.03784e-05
74 *127:44 *138:73 0.000156572
75 *131:23 *138:65 0.000136687
76 *131:47 *138:65 0.000320345
77 *131:57 *138:65 2.87173e-05
78 *135:10 *138:14 7.48331e-05
79 *135:62 *778:RESET_B 0
80 *136:6 *138:81 0.000129522
81 *136:16 *138:81 0
82 *137:10 *138:114 2.93747e-05
*RES
1 *803:X *138:4 23 
2 *138:4 *138:14 36.2143 
3 *138:14 *800:A 23 
4 *138:4 *138:25 24.8186 
5 *138:25 *138:27 16.3436 
6 *138:27 *138:33 18.2314 
7 *138:33 *798:A 28.4271 
8 *138:33 *799:A 23 
9 *138:27 *138:65 42.7986 
10 *138:65 *138:73 45.6393 
11 *138:73 *138:81 39.8807 
12 *138:81 *801:A 23 
13 *138:25 *778:RESET_B 37.6096 
14 *778:RESET_B *138:114 46.3539 
15 *138:114 *802:A 23 
*END

*D_NET *139 0.0024972
*CONN
*I *803:A I *D sky130_fd_sc_hd__clkbuf_2
*I *859:X O *D sky130_fd_sc_hd__clkbuf_1
*CAP
1 *803:A 0.000317898
2 *859:X 0.000625591
3 *139:8 0.000943489
4 *803:A *218:18 7.28226e-05
5 *758:RESET_B *803:A 8.96345e-05
6 *762:RESET_B *803:A 4.18957e-05
7 *125:93 *139:8 8.1796e-05
8 *125:102 *139:8 0.000285694
9 *135:10 *803:A 3.83778e-05
10 *135:28 *803:A 0
*RES
1 *859:X *139:8 47.6736 
2 *139:8 *803:A 43.075 
*END

*D_NET *140 0.000657311
*CONN
*I *769:D I *D sky130_fd_sc_hd__dfrtp_1
*I *807:X O *D sky130_fd_sc_hd__dlygate4sd3_1
*CAP
1 *769:D 0
2 *807:X 0.000238815
3 *140:10 0.000238815
4 *140:10 *236:6 0.000131304
5 *759:RESET_B *140:10 4.83778e-05
*RES
1 *807:X *140:10 42.4329 
2 *140:10 *769:D 38 
*END

*D_NET *141 0.00226184
*CONN
*I *781:D I *D sky130_fd_sc_hd__dfrtp_1
*I *672:B I *D sky130_fd_sc_hd__and2b_1
*I *818:X O *D sky130_fd_sc_hd__dlygate4sd3_1
*CAP
1 *781:D 0.000503047
2 *672:B 0.000226911
3 *818:X 0.000174745
4 *141:8 0.000904702
5 *672:B *142:8 0
6 *672:B *238:8 0.000139647
7 *141:8 *238:8 1.01436e-05
8 *766:CLK *141:8 0
9 *770:CLK *141:8 0
10 *781:RESET_B *781:D 9.18637e-05
11 *10:10 *672:B 0
12 *124:64 *781:D 0.00021078
*RES
1 *818:X *141:8 40.9621 
2 *141:8 *672:B 42.3707 
3 *141:8 *781:D 45.7886 
*END

*D_NET *142 0.0003691
*CONN
*I *672:A_N I *D sky130_fd_sc_hd__and2b_1
*I *829:X O *D sky130_fd_sc_hd__dlygate4sd3_1
*CAP
1 *672:A_N 2.63249e-05
2 *829:X 0.000100394
3 *142:8 0.000126719
4 *142:8 *161:18 0
5 *672:B *142:8 0
6 *10:10 *672:A_N 2.93747e-05
7 *10:10 *142:8 8.62876e-05
*RES
1 *829:X *142:8 39.9057 
2 *142:8 *672:A_N 38.6214 
*END

*D_NET *143 0.0010411
*CONN
*I *735:A0 I *D sky130_fd_sc_hd__mux2_1
*I *840:X O *D sky130_fd_sc_hd__dlygate4sd3_1
*CAP
1 *735:A0 0
2 *840:X 0.000232677
3 *143:10 0.000232677
4 *143:10 *735:A1 5.34928e-05
5 *143:10 *735:S 0
6 *143:10 *144:10 0.000199921
7 *47:8 *143:10 0.000322334
*RES
1 *840:X *143:10 29.9807 
2 *143:10 *735:A0 23 
*END

*D_NET *144 0.000950391
*CONN
*I *780:D I *D sky130_fd_sc_hd__dfrtp_1
*I *851:X O *D sky130_fd_sc_hd__dlygate4sd3_1
*CAP
1 *780:D 0
2 *851:X 0.000258622
3 *144:10 0.000258622
4 *144:10 *735:A1 9.8971e-06
5 *144:10 *197:94 5.3656e-05
6 *115:131 *144:10 0.000169674
7 *143:10 *144:10 0.000199921
*RES
1 *851:X *144:10 43.7379 
2 *144:10 *780:D 38 
*END

*D_NET *145 0.000517383
*CONN
*I *677:A0 I *D sky130_fd_sc_hd__mux2_1
*I *854:X O *D sky130_fd_sc_hd__dlygate4sd3_1
*CAP
1 *677:A0 0
2 *854:X 0.000217962
3 *145:6 0.000217962
4 *145:6 *677:A1 5.67058e-05
5 *677:S *145:6 2.4754e-05
*RES
1 *854:X *145:6 27.4329 
2 *145:6 *677:A0 23 
*END

*D_NET *146 0.000743586
*CONN
*I *744:D I *D sky130_fd_sc_hd__dfrtp_1
*I *855:X O *D sky130_fd_sc_hd__dlygate4sd3_1
*CAP
1 *744:D 0
2 *855:X 0.000265413
3 *146:10 0.000265413
4 *146:10 *224:25 0
5 *677:S *146:10 0.000171906
6 *15:8 *146:10 4.08537e-05
7 *137:10 *146:10 0
*RES
1 *855:X *146:10 43.3443 
2 *146:10 *744:D 38 
*END

*D_NET *147 0.001203
*CONN
*I *676:A0 I *D sky130_fd_sc_hd__mux2_1
*I *856:X O *D sky130_fd_sc_hd__dlygate4sd3_1
*CAP
1 *676:A0 0
2 *856:X 0.000244774
3 *147:6 0.000244774
4 *147:6 *148:10 0.00014196
5 *664:C1 *147:6 0.000571488
*RES
1 *856:X *147:6 29.3386 
2 *147:6 *676:A0 23 
*END

*D_NET *148 0.000747813
*CONN
*I *743:D I *D sky130_fd_sc_hd__dfrtp_1
*I *857:X O *D sky130_fd_sc_hd__dlygate4sd3_1
*CAP
1 *743:D 7.03466e-05
2 *857:X 0.000191682
3 *148:10 0.000262029
4 *743:D *156:8 8.1796e-05
5 *148:10 *157:10 0
6 *65:16 *148:10 0
7 *147:6 *148:10 0.00014196
*RES
1 *857:X *148:10 41.1279 
2 *148:10 *743:D 39.5743 
*END

*D_NET *149 0.00256094
*CONN
*I *733:A1 I *D sky130_fd_sc_hd__mux2_1
*I *732:A0 I *D sky130_fd_sc_hd__mux2_1
*I *808:X O *D sky130_fd_sc_hd__dlygate4sd3_1
*CAP
1 *733:A1 4.24857e-05
2 *732:A0 0
3 *808:X 0.00023868
4 *149:18 0.000337666
5 *149:8 0.000618832
6 *733:A1 *152:14 5.50106e-05
7 *149:8 *808:A 0
8 *149:18 *638:B1 0
9 *149:18 *733:S 0.000481931
10 *149:18 *196:73 0
11 *149:18 *196:79 4.21378e-05
12 *149:18 *196:97 0
13 *149:18 *221:21 0.000567984
14 *149:18 *231:31 3.70187e-05
15 *644:A *149:18 6.16531e-05
16 *3:13 *149:18 7.29119e-05
17 *44:10 *149:18 4.6318e-06
18 *45:10 *149:18 0
19 *119:16 *149:18 0
*RES
1 *808:X *149:8 42.0186 
2 *149:8 *149:18 39.4457 
3 *149:18 *732:A0 38 
4 *149:8 *733:A1 38.6214 
*END

*D_NET *150 0.000401033
*CONN
*I *759:D I *D sky130_fd_sc_hd__dfrtp_1
*I *860:X O *D sky130_fd_sc_hd__clkbuf_1
*CAP
1 *759:D 0
2 *860:X 0.000176328
3 *150:10 0.000176328
4 *759:CLK *150:10 4.83778e-05
*RES
1 *860:X *150:10 41.0036 
2 *150:10 *759:D 38 
*END

*D_NET *151 0.000845867
*CONN
*I *777:D I *D sky130_fd_sc_hd__dfrtp_1
*I *809:X O *D sky130_fd_sc_hd__dlygate4sd3_1
*CAP
1 *777:D 0
2 *809:X 0.000301006
3 *151:10 0.000301006
4 *151:10 *196:97 0.000232409
5 *151:10 *221:12 0
6 *777:RESET_B *151:10 1.14452e-05
7 *778:RESET_B *151:10 0
8 *24:8 *151:10 0
*RES
1 *809:X *151:10 43.1371 
2 *151:10 *777:D 38 
*END

*D_NET *152 0.00415433
*CONN
*I *734:A1 I *D sky130_fd_sc_hd__mux2_1
*I *733:A0 I *D sky130_fd_sc_hd__mux2_1
*I *810:X O *D sky130_fd_sc_hd__dlygate4sd3_1
*CAP
1 *734:A1 0
2 *733:A0 0
3 *810:X 0
4 *152:33 0.000910571
5 *152:14 0.000348949
6 *152:4 0.00125952
7 *152:14 *733:S 2.02872e-05
8 *152:14 *171:8 0
9 *152:14 *221:21 9.24795e-06
10 *152:14 *221:34 8.1796e-05
11 *152:33 *709:A0 0.000141052
12 *152:33 *155:6 3.22879e-05
13 *152:33 *197:125 0.000134538
14 *152:33 *233:8 0.000121733
15 *152:33 *233:21 0.000258245
16 *644:A *152:14 0.000272383
17 *677:S *152:33 4.96264e-05
18 *733:A1 *152:14 5.50106e-05
19 *744:CLK *152:33 4.96264e-05
20 *127:123 *152:33 4.6318e-06
21 *137:21 *152:33 0.000262864
22 *138:114 *152:33 0.00014196
*RES
1 *810:X *152:4 23 
2 *152:4 *152:14 37.4364 
3 *152:14 *733:A0 23 
4 *152:4 *152:33 46.7786 
5 *152:33 *734:A1 23 
*END

*D_NET *153 0.00116866
*CONN
*I *706:A1 I *D sky130_fd_sc_hd__o21a_1
*I *811:X O *D sky130_fd_sc_hd__dlygate4sd3_1
*CAP
1 *706:A1 0.000263002
2 *811:X 5.42001e-05
3 *153:8 0.000317203
4 *17:10 *153:8 0.000141888
5 *108:16 *706:A1 0.000321976
6 *115:146 *153:8 7.03869e-05
*RES
1 *811:X *153:8 39.9057 
2 *153:8 *706:A1 44.3386 
*END

*D_NET *154 0.00135683
*CONN
*I *729:A1 I *D sky130_fd_sc_hd__mux2_1
*I *728:A I *D sky130_fd_sc_hd__or2_1
*I *812:X O *D sky130_fd_sc_hd__dlygate4sd3_1
*CAP
1 *729:A1 0.000115489
2 *728:A 0
3 *812:X 0.000117237
4 *154:12 0.000127152
5 *154:6 0.000359878
6 *729:A1 *729:A0 5.50106e-05
7 *729:A1 *812:A 0.000185428
8 *729:A1 *194:37 0.000225393
9 *154:12 *633:A 0
10 *154:12 *194:37 6.88552e-05
11 *40:10 *154:12 0
12 *41:10 *729:A1 2.9938e-05
13 *41:10 *154:6 7.24484e-05
14 *124:22 *154:12 0
*RES
1 *812:X *154:6 25.5271 
2 *154:6 *154:12 32.9621 
3 *154:12 *728:A 23 
4 *154:6 *729:A1 26.9564 
*END

*D_NET *155 0.000623481
*CONN
*I *734:A0 I *D sky130_fd_sc_hd__mux2_1
*I *813:X O *D sky130_fd_sc_hd__dlygate4sd3_1
*CAP
1 *734:A0 0
2 *813:X 0.000208781
3 *155:6 0.000208781
4 *155:6 *197:125 0.000141954
5 *72:8 *155:6 3.16784e-05
6 *152:33 *155:6 3.22879e-05
*RES
1 *813:X *155:6 27.4329 
2 *155:6 *734:A0 23 
*END

*D_NET *156 0.00190015
*CONN
*I *675:A0 I *D sky130_fd_sc_hd__mux2_1
*I *814:X O *D sky130_fd_sc_hd__dlygate4sd3_1
*CAP
1 *675:A0 0
2 *814:X 0.000432224
3 *156:8 0.000432224
4 *156:8 *653:A2_N 3.80961e-05
5 *156:8 *814:A 0.000182826
6 *743:CLK *156:8 0.000151601
7 *743:D *156:8 8.1796e-05
8 *743:RESET_B *156:8 1.72e-05
9 *65:16 *156:8 0.000422223
10 *138:81 *156:8 0.00014196
*RES
1 *814:X *156:8 36.0293 
2 *156:8 *675:A0 23 
*END

*D_NET *157 0.00157272
*CONN
*I *742:D I *D sky130_fd_sc_hd__dfrtp_1
*I *815:X O *D sky130_fd_sc_hd__dlygate4sd3_1
*CAP
1 *742:D 0
2 *815:X 0.000516893
3 *157:10 0.000516893
4 *157:10 *662:A 8.46456e-05
5 *157:10 *197:94 0.000136486
6 *157:10 *200:19 8.1292e-05
7 *157:10 *223:18 0.000187996
8 *13:10 *157:10 4.85126e-05
9 *65:16 *157:10 0
10 *148:10 *157:10 0
*RES
1 *815:X *157:10 48.0671 
2 *157:10 *742:D 38 
*END

*D_NET *158 0.00181847
*CONN
*I *730:A1 I *D sky130_fd_sc_hd__mux2_1
*I *729:A0 I *D sky130_fd_sc_hd__mux2_1
*I *816:X O *D sky130_fd_sc_hd__dlygate4sd3_1
*CAP
1 *730:A1 0.000175227
2 *729:A0 6.67749e-05
3 *816:X 0.000188642
4 *158:12 0.000242002
5 *158:10 0.000188642
6 *729:A0 *194:24 5.50049e-05
7 *729:A0 *194:37 1.72202e-05
8 *730:A1 *159:12 5.79559e-05
9 *730:A1 *194:24 0.000579519
10 *158:10 *633:A 1.94693e-05
11 *158:10 *229:10 0
12 *729:A1 *729:A0 5.50106e-05
13 *42:10 *730:A1 0.000123902
14 *133:22 *158:10 4.90994e-05
*RES
1 *816:X *158:10 40.8793 
2 *158:10 *158:12 15 
3 *158:12 *729:A0 24.5743 
4 *158:12 *730:A1 29.3386 
*END

*D_NET *159 0.00486268
*CONN
*I *731:A1 I *D sky130_fd_sc_hd__mux2_1
*I *730:A0 I *D sky130_fd_sc_hd__mux2_1
*I *817:X O *D sky130_fd_sc_hd__dlygate4sd3_1
*CAP
1 *731:A1 0
2 *730:A0 0
3 *817:X 0
4 *159:23 0.00104474
5 *159:12 0.000401209
6 *159:4 0.00144595
7 *159:12 *817:A 5.40337e-05
8 *159:12 *161:37 0
9 *159:12 *194:22 0.00013272
10 *159:12 *194:24 2.47321e-05
11 *159:12 *230:10 0
12 *159:12 *230:33 0
13 *159:23 *666:A 0
14 *159:23 *160:10 8.62876e-05
15 *159:23 *161:37 9.04083e-05
16 *159:23 *161:52 0.000511817
17 *159:23 *194:22 0.000148698
18 *159:23 *213:10 0
19 *668:B1 *159:23 7.80251e-05
20 *730:A1 *159:12 5.79559e-05
21 *764:RESET_B *159:23 0.000582829
22 *766:CLK *159:12 0
23 *766:CLK *159:23 3.98859e-05
24 *3:13 *159:23 0
25 *53:10 *159:23 6.7177e-06
26 *71:10 *159:23 9.80568e-05
27 *78:8 *159:23 5.86165e-05
28 *115:30 *159:23 0
29 *123:23 *159:23 0
30 *134:36 *159:23 0
*RES
1 *817:X *159:4 23 
2 *159:4 *159:12 37.4157 
3 *159:12 *730:A0 23 
4 *159:4 *159:23 38.925 
5 *159:23 *731:A1 38 
*END

*D_NET *160 0.000496809
*CONN
*I *731:A0 I *D sky130_fd_sc_hd__mux2_1
*I *819:X O *D sky130_fd_sc_hd__dlygate4sd3_1
*CAP
1 *731:A0 0
2 *819:X 0.000112212
3 *160:10 0.000112212
4 *760:RESET_B *160:10 9.75779e-05
5 *71:10 *160:10 8.85189e-05
6 *159:23 *160:10 8.62876e-05
*RES
1 *819:X *160:10 40.2993 
2 *160:10 *731:A0 38 
*END

*D_NET *161 0.00650143
*CONN
*I *861:A I *D sky130_fd_sc_hd__buf_2
*I *722:A1 I *D sky130_fd_sc_hd__mux2_1
*I *660:A1 I *D sky130_fd_sc_hd__a211o_1
*I *658:A1 I *D sky130_fd_sc_hd__o22ai_1
*I *725:A0 I *D sky130_fd_sc_hd__mux2_1
*I *770:Q O *D sky130_fd_sc_hd__dfrtp_1
*CAP
1 *861:A 0
2 *722:A1 0
3 *660:A1 0
4 *658:A1 8.03801e-05
5 *725:A0 0
6 *770:Q 0.000124974
7 *161:52 0.000346134
8 *161:37 0.000803132
9 *161:31 0.000488427
10 *161:18 0.00078622
11 *161:12 0.000862266
12 *161:8 0.00031283
13 *161:18 *194:14 1.86973e-05
14 *161:31 *722:A0 8.52481e-05
15 *161:31 *722:S 5.67058e-05
16 *161:31 *194:14 3.81554e-05
17 *161:37 *722:A0 5.50106e-05
18 *161:37 *722:S 4.2573e-05
19 *161:37 *194:22 0.00043937
20 num_to_send_o[0] *161:18 5.41385e-05
21 *766:CLK *161:37 0
22 *770:CLK *161:18 0
23 *770:RESET_B *161:18 0
24 *858:A *161:8 2.76611e-06
25 *10:10 *161:18 0
26 *69:14 *161:37 0.000120405
27 *69:14 *161:52 0.00100666
28 *115:30 *658:A1 9.03639e-05
29 *128:8 *161:8 0
30 *129:14 *161:18 1.86973e-05
31 *129:27 *161:18 2.36844e-05
32 *129:27 *161:31 4.23714e-05
33 *134:36 *161:18 0
34 *142:8 *161:18 0
35 *159:12 *161:37 0
36 *159:23 *161:37 9.04083e-05
37 *159:23 *161:52 0.000511817
*RES
1 *770:Q *161:8 40.2579 
2 *161:8 *161:12 18.48 
3 *161:12 *161:18 26.7036 
4 *161:18 *725:A0 38 
5 *161:18 *161:31 18.0036 
6 *161:31 *161:37 24.0521 
7 *161:37 *658:A1 39.595 
8 *161:37 *161:52 28.5264 
9 *161:52 *660:A1 23 
10 *161:31 *722:A1 23 
11 *161:12 *861:A 23 
*END

*D_NET *162 0.00150005
*CONN
*I *719:A0 I *D sky130_fd_sc_hd__mux2_1
*I *716:A1 I *D sky130_fd_sc_hd__mux2_1
*I *820:X O *D sky130_fd_sc_hd__dlygate4sd3_1
*CAP
1 *719:A0 0
2 *716:A1 0
3 *820:X 0.000158771
4 *162:14 0.000169854
5 *162:6 0.000328625
6 *162:14 *210:44 8.4047e-05
7 *79:8 *162:6 0.000213863
8 *79:8 *162:14 5.50049e-05
9 *129:38 *162:14 0.000353849
10 *131:21 *162:14 0.000136039
*RES
1 *820:X *162:6 25.5271 
2 *162:6 *162:14 35.3443 
3 *162:14 *716:A1 23 
4 *162:6 *719:A0 23 
*END

*D_NET *163 0.000507511
*CONN
*I *763:D I *D sky130_fd_sc_hd__dfrtp_1
*I *821:X O *D sky130_fd_sc_hd__dlygate4sd3_1
*CAP
1 *763:D 0.000162102
2 *821:X 0.000162102
3 *763:D *199:16 6.16209e-05
4 *821:A *763:D 9.84851e-05
5 *126:101 *763:D 2.32004e-05
*RES
1 *821:X *763:D 49.0036 
*END

*D_NET *164 0.0018144
*CONN
*I *707:A0 I *D sky130_fd_sc_hd__mux2_1
*I *822:X O *D sky130_fd_sc_hd__dlygate4sd3_1
*CAP
1 *707:A0 0
2 *822:X 0.000405868
3 *164:14 0.000405868
4 *164:14 *707:A1 0.00010018
5 *164:14 *707:S 0.00051967
6 *164:14 *822:A 0.00031495
7 *823:A *164:14 4.31076e-05
8 *127:20 *164:14 2.4754e-05
*RES
1 *822:X *164:14 35.1386 
2 *164:14 *707:A0 23 
*END

*D_NET *165 0.000450836
*CONN
*I *750:D I *D sky130_fd_sc_hd__dfrtp_1
*I *823:X O *D sky130_fd_sc_hd__dlygate4sd3_1
*CAP
1 *750:D 0
2 *823:X 0.000148034
3 *165:10 0.000148034
4 *165:10 *822:A 0.000154769
5 *165:10 *200:19 0
*RES
1 *823:X *165:10 40.6514 
2 *165:10 *750:D 38 
*END

*D_NET *166 0.00233051
*CONN
*I *713:A1 I *D sky130_fd_sc_hd__mux2_1
*I *716:A0 I *D sky130_fd_sc_hd__mux2_1
*I *824:X O *D sky130_fd_sc_hd__dlygate4sd3_1
*CAP
1 *713:A1 8.43852e-05
2 *716:A0 0.00035511
3 *824:X 0.000123213
4 *166:8 0.000562707
5 *713:A1 *713:S 0
6 *81:16 *166:8 0.000185434
7 *115:18 *716:A0 0.00010018
8 *127:28 *713:A1 0
9 *127:28 *716:A0 0
10 *129:53 *716:A0 0.000110913
11 *130:56 *716:A0 2.24048e-05
12 *130:80 *713:A1 0.000129504
13 *130:80 *716:A0 0.000484291
14 *131:21 *716:A0 0.000172372
*RES
1 *824:X *166:8 40.0507 
2 *166:8 *716:A0 47.6943 
3 *166:8 *713:A1 39.9057 
*END

*D_NET *167 0.00231643
*CONN
*I *710:A1 I *D sky130_fd_sc_hd__mux2_1
*I *713:A0 I *D sky130_fd_sc_hd__mux2_1
*I *825:X O *D sky130_fd_sc_hd__dlygate4sd3_1
*CAP
1 *710:A1 0.000181388
2 *713:A0 0.000445873
3 *825:X 9.39614e-05
4 *167:8 0.000721222
5 *710:A1 *710:A0 5.67058e-05
6 *710:A1 *197:8 5.41385e-05
7 *710:A1 *197:34 0.000198032
8 *713:A0 *713:S 7.88828e-05
9 *753:D *713:A0 7.44354e-05
10 *22:8 *713:A0 0
11 *75:24 *713:A0 7.33566e-05
12 *129:55 *713:A0 0.000169683
13 *129:64 *713:A0 1.14452e-05
14 *129:64 *167:8 0.000157309
*RES
1 *825:X *167:8 40.2579 
2 *167:8 *713:A0 46.5964 
3 *167:8 *710:A1 42.9093 
*END

*D_NET *168 0.000533669
*CONN
*I *708:A0 I *D sky130_fd_sc_hd__mux2_1
*I *826:X O *D sky130_fd_sc_hd__dlygate4sd3_1
*CAP
1 *708:A0 0.000131097
2 *826:X 0.000131097
3 *780:RESET_B *708:A0 0.000271476
*RES
1 *826:X *708:A0 49.0036 
*END

*D_NET *169 0.000487709
*CONN
*I *751:D I *D sky130_fd_sc_hd__dfrtp_1
*I *827:X O *D sky130_fd_sc_hd__dlygate4sd3_1
*CAP
1 *751:D 0
2 *827:X 0.000173924
3 *169:10 0.000173924
4 *169:10 *233:21 0
5 *20:8 *169:10 4.95339e-05
6 *132:22 *169:10 7.88828e-05
7 *137:43 *169:10 1.14452e-05
*RES
1 *827:X *169:10 41.1279 
2 *169:10 *751:D 38 
*END

*D_NET *170 0.00070132
*CONN
*I *709:A0 I *D sky130_fd_sc_hd__mux2_1
*I *828:X O *D sky130_fd_sc_hd__dlygate4sd3_1
*CAP
1 *709:A0 5.31723e-05
2 *828:X 6.67819e-05
3 *170:8 0.000119954
4 *709:A0 *197:125 5.3304e-05
5 *170:8 *197:125 3.47781e-05
6 *170:8 *224:25 6.57551e-05
7 *137:10 *170:8 0.000166522
8 *152:33 *709:A0 0.000141052
*RES
1 *828:X *170:8 40.2579 
2 *170:8 *709:A0 39.5743 
*END

*D_NET *171 0.000810032
*CONN
*I *752:D I *D sky130_fd_sc_hd__dfrtp_1
*I *830:X O *D sky130_fd_sc_hd__dlygate4sd3_1
*CAP
1 *752:D 2.53581e-05
2 *830:X 0.000267783
3 *171:8 0.000293141
4 *752:D *221:34 8.1796e-05
5 *171:8 *233:21 0
6 *752:CLK *752:D 0.000141954
7 *21:10 *171:8 0
8 *137:10 *171:8 0
9 *138:114 *171:8 0
10 *152:14 *171:8 0
*RES
1 *830:X *171:8 42.3707 
2 *171:8 *752:D 39.5743 
*END

*D_NET *172 0.00705578
*CONN
*I *659:A1 I *D sky130_fd_sc_hd__a221o_1
*I *726:A0 I *D sky130_fd_sc_hd__mux2_1
*I *723:A1 I *D sky130_fd_sc_hd__mux2_1
*I *862:A I *D sky130_fd_sc_hd__buf_2
*I *658:B1 I *D sky130_fd_sc_hd__o22ai_1
*I *771:Q O *D sky130_fd_sc_hd__dfrtp_1
*CAP
1 *659:A1 0
2 *726:A0 0
3 *723:A1 0
4 *862:A 0
5 *658:B1 6.91124e-05
6 *771:Q 6.94194e-05
7 *172:74 0.000235155
8 *172:49 0.000757061
9 *172:41 0.0014091
10 *172:33 0.000733556
11 *172:27 0.000750632
12 *172:8 0.000572495
13 *172:8 *229:29 9.84794e-05
14 *172:27 *666:B 6.80231e-05
15 *172:27 *720:A1 0.000123428
16 *172:27 *726:A1 0.000161202
17 *172:27 *764:D 0.000130168
18 *172:27 *194:93 9.65021e-05
19 *172:33 *726:A1 7.39471e-05
20 *172:33 *726:S 1.12349e-05
21 *172:33 *194:74 5.40337e-05
22 *172:33 *194:93 7.2804e-05
23 *172:41 *723:A0 0.000119313
24 *172:41 *208:12 5.12328e-05
25 *172:41 *208:21 6.23522e-05
26 *172:49 *723:A0 2.93845e-05
27 *172:49 *724:A0 0
28 *172:74 *230:33 0.000192087
29 *659:A2 *172:74 0.000122277
30 *659:B2 *172:74 1.37232e-05
31 *659:C1 *172:41 0
32 *659:C1 *172:74 0
33 *772:CLK *172:49 0.000183898
34 *787:A *172:27 0.000194309
35 *35:10 *172:49 1.04196e-05
36 *39:10 *172:49 0.00014411
37 *69:14 *658:B1 0.000114074
38 *69:14 *172:27 0.00029147
39 *116:12 *172:41 4.0773e-05
*RES
1 *771:Q *172:8 39.0979 
2 *172:8 *658:B1 39.5536 
3 *172:8 *172:27 27.9879 
4 *172:27 *172:33 2.69286 
5 *172:33 *172:41 39.6736 
6 *172:41 *172:49 43.4021 
7 *172:49 *862:A 23 
8 *172:41 *723:A1 23 
9 *172:33 *726:A0 23 
10 *172:27 *172:74 35.1579 
11 *172:74 *659:A1 23 
*END

*D_NET *173 0.00203628
*CONN
*I *715:A1 I *D sky130_fd_sc_hd__mux2_1
*I *718:A0 I *D sky130_fd_sc_hd__mux2_1
*I *831:X O *D sky130_fd_sc_hd__dlygate4sd3_1
*CAP
1 *715:A1 0
2 *718:A0 0.000140755
3 *831:X 0
4 *173:19 0.000466315
5 *173:4 0.000607071
6 *718:A0 *718:S 9.5877e-05
7 *718:A0 *212:14 0.000139346
8 *173:19 *833:A 0
9 *173:19 *179:8 0
10 *173:19 *215:8 4.334e-05
11 *758:RESET_B *173:19 7.99094e-05
12 *27:10 *173:19 0
13 *30:10 *718:A0 7.53384e-06
14 *132:123 *173:19 0.000185676
15 *138:14 *173:19 0.000270453
*RES
1 *831:X *173:4 23 
2 *173:4 *718:A0 26.3764 
3 *173:4 *173:19 40.3571 
4 *173:19 *715:A1 23 
*END

*D_NET *174 0.000525143
*CONN
*I *762:D I *D sky130_fd_sc_hd__dfrtp_1
*I *832:X O *D sky130_fd_sc_hd__dlygate4sd3_1
*CAP
1 *762:D 7.18031e-05
2 *832:X 0.000151327
3 *174:8 0.00022313
4 *30:10 *174:8 0
5 *125:51 *174:8 0
6 *125:62 *762:D 7.88828e-05
7 *125:76 *174:8 0
*RES
1 *832:X *174:8 40.61 
2 *174:8 *762:D 39.5743 
*END

*D_NET *175 0.0012911
*CONN
*I *712:A1 I *D sky130_fd_sc_hd__mux2_1
*I *715:A0 I *D sky130_fd_sc_hd__mux2_1
*I *833:X O *D sky130_fd_sc_hd__dlygate4sd3_1
*CAP
1 *712:A1 0
2 *715:A0 0.000355157
3 *833:X 0.000159872
4 *175:12 0.000355157
5 *175:10 0.000159872
6 *715:A0 *712:A0 5.56279e-05
7 *715:A0 *715:S 0.000205409
8 *175:10 *833:A 0
*RES
1 *833:X *175:10 40.175 
2 *175:10 *175:12 15 
3 *175:12 *715:A0 30.2914 
4 *175:12 *712:A1 23 
*END

*D_NET *176 0.00216683
*CONN
*I *721:A1 I *D sky130_fd_sc_hd__mux2_1
*I *724:A0 I *D sky130_fd_sc_hd__mux2_1
*I *834:X O *D sky130_fd_sc_hd__dlygate4sd3_1
*CAP
1 *721:A1 0.000176825
2 *724:A0 0.000174867
3 *834:X 0.000289117
4 *176:8 0.000640808
5 *724:A0 *724:A1 5.50049e-05
6 *724:A0 *724:S 6.16531e-05
7 *768:RESET_B *176:8 4.83893e-05
8 *36:10 *721:A1 0.000129513
9 *36:10 *724:A0 0.000238559
10 *132:53 *721:A1 7.4878e-05
11 *132:59 *721:A1 4.23817e-05
12 *132:59 *724:A0 9.28699e-05
13 *133:8 *176:8 0.00014196
14 *172:49 *724:A0 0
*RES
1 *834:X *176:8 41.9564 
2 *176:8 *724:A0 43.4686 
3 *176:8 *721:A1 42.7229 
*END

*D_NET *177 0.000425788
*CONN
*I *768:D I *D sky130_fd_sc_hd__dfrtp_1
*I *835:X O *D sky130_fd_sc_hd__dlygate4sd3_1
*CAP
1 *768:D 0
2 *835:X 0.000144582
3 *177:10 0.000144582
4 *768:CLK *177:10 3.81391e-05
5 *36:10 *177:10 0
6 *125:20 *177:10 9.84851e-05
*RES
1 *835:X *177:10 40.6514 
2 *177:10 *768:D 38 
*END

*D_NET *178 0.00265612
*CONN
*I *711:A1 I *D sky130_fd_sc_hd__mux2_1
*I *714:A0 I *D sky130_fd_sc_hd__mux2_1
*I *836:X O *D sky130_fd_sc_hd__dlygate4sd3_1
*CAP
1 *711:A1 0.000640346
2 *714:A0 0.000224058
3 *836:X 5.86784e-05
4 *178:10 0.000864404
5 *178:8 5.86784e-05
6 *711:A1 *711:A0 5.67058e-05
7 *714:A0 *714:A1 0.000270659
8 *714:A0 *718:S 2.46906e-05
9 *178:8 *196:73 3.5664e-05
10 *178:8 *231:31 0.000114092
11 *23:10 *711:A1 0.00010018
12 *132:47 *711:A1 0.000183177
13 *132:47 *714:A0 2.47815e-05
*RES
1 *836:X *178:8 39.5536 
2 *178:8 *178:10 15 
3 *178:10 *714:A0 27.4329 
4 *178:10 *711:A1 34.5793 
*END

*D_NET *179 0.000604548
*CONN
*I *757:D I *D sky130_fd_sc_hd__dfrtp_1
*I *837:X O *D sky130_fd_sc_hd__dlygate4sd3_1
*CAP
1 *757:D 5.39736e-05
2 *837:X 8.04993e-05
3 *179:8 0.000134473
4 *179:8 *215:8 0
5 *754:CLK *757:D 6.97002e-05
6 *125:62 *757:D 2.93845e-05
7 *135:28 *179:8 5.21024e-05
8 *138:25 *757:D 0.000184415
9 *173:19 *179:8 0
*RES
1 *837:X *179:8 39.5536 
2 *179:8 *757:D 40.0507 
*END

*D_NET *180 0.000411261
*CONN
*I *711:A0 I *D sky130_fd_sc_hd__mux2_1
*I *838:X O *D sky130_fd_sc_hd__dlygate4sd3_1
*CAP
1 *711:A0 0.000177278
2 *838:X 0.000177278
3 *711:A1 *711:A0 5.67058e-05
*RES
1 *838:X *711:A0 49.0036 
*END

*D_NET *181 0.000366001
*CONN
*I *721:A0 I *D sky130_fd_sc_hd__mux2_1
*I *839:X O *D sky130_fd_sc_hd__dlygate4sd3_1
*CAP
1 *721:A0 0.000134211
2 *839:X 0.000134211
3 *721:A0 *196:31 9.75779e-05
*RES
1 *839:X *721:A0 48.5271 
*END

*D_NET *182 0.000560252
*CONN
*I *717:A0 I *D sky130_fd_sc_hd__mux2_1
*I *841:X O *D sky130_fd_sc_hd__dlygate4sd3_1
*CAP
1 *717:A0 0.000128529
2 *841:X 0.000128529
3 *717:A0 *717:S 0.00019063
4 *717:A0 *211:34 5.56279e-05
5 *29:10 *717:A0 5.69373e-05
*RES
1 *841:X *717:A0 49.48 
*END

*D_NET *183 0.00240621
*CONN
*I *657:A I *D sky130_fd_sc_hd__or2_1
*I *656:A I *D sky130_fd_sc_hd__nand2_1
*I *863:A I *D sky130_fd_sc_hd__buf_2
*I *724:A1 I *D sky130_fd_sc_hd__mux2_1
*I *849:A I *D sky130_fd_sc_hd__dlygate4sd3_1
*I *772:Q O *D sky130_fd_sc_hd__dfrtp_1
*CAP
1 *657:A 0.000161699
2 *656:A 9.09702e-05
3 *863:A 0
4 *724:A1 0.000179912
5 *849:A 0.000132825
6 *772:Q 0
7 *183:25 0.000236731
8 *183:21 0.000198049
9 *183:6 0.000183085
10 *183:4 0.000161699
11 *849:A *194:74 9.5877e-05
12 *665:A *656:A 5.19667e-05
13 *724:A0 *724:A1 5.50049e-05
14 *727:A1 *849:A 0.000304914
15 *36:10 *724:A1 5.37348e-06
16 *67:10 *656:A 1.32314e-05
17 *132:59 *656:A 2.64616e-05
18 *132:59 *724:A1 0.000141052
19 *132:59 *183:25 2.18409e-05
20 *132:61 *656:A 5.90675e-06
21 *132:61 *183:25 5.90675e-06
22 *132:65 *849:A 2.55642e-05
23 *132:65 *183:21 0.000111852
24 *133:18 *849:A 1.83667e-05
25 *133:18 *183:21 5.20202e-05
26 *133:20 *849:A 0.000125904
*RES
1 *772:Q *183:4 23 
2 *183:4 *183:6 15 
3 *183:6 *849:A 42.7643 
4 *183:6 *183:21 16.5536 
5 *183:21 *183:25 1.11857 
6 *183:25 *724:A1 26.48 
7 *183:25 *863:A 23 
8 *183:21 *656:A 25.0714 
9 *183:4 *657:A 25.0714 
*END

*D_NET *184 0.00168763
*CONN
*I *761:D I *D sky130_fd_sc_hd__dfrtp_1
*I *842:X O *D sky130_fd_sc_hd__dlygate4sd3_1
*CAP
1 *761:D 0
2 *842:X 0.000429957
3 *184:8 0.000429957
4 *761:RESET_B *184:8 0.0002499
5 *135:28 *184:8 0.000438165
6 *135:30 *184:8 0.000139657
*RES
1 *842:X *184:8 48.7093 
2 *184:8 *761:D 38 
*END

*D_NET *185 0.000622476
*CONN
*I *712:A0 I *D sky130_fd_sc_hd__mux2_1
*I *843:X O *D sky130_fd_sc_hd__dlygate4sd3_1
*CAP
1 *712:A0 0.000173886
2 *843:X 8.41937e-05
3 *185:8 0.00025808
4 *712:A0 *715:S 2.16575e-05
5 *712:A0 *196:97 2.90315e-05
6 *185:8 *221:12 0
7 *715:A0 *712:A0 5.56279e-05
*RES
1 *843:X *185:8 39.2014 
2 *185:8 *712:A0 40.5271 
*END

*D_NET *186 0.000493065
*CONN
*I *720:A0 I *D sky130_fd_sc_hd__mux2_1
*I *844:X O *D sky130_fd_sc_hd__dlygate4sd3_1
*CAP
1 *720:A0 7.49152e-05
2 *844:X 7.49152e-05
3 *720:A0 *720:A1 0.000140927
4 *720:A0 *194:93 5.68958e-05
5 *720:A0 *211:24 9.41704e-05
6 *659:A2 *720:A0 2.46906e-05
7 *115:41 *720:A0 2.65505e-05
*RES
1 *844:X *720:A0 48.5271 
*END

*D_NET *187 0.00119284
*CONN
*I *764:D I *D sky130_fd_sc_hd__dfrtp_1
*I *845:X O *D sky130_fd_sc_hd__dlygate4sd3_1
*CAP
1 *764:D 0.000174668
2 *845:X 0.000169532
3 *187:8 0.0003442
4 *187:8 *720:A1 0.000188916
5 *187:8 *211:24 4.74809e-05
6 *787:A *187:8 0.000137879
7 *172:27 *764:D 0.000130168
*RES
1 *845:X *187:8 42.0186 
2 *187:8 *764:D 40.5945 
*END

*D_NET *188 0.000418417
*CONN
*I *710:A0 I *D sky130_fd_sc_hd__mux2_1
*I *846:X O *D sky130_fd_sc_hd__dlygate4sd3_1
*CAP
1 *710:A0 0.000122164
2 *846:X 0.000122164
3 *710:A0 *846:A 6.17437e-06
4 *710:A0 *197:34 3.17516e-05
5 *710:A0 *197:45 2.61526e-05
6 *710:A1 *710:A0 5.67058e-05
7 *75:10 *710:A0 5.3304e-05
*RES
1 *846:X *710:A0 48.5271 
*END

*D_NET *189 0.000610858
*CONN
*I *722:A0 I *D sky130_fd_sc_hd__mux2_1
*I *847:X O *D sky130_fd_sc_hd__dlygate4sd3_1
*CAP
1 *722:A0 0.0002353
2 *847:X 0.0002353
3 *161:31 *722:A0 8.52481e-05
4 *161:37 *722:A0 5.50106e-05
*RES
1 *847:X *722:A0 49.9564 
*END

*D_NET *190 0.000418954
*CONN
*I *723:A0 I *D sky130_fd_sc_hd__mux2_1
*I *848:X O *D sky130_fd_sc_hd__dlygate4sd3_1
*CAP
1 *723:A0 0.000108059
2 *848:X 0.000108059
3 *723:A0 *723:S 5.41385e-05
4 *172:41 *723:A0 0.000119313
5 *172:49 *723:A0 2.93845e-05
*RES
1 *848:X *723:A0 49.0036 
*END

*D_NET *191 0.000426892
*CONN
*I *727:A0 I *D sky130_fd_sc_hd__mux2_1
*I *849:X O *D sky130_fd_sc_hd__dlygate4sd3_1
*CAP
1 *727:A0 0.000121183
2 *849:X 0.000121183
3 *727:A1 *727:A0 0.000184527
*RES
1 *849:X *727:A0 48.5271 
*END

*D_NET *192 0.00278405
*CONN
*I *692:A1 I *D sky130_fd_sc_hd__o22a_1
*I *725:A1 I *D sky130_fd_sc_hd__mux2_1
*I *850:X O *D sky130_fd_sc_hd__dlygate4sd3_1
*CAP
1 *692:A1 0
2 *725:A1 0
3 *850:X 0.000312434
4 *192:22 0.000545115
5 *192:10 0.000857549
6 *192:10 *198:10 0
7 *192:22 *725:S 1.14154e-05
8 *192:22 *194:6 1.56665e-05
9 *192:22 *194:14 3.22879e-05
10 *192:22 *198:10 0.000141052
11 *192:22 *239:10 6.63801e-05
12 *671:B1 *192:10 0.00010776
13 *794:A *192:22 4.75937e-05
14 *804:A *192:22 0.000272383
15 *117:25 *192:10 3.92407e-05
16 *117:25 *192:22 0.000225275
17 *129:14 *192:22 0.000109895
*RES
1 *850:X *192:10 43.2614 
2 *192:10 *192:22 28.2986 
3 *192:22 *725:A1 23 
4 *192:10 *692:A1 38 
*END

*D_NET *193 0.000445776
*CONN
*I *630:A I *D sky130_fd_sc_hd__inv_2
*I *852:X O *D sky130_fd_sc_hd__dlygate4sd3_1
*CAP
1 *630:A 0
2 *852:X 0.000222888
3 *193:10 0.000222888
4 *193:10 *205:10 0
*RES
1 *852:X *193:10 41.3557 
2 *193:10 *630:A 38 
*END

*D_NET *194 0.0101859
*CONN
*I *725:S I *D sky130_fd_sc_hd__mux2_1
*I *722:S I *D sky130_fd_sc_hd__mux2_1
*I *730:S I *D sky130_fd_sc_hd__mux2_1
*I *724:S I *D sky130_fd_sc_hd__mux2_1
*I *720:S I *D sky130_fd_sc_hd__mux2_1
*I *726:S I *D sky130_fd_sc_hd__mux2_1
*I *727:S I *D sky130_fd_sc_hd__mux2_1
*I *723:S I *D sky130_fd_sc_hd__mux2_1
*I *728:B I *D sky130_fd_sc_hd__or2_1
*I *729:S I *D sky130_fd_sc_hd__mux2_1
*I *804:X O *D sky130_fd_sc_hd__clkbuf_4
*CAP
1 *725:S 2.0995e-05
2 *722:S 4.37091e-05
3 *730:S 0
4 *724:S 0.000316123
5 *720:S 0
6 *726:S 2.07933e-05
7 *727:S 0
8 *723:S 7.92838e-05
9 *728:B 4.50142e-05
10 *729:S 0
11 *804:X 3.0566e-05
12 *194:93 0.00034472
13 *194:74 0.000915023
14 *194:63 0.000549509
15 *194:61 0.000556808
16 *194:48 0.000595134
17 *194:37 0.000593309
18 *194:24 0.000546319
19 *194:22 0.00078662
20 *194:14 0.00072196
21 *194:6 0.000216382
22 *194:22 *817:A 0.000100069
23 *194:37 *633:A 6.63801e-05
24 *194:93 *230:33 0.000141888
25 num_to_send_o[2] *724:S 1.95789e-05
26 *659:A2 *194:93 6.15667e-05
27 *720:A0 *194:93 5.68958e-05
28 *723:A0 *723:S 5.41385e-05
29 *724:A0 *724:S 6.16531e-05
30 *727:A1 *194:74 0.00016679
31 *729:A0 *194:24 5.50049e-05
32 *729:A0 *194:37 1.72202e-05
33 *729:A1 *194:37 0.000225393
34 *730:A1 *194:24 0.000579519
35 *794:A *194:6 0.000141052
36 *794:A *194:14 0.000226306
37 *804:A *725:S 0
38 *804:A *194:6 9.84851e-05
39 *849:A *194:74 9.5877e-05
40 *34:10 *194:22 5.70419e-05
41 *35:10 *194:48 0
42 *39:10 *724:S 0
43 *129:14 *194:14 8.92783e-05
44 *132:59 *724:S 6.07611e-06
45 *133:18 *724:S 0
46 *133:20 *724:S 0
47 *133:20 *194:48 0
48 *133:20 *194:61 0
49 *133:22 *194:37 0
50 *133:22 *194:48 0
51 *134:36 *194:14 0.000218952
52 *154:12 *194:37 6.88552e-05
53 *159:12 *194:22 0.00013272
54 *159:12 *194:24 2.47321e-05
55 *159:23 *194:22 0.000148698
56 *161:18 *194:14 1.86973e-05
57 *161:31 *722:S 5.67058e-05
58 *161:31 *194:14 3.81554e-05
59 *161:37 *722:S 4.2573e-05
60 *161:37 *194:22 0.00043937
61 *172:27 *194:93 9.65021e-05
62 *172:33 *726:S 1.12349e-05
63 *172:33 *194:74 5.40337e-05
64 *172:33 *194:93 7.2804e-05
65 *192:22 *725:S 1.14154e-05
66 *192:22 *194:6 1.56665e-05
67 *192:22 *194:14 3.22879e-05
*RES
1 *804:X *194:6 24.5743 
2 *194:6 *194:14 35.4893 
3 *194:14 *194:22 12.7186 
4 *194:22 *194:24 7.29143 
5 *194:24 *729:S 23 
6 *194:24 *194:37 21.4629 
7 *194:37 *728:B 38.6214 
8 *194:37 *194:48 4.72286 
9 *194:48 *723:S 39.595 
10 *194:48 *194:61 3.66643 
11 *194:61 *194:63 15 
12 *194:63 *727:S 23 
13 *194:63 *194:74 9.83929 
14 *194:74 *726:S 23.4971 
15 *194:74 *194:93 36.9807 
16 *194:93 *720:S 23 
17 *194:61 *724:S 43.7793 
18 *194:22 *730:S 23 
19 *194:14 *722:S 24.0979 
20 *194:6 *725:S 23.4971 
*END

*D_NET *195 0.00170008
*CONN
*I *673:B I *D sky130_fd_sc_hd__xor2_1
*I *853:X O *D sky130_fd_sc_hd__dlygate4sd3_1
*CAP
1 *673:B 0.00020083
2 *853:X 0.000415727
3 *195:8 0.000616557
4 *195:8 *205:66 0.000187986
5 *195:8 *206:10 0
6 *87:29 *195:8 0
7 *89:12 *195:8 7.45997e-05
8 *136:20 *195:8 4.54033e-05
9 *136:22 *673:B 0.000125404
10 *136:47 *673:B 3.3577e-05
11 *136:47 *195:8 0
12 *136:53 *195:8 0
*RES
1 *853:X *195:8 45.8921 
2 *195:8 *673:B 42.4329 
*END

*D_NET *196 0.0141334
*CONN
*I *712:S I *D sky130_fd_sc_hd__mux2_1
*I *715:S I *D sky130_fd_sc_hd__mux2_1
*I *733:S I *D sky130_fd_sc_hd__mux2_1
*I *732:S I *D sky130_fd_sc_hd__mux2_1
*I *714:S I *D sky130_fd_sc_hd__mux2_1
*I *718:S I *D sky130_fd_sc_hd__mux2_1
*I *717:S I *D sky130_fd_sc_hd__mux2_1
*I *721:S I *D sky130_fd_sc_hd__mux2_1
*I *731:S I *D sky130_fd_sc_hd__mux2_1
*I *805:X O *D sky130_fd_sc_hd__clkbuf_4
*CAP
1 *712:S 2.30556e-05
2 *715:S 0.000381518
3 *733:S 0.000188581
4 *732:S 0
5 *714:S 0
6 *718:S 0.00042142
7 *717:S 0.000196288
8 *721:S 0
9 *731:S 0.000207272
10 *805:X 4.09526e-05
11 *196:97 0.000812233
12 *196:79 0.000286401
13 *196:73 0.000757081
14 *196:51 0.000467655
15 *196:47 0.000405506
16 *196:31 0.000970324
17 *196:12 0.00132571
18 *196:10 0.000399238
19 *196:8 0.000203453
20 *718:S *714:A1 0.000102389
21 *718:S *831:A 0.000185434
22 *731:S *214:8 8.62783e-05
23 *733:S *221:21 4.5051e-05
24 *196:8 *649:A 5.3304e-05
25 *196:10 *214:8 1.01436e-05
26 *196:10 *214:19 0.000185104
27 *196:12 *214:8 0.000485221
28 *196:47 *714:A1 0.000175612
29 *196:47 *214:19 5.94125e-05
30 *196:51 *714:A1 0.000140927
31 *196:73 *714:A1 3.47781e-05
32 *196:73 *221:12 9.10649e-05
33 *196:73 *231:31 0
34 *196:79 *221:21 6.70749e-05
35 *196:97 *221:12 0.000358846
36 *644:A *733:S 5.50106e-05
37 *712:A0 *715:S 2.16575e-05
38 *712:A0 *196:97 2.90315e-05
39 *714:A0 *718:S 2.46906e-05
40 *715:A0 *715:S 0.000205409
41 *717:A0 *717:S 0.00019063
42 *718:A0 *718:S 9.5877e-05
43 *721:A0 *196:31 9.75779e-05
44 *776:D *196:31 0.00035919
45 *776:RESET_B *196:31 8.06804e-06
46 *778:RESET_B *196:73 0.000173579
47 *837:A *718:S 4.66786e-05
48 *44:10 *196:97 0.000157185
49 *45:10 *733:S 1.21972e-05
50 *62:10 *731:S 2.4754e-05
51 *81:16 *731:S 5.67058e-05
52 *119:10 *733:S 0.000145611
53 *119:10 *196:79 0.000269781
54 *123:23 *731:S 1.80023e-05
55 *132:47 *718:S 0.000555522
56 *132:47 *196:51 6.67968e-05
57 *138:27 *731:S 0.000141869
58 *138:27 *196:10 0.000187335
59 *138:27 *196:12 0.000475077
60 *138:27 *196:47 0.000228981
61 *138:27 *196:73 0.000153218
62 *138:65 *731:S 0.000353209
63 *149:18 *733:S 0.000481931
64 *149:18 *196:73 0
65 *149:18 *196:79 4.21378e-05
66 *149:18 *196:97 0
67 *151:10 *196:97 0.000232409
68 *152:14 *733:S 2.02872e-05
69 *178:8 *196:73 3.5664e-05
*RES
1 *805:X *196:8 38.6214 
2 *196:8 *196:10 2.61 
3 *196:10 *196:12 6.48357 
4 *196:12 *731:S 43.8621 
5 *196:12 *196:31 29.9557 
6 *196:31 *721:S 23 
7 *196:10 *717:S 41.9564 
8 *196:8 *196:47 3.31429 
9 *196:47 *196:51 16.5743 
10 *196:51 *718:S 36.34 
11 *196:51 *714:S 23 
12 *196:47 *196:73 6.13143 
13 *196:73 *196:79 18.5007 
14 *196:79 *732:S 23 
15 *196:79 *733:S 29.3386 
16 *196:73 *196:97 24.9843 
17 *196:97 *715:S 30.3121 
18 *196:97 *712:S 23.4971 
*END

*D_NET *197 0.0134972
*CONN
*I *735:S I *D sky130_fd_sc_hd__mux2_1
*I *734:S I *D sky130_fd_sc_hd__mux2_1
*I *709:S I *D sky130_fd_sc_hd__mux2_1
*I *708:S I *D sky130_fd_sc_hd__mux2_1
*I *676:S I *D sky130_fd_sc_hd__mux2_1
*I *675:S I *D sky130_fd_sc_hd__mux2_1
*I *707:S I *D sky130_fd_sc_hd__mux2_1
*I *710:S I *D sky130_fd_sc_hd__mux2_1
*I *711:S I *D sky130_fd_sc_hd__mux2_1
*I *713:S I *D sky130_fd_sc_hd__mux2_1
*I *806:X O *D sky130_fd_sc_hd__clkbuf_4
*CAP
1 *735:S 8.29884e-05
2 *734:S 0
3 *709:S 0
4 *708:S 0.000198453
5 *676:S 0
6 *675:S 0
7 *707:S 0.000349663
8 *710:S 2.34823e-05
9 *711:S 0.000266336
10 *713:S 0.000289739
11 *806:X 0
12 *197:125 0.00050025
13 *197:115 0.000867474
14 *197:98 0.0008578
15 *197:94 0.000767284
16 *197:81 0.000500825
17 *197:57 0.000725446
18 *197:45 0.000957096
19 *197:34 0.000713595
20 *197:8 0.000745854
21 *197:4 0.000407229
22 *707:S *822:A 0.000244526
23 *707:S *199:57 0.000111694
24 *707:S *222:46 0.000128583
25 *707:S *223:28 4.6318e-06
26 *711:S *216:10 5.01247e-05
27 *735:S *223:59 1.39431e-05
28 *197:8 *216:10 5.3304e-05
29 *197:45 *846:A 0.00026808
30 *197:45 *223:28 0.000112685
31 *197:45 *225:31 9.5877e-05
32 *197:57 *200:19 5.5901e-05
33 *197:57 *222:46 1.14452e-05
34 *197:57 *223:28 1.6873e-05
35 *197:81 *223:28 4.5051e-05
36 *197:81 *225:31 0.000101436
37 *197:94 *223:10 6.28591e-05
38 *197:94 *223:18 9.71093e-05
39 *197:94 *225:31 2.64616e-05
40 *197:98 *223:6 1.85916e-05
41 *197:98 *223:59 3.46673e-05
42 *197:115 *200:19 0
43 *197:125 *221:34 7.76364e-06
44 *197:125 *224:8 2.64616e-05
45 *197:125 *224:25 0.000241355
46 *664:C1 *197:81 0.000135037
47 *664:C1 *197:94 4.2573e-05
48 *709:A0 *197:125 5.3304e-05
49 *710:A0 *197:34 3.17516e-05
50 *710:A0 *197:45 2.61526e-05
51 *710:A1 *197:8 5.41385e-05
52 *710:A1 *197:34 0.000198032
53 *713:A0 *713:S 7.88828e-05
54 *713:A1 *713:S 0
55 *752:CLK *197:125 2.81066e-05
56 *752:RESET_B *197:125 6.68587e-05
57 *756:RESET_B *711:S 0
58 *756:RESET_B *713:S 0
59 *780:CLK *708:S 5.50106e-05
60 *780:RESET_B *708:S 4.79544e-05
61 *793:A *197:45 2.64616e-05
62 *46:10 *197:115 0
63 *46:10 *197:125 7.44257e-05
64 *55:8 *711:S 0.000376242
65 *58:12 *711:S 0.000138718
66 *58:12 *713:S 0.000236011
67 *65:16 *197:94 0
68 *72:12 *708:S 0
69 *72:12 *197:57 3.70094e-05
70 *72:12 *197:115 0
71 *75:10 *197:45 1.12251e-05
72 *75:24 *713:S 8.1796e-05
73 *115:131 *197:94 0
74 *127:20 *707:S 0.000108869
75 *127:28 *713:S 1.01436e-05
76 *127:95 *708:S 0.000111852
77 *127:110 *708:S 0
78 *127:110 *197:115 0
79 *129:64 *711:S 8.57061e-05
80 *129:76 *711:S 1.09783e-05
81 *129:89 *711:S 4.9844e-05
82 *130:80 *713:S 0
83 *131:78 *197:57 0.000154405
84 *131:93 *197:57 3.92407e-05
85 *137:10 *197:125 2.24973e-05
86 *137:29 *197:115 0
87 *143:10 *735:S 0
88 *144:10 *197:94 5.3656e-05
89 *152:33 *197:125 0.000134538
90 *155:6 *197:125 0.000141954
91 *157:10 *197:94 0.000136486
92 *164:14 *707:S 0.00051967
93 *170:8 *197:125 3.47781e-05
*RES
1 *806:X *197:4 23 
2 *197:4 *197:8 18.0036 
3 *197:8 *713:S 44.96 
4 *197:8 *711:S 45.8921 
5 *197:4 *197:34 4.90929 
6 *197:34 *710:S 23.4971 
7 *197:34 *197:45 9.21786 
8 *197:45 *197:57 21.2764 
9 *197:57 *707:S 48.5021 
10 *197:57 *675:S 38 
11 *197:45 *197:81 2.52714 
12 *197:81 *676:S 23 
13 *197:81 *197:94 38.5136 
14 *197:94 *197:98 19.4329 
15 *197:98 *708:S 41.9771 
16 *197:98 *197:115 21.1314 
17 *197:115 *197:125 41.2271 
18 *197:125 *709:S 23 
19 *197:115 *734:S 23 
20 *197:94 *735:S 24.595 
*END

*D_NET *198 0.00209465
*CONN
*I *631:A I *D sky130_fd_sc_hd__inv_2
*I *850:A I *D sky130_fd_sc_hd__dlygate4sd3_1
*I *745:Q O *D sky130_fd_sc_hd__dfrtp_1
*CAP
1 *631:A 8.3107e-05
2 *850:A 8.52204e-05
3 *745:Q 0.000222164
4 *198:10 0.000390491
5 *850:A *201:12 4.96717e-05
6 *198:10 *201:12 0.000380342
7 *198:10 *239:10 9.74235e-05
8 *671:A1 *850:A 1.59094e-05
9 *671:B1 *850:A 0.00010018
10 *674:B *631:A 9.03784e-05
11 *674:B *198:10 0.000136486
12 *674:C *631:A 1.22803e-05
13 *674:C *198:10 2.95125e-05
14 *794:A *198:10 3.22879e-05
15 *80:8 *631:A 0.000131735
16 *81:18 *631:A 9.64022e-05
17 *192:10 *198:10 0
18 *192:22 *198:10 0.000141052
*RES
1 *745:Q *198:10 45.3536 
2 *198:10 *850:A 40.0507 
3 *198:10 *631:A 40.9621 
*END

*D_NET *199 0.018201
*CONN
*I *662:A I *D sky130_fd_sc_hd__xnor2_1
*I *645:A I *D sky130_fd_sc_hd__xnor2_1
*I *649:A I *D sky130_fd_sc_hd__xnor2_1
*I *632:A I *D sky130_fd_sc_hd__inv_2
*I *726:A1 I *D sky130_fd_sc_hd__mux2_1
*I *666:A I *D sky130_fd_sc_hd__xnor2_1
*I *746:Q O *D sky130_fd_sc_hd__dfrtp_4
*CAP
1 *662:A 0.000382085
2 *645:A 5.73109e-05
3 *649:A 0.00098611
4 *632:A 3.09722e-05
5 *726:A1 0.000874274
6 *666:A 0.000378619
7 *746:Q 2.34823e-05
8 *199:67 0.00183775
9 *199:57 0.00191088
10 *199:44 0.00111347
11 *199:16 0.00223881
12 *199:6 0.00135743
13 *645:A *645:B 3.91386e-05
14 *649:A *649:B 0.000181794
15 *666:A *229:29 0.000223698
16 *199:16 *210:44 5.61154e-05
17 *199:16 *211:10 2.64616e-05
18 *199:57 *200:19 0
19 *199:57 *223:28 0.000184825
20 *199:57 *225:31 0
21 *199:67 *645:B 5.29672e-05
22 *199:67 *647:A2 5.50049e-05
23 *199:67 *708:A1 0.000133575
24 *199:67 *219:53 0.000155184
25 *199:67 *220:14 0
26 *199:67 *233:21 0
27 *646:C1 *199:67 0.000184527
28 *667:C1 *666:A 3.22879e-05
29 *668:B1 *666:A 5.31444e-05
30 *668:B1 *199:16 3.97502e-05
31 *707:S *199:57 0.000111694
32 *763:D *199:16 6.16209e-05
33 *763:RESET_B *199:16 2.33744e-05
34 *57:8 *199:67 0
35 *59:6 *649:A 1.59071e-05
36 *60:8 *649:A 0.000331705
37 *78:8 *666:A 0.000171906
38 *115:6 *632:A 2.93747e-05
39 *115:30 *666:A 0.000382564
40 *115:30 *199:16 8.72173e-05
41 *115:80 *199:57 0.000135682
42 *115:93 *199:57 4.17929e-05
43 *115:99 *199:67 0.000166072
44 *115:131 *662:A 0.000164364
45 *115:131 *199:67 4.5051e-05
46 *115:146 *199:44 0
47 *115:146 *199:57 0
48 *123:36 *199:44 0
49 *123:36 *199:57 0
50 *123:45 *199:67 1.14452e-05
51 *126:101 *199:16 0.000530622
52 *127:10 *662:A 6.51763e-05
53 *127:10 *199:57 0.000164291
54 *127:10 *199:67 1.59094e-05
55 *127:12 *199:57 0.000161121
56 *127:14 *199:57 0.000238194
57 *127:20 *199:57 0.000164282
58 *127:80 *199:57 0
59 *129:76 *649:A 0.00113959
60 *131:78 *199:57 0
61 *131:93 *662:A 0.000651537
62 *131:93 *199:57 0
63 *134:21 *726:A1 7.06588e-05
64 *134:21 *199:16 0.000192904
65 *137:43 *199:67 2.472e-05
66 *137:45 *199:67 1.94522e-05
67 *157:10 *662:A 8.46456e-05
68 *159:23 *666:A 0
69 *172:27 *726:A1 0.000161202
70 *172:33 *726:A1 7.39471e-05
71 *196:8 *649:A 5.3304e-05
*RES
1 *746:Q *199:6 23.4971 
2 *199:6 *199:16 34.6164 
3 *199:16 *666:A 46.7 
4 *199:16 *726:A1 49.1029 
5 *199:6 *199:44 21.09 
6 *199:44 *632:A 38.6214 
7 *199:44 *199:57 32.0479 
8 *199:57 *199:67 44.9143 
9 *199:67 *649:A 41.9329 
10 *199:67 *645:A 24.2014 
11 *199:57 *662:A 33.6264 
*END

*D_NET *200 0.00655766
*CONN
*I *797:A I *D sky130_fd_sc_hd__clkbuf_4
*I *811:A I *D sky130_fd_sc_hd__dlygate4sd3_1
*I *747:Q O *D sky130_fd_sc_hd__dfrtp_1
*CAP
1 *797:A 0.000141665
2 *811:A 0.000198191
3 *747:Q 8.4977e-05
4 *200:19 0.00162985
5 *200:17 0.00148818
6 *200:6 0.000283168
7 *200:19 *661:B 7.03869e-05
8 *200:19 *822:A 0
9 *200:19 *854:A 1.22803e-05
10 *200:19 *222:46 0
11 *200:19 *223:10 0.000290903
12 *200:19 *223:18 0.000188951
13 *200:19 *223:59 0
14 *749:CLK *811:A 5.41385e-05
15 *13:10 *200:19 0.000345295
16 *17:10 *200:19 5.21127e-05
17 *72:12 *200:19 0.000999136
18 *115:146 *200:19 0.000435924
19 *126:112 *811:A 0.000123934
20 *126:112 *200:6 2.13733e-05
21 *126:118 *200:19 0
22 *132:22 *200:19 0
23 *157:10 *200:19 8.1292e-05
24 *165:10 *200:19 0
25 *197:57 *200:19 5.5901e-05
26 *197:115 *200:19 0
27 *199:57 *200:19 0
*RES
1 *747:Q *200:6 24.0979 
2 *200:6 *811:A 27.3293 
3 *200:6 *200:17 15 
4 *200:17 *200:19 35.3593 
5 *200:19 *797:A 40.0507 
*END

*D_NET *201 0.00184082
*CONN
*I *634:B I *D sky130_fd_sc_hd__or2_2
*I *671:Y O *D sky130_fd_sc_hd__a21oi_1
*CAP
1 *634:B 0
2 *671:Y 0.000523483
3 *201:12 0.000523483
4 *201:12 *239:10 3.71198e-05
5 *671:A2 *201:12 3.7122e-06
6 *674:C *201:12 0.000171906
7 *850:A *201:12 4.96717e-05
8 *82:8 *201:12 0.000114092
9 *117:25 *201:12 0
10 *128:8 *201:12 3.70094e-05
11 *198:10 *201:12 0.000380342
*RES
1 *671:Y *201:12 48.44 
2 *201:12 *634:B 38 
*END

*D_NET *202 0.00859786
*CONN
*I *736:A I *D sky130_fd_sc_hd__nand2_1
*I *686:B I *D sky130_fd_sc_hd__nand2_1
*I *629:A I *D sky130_fd_sc_hd__inv_2
*I *683:B I *D sky130_fd_sc_hd__or2_1
*I *703:A2 I *D sky130_fd_sc_hd__a21o_1
*I *741:A1 I *D sky130_fd_sc_hd__a31o_1
*I *740:A1 I *D sky130_fd_sc_hd__a31oi_1
*I *737:A I *D sky130_fd_sc_hd__or2_1
*I *782:Q O *D sky130_fd_sc_hd__dfrtp_2
*CAP
1 *736:A 0
2 *686:B 0.000193643
3 *629:A 0
4 *683:B 0
5 *703:A2 0
6 *741:A1 0
7 *740:A1 0.00015887
8 *737:A 0
9 *782:Q 1.64097e-05
10 *202:89 0.000397043
11 *202:70 0.000540797
12 *202:61 0.000140585
13 *202:55 0.000983693
14 *202:35 0.000319673
15 *202:31 0.000918487
16 *202:23 0.000278556
17 *202:16 0.000392711
18 *202:6 0.000435705
19 *686:B *686:A 0.0002263
20 *740:A1 *203:34 4.95081e-05
21 *202:61 *688:B 3.55887e-05
22 *202:61 *203:19 8.00493e-05
23 *202:61 *204:14 4.93359e-05
24 *202:70 *688:B 5.67058e-05
25 *202:89 *204:22 9.67842e-05
26 *681:A1 *686:B 0
27 *681:A1 *202:89 9.16111e-05
28 *688:A *202:70 0.00010018
29 *690:B *686:B 4.50413e-05
30 *690:B *202:89 0
31 *738:A *202:16 0.00010655
32 *738:B *202:16 0.000274078
33 *740:B1 *740:A1 5.67058e-05
34 *741:A3 *202:61 8.62876e-05
35 *741:B1 *740:A1 5.67058e-05
36 *782:RESET_B *202:6 2.02517e-05
37 *782:RESET_B *202:16 3.22879e-05
38 *782:RESET_B *202:23 1.72202e-05
39 *783:D *202:31 9.67842e-05
40 *783:RESET_B *202:55 4.83893e-05
41 *11:10 *686:B 0.000110389
42 *48:10 *202:16 0.000228909
43 *86:10 *202:89 1.57571e-05
44 *88:6 *202:89 6.07194e-05
45 *88:34 *686:B 9.84794e-05
46 *88:34 *202:89 1.22822e-05
47 *109:10 *202:16 0.000191497
48 *109:10 *202:23 9.58714e-05
49 *109:14 *202:16 2.18409e-05
50 *112:18 *686:B 8.16064e-05
51 *112:18 *202:61 0
52 *112:18 *202:89 0.000304934
53 *113:55 *686:B 0.000180836
54 *117:19 *202:16 4.95081e-05
55 *117:34 *202:16 4.21352e-05
56 *117:44 *202:31 6.4393e-05
57 *117:44 *202:35 2.64506e-05
58 *117:57 *202:31 4.75206e-05
59 *117:57 *202:35 0.000197479
60 *117:57 *202:55 1.94812e-05
61 *126:14 *202:35 0
62 *126:16 *202:35 0
63 *126:18 *202:16 4.85126e-05
64 *126:18 *202:31 8.62876e-05
65 *126:24 *202:16 2.71291e-05
66 *126:24 *202:23 5.50106e-05
67 *126:24 *202:31 5.94125e-05
68 *136:73 *202:61 7.75736e-06
69 *136:83 *202:61 6.11183e-05
*RES
1 *782:Q *202:6 23.4971 
2 *202:6 *202:16 40.6471 
3 *202:16 *737:A 23 
4 *202:6 *202:23 1.09786 
5 *202:23 *202:31 34.4329 
6 *202:31 *202:35 18.6664 
7 *202:35 *740:A1 40.6721 
8 *202:35 *741:A1 38 
9 *202:31 *202:55 6.815 
10 *202:55 *202:61 34.0186 
11 *202:61 *703:A2 23 
12 *202:55 *202:70 5.28214 
13 *202:70 *683:B 23 
14 *202:70 *202:89 6.98071 
15 *202:89 *629:A 23 
16 *202:89 *686:B 29.8564 
17 *202:23 *736:A 23 
*END

*D_NET *203 0.00959464
*CONN
*I *682:B I *D sky130_fd_sc_hd__nand2_1
*I *700:A1 I *D sky130_fd_sc_hd__a2111oi_1
*I *680:A2 I *D sky130_fd_sc_hd__a211o_1
*I *687:B I *D sky130_fd_sc_hd__nor2_1
*I *678:B I *D sky130_fd_sc_hd__nor2_1
*I *703:B1 I *D sky130_fd_sc_hd__a21o_1
*I *740:A2 I *D sky130_fd_sc_hd__a31oi_1
*I *739:A I *D sky130_fd_sc_hd__xnor2_1
*I *693:B I *D sky130_fd_sc_hd__and2_1
*I *688:B I *D sky130_fd_sc_hd__or2_1
*I *783:Q O *D sky130_fd_sc_hd__dfrtp_4
*CAP
1 *682:B 0.000119021
2 *700:A1 0.000365882
3 *680:A2 0
4 *687:B 0
5 *678:B 0
6 *703:B1 3.78317e-05
7 *740:A2 0
8 *739:A 0
9 *693:B 0
10 *688:B 5.17941e-05
11 *783:Q 0
12 *203:100 0.000284477
13 *203:85 0.000528676
14 *203:75 0.000284803
15 *203:69 0.000869072
16 *203:63 0.000603078
17 *203:42 0.000270319
18 *203:34 0.000419195
19 *203:25 0.000290753
20 *203:21 0.000179709
21 *203:19 0.000142236
22 *203:6 0.000172559
23 *682:B *204:8 8.85189e-05
24 *682:B *204:14 4.16933e-05
25 *700:A1 *205:53 0.000179062
26 *700:A1 *205:66 1.78655e-05
27 *700:A1 *206:105 8.9783e-05
28 *203:19 *204:14 2.05503e-05
29 *203:63 *204:14 4.01627e-05
30 *203:69 *204:14 0.000526598
31 *203:69 *204:41 0.000114363
32 *203:75 *204:52 9.67842e-05
33 *203:85 *204:52 0
34 *203:100 *205:19 9.28842e-05
35 *681:A1 *203:75 1.05441e-05
36 *681:A1 *203:85 1.34395e-05
37 *682:A *682:B 1.00493e-05
38 *688:A *688:B 0
39 *689:C1 *682:B 5.50049e-05
40 *695:A1 *700:A1 0.000111447
41 *695:A1 *203:75 2.26406e-05
42 *696:A2 *682:B 5.55874e-05
43 *696:A2 *203:19 3.41998e-06
44 *696:A2 *203:63 1.98125e-05
45 *740:A1 *203:34 4.95081e-05
46 *740:B1 *203:34 0.000532323
47 *745:CLK *203:42 7.4416e-05
48 *745:RESET_B *203:34 0.000746299
49 *745:RESET_B *203:42 0.0002246
50 *11:16 *203:85 0.000136738
51 *16:10 *203:42 6.48049e-05
52 *83:10 *203:75 9.84794e-05
53 *83:10 *203:85 0.00026025
54 *87:14 *682:B 3.76959e-05
55 *88:12 *700:A1 2.472e-05
56 *90:20 *700:A1 5.50106e-05
57 *92:8 *203:100 2.93845e-05
58 *92:16 *700:A1 2.95366e-05
59 *93:8 *203:19 0
60 *95:8 *700:A1 3.75169e-05
61 *95:8 *203:75 2.12347e-06
62 *95:8 *203:85 5.94125e-05
63 *95:20 *700:A1 5.28582e-05
64 *96:10 *682:B 1.14987e-05
65 *97:31 *700:A1 5.58873e-06
66 *97:31 *203:69 0.000227085
67 *105:10 *700:A1 4.66047e-05
68 *109:10 *203:42 1.83564e-05
69 *112:37 *688:B 0
70 *112:37 *203:19 0
71 *112:43 *703:B1 4.2573e-05
72 *112:43 *203:25 0.000242249
73 *112:43 *203:34 2.80394e-05
74 *112:72 *203:100 5.50106e-05
75 *117:25 *203:42 0
76 *117:66 *203:42 0
77 *117:75 *203:42 0
78 *136:53 *203:69 0
79 *136:57 *203:69 0
80 *202:61 *688:B 3.55887e-05
81 *202:61 *203:19 8.00493e-05
82 *202:70 *688:B 5.67058e-05
*RES
1 *783:Q *203:6 38 
2 *203:6 *688:B 39.4707 
3 *203:6 *203:19 2.61 
4 *203:19 *203:21 15 
5 *203:21 *203:25 3.02429 
6 *203:25 *693:B 23 
7 *203:25 *203:34 8.74143 
8 *203:34 *203:42 36.1936 
9 *203:42 *739:A 23 
10 *203:34 *740:A2 23 
11 *203:21 *703:B1 24.1186 
12 *203:19 *203:63 0.673214 
13 *203:63 *203:69 17.6016 
14 *203:69 *203:75 16.4189 
15 *203:75 *203:85 35.1786 
16 *203:85 *678:B 23 
17 *203:85 *203:100 35.2821 
18 *203:100 *687:B 23 
19 *203:75 *680:A2 23 
20 *203:69 *700:A1 45.9439 
21 *203:63 *682:B 41.2004 
*END

*D_NET *204 0.00616764
*CONN
*I *703:A1 I *D sky130_fd_sc_hd__a21o_1
*I *701:A I *D sky130_fd_sc_hd__and3_1
*I *686:A I *D sky130_fd_sc_hd__nand2_1
*I *628:A I *D sky130_fd_sc_hd__inv_2
*I *680:A1 I *D sky130_fd_sc_hd__a211o_1
*I *679:A1 I *D sky130_fd_sc_hd__a211o_1
*I *683:A I *D sky130_fd_sc_hd__or2_1
*I *784:Q O *D sky130_fd_sc_hd__dfrtp_2
*CAP
1 *703:A1 0
2 *701:A 0.000158201
3 *686:A 4.8336e-05
4 *628:A 0
5 *680:A1 0
6 *679:A1 0
7 *683:A 0
8 *784:Q 3.9706e-05
9 *204:67 0.000274699
10 *204:61 0.00040989
11 *204:52 0.000165127
12 *204:41 0.000255168
13 *204:22 0.000137028
14 *204:14 0.000554592
15 *204:8 0.000341904
16 *701:A *694:A 6.82611e-05
17 *701:A *694:C_N 5.50049e-05
18 *701:A *206:18 1.22803e-05
19 *204:41 *206:35 2.75054e-05
20 *204:52 *206:35 0.000306338
21 *204:61 *206:35 2.02872e-05
22 *682:B *204:8 8.85189e-05
23 *682:B *204:14 4.16933e-05
24 *686:B *686:A 0.0002263
25 *689:A2 *701:A 6.17437e-06
26 *690:B *686:A 0.0002263
27 *696:B1 *204:41 1.30173e-06
28 *696:C1 *204:41 3.14587e-06
29 *701:C *701:A 0.000308807
30 *741:A3 *204:14 2.95125e-05
31 *748:D *204:22 5.30518e-05
32 *11:10 *204:67 8.4047e-05
33 *11:42 *701:A 1.01436e-05
34 *11:42 *204:67 7.39034e-05
35 *83:10 *204:41 5.83012e-05
36 *83:10 *204:52 9.51273e-05
37 *83:10 *204:61 5.3304e-05
38 *83:25 *204:22 0.00020892
39 *86:10 *204:22 0.000119046
40 *86:10 *204:41 3.34818e-06
41 *88:12 *204:22 3.7473e-07
42 *88:12 *204:41 2.05503e-05
43 *88:34 *204:67 2.49733e-05
44 *92:8 *701:A 1.03955e-05
45 *95:8 *701:A 0.000153208
46 *95:8 *204:67 0.000184816
47 *96:10 *204:8 1.01436e-05
48 *97:31 *204:8 3.01458e-05
49 *97:31 *204:14 1.58894e-05
50 *112:18 *204:22 9.84851e-05
51 *113:55 *204:67 6.7177e-06
52 *136:53 *204:67 0
53 *136:57 *204:14 8.80494e-05
54 *136:57 *204:41 1.40375e-05
55 *202:61 *204:14 4.93359e-05
56 *202:89 *204:22 9.67842e-05
57 *203:19 *204:14 2.05503e-05
58 *203:63 *204:14 4.01627e-05
59 *203:69 *204:14 0.000526598
60 *203:69 *204:41 0.000114363
61 *203:75 *204:52 9.67842e-05
62 *203:85 *204:52 0
*RES
1 *784:Q *204:8 39.2014 
2 *204:8 *204:14 10.4639 
3 *204:14 *204:22 27.2361 
4 *204:22 *683:A 23 
5 *204:14 *204:41 24.9781 
6 *204:41 *679:A1 23 
7 *204:41 *204:52 4.47429 
8 *204:52 *680:A1 23 
9 *204:52 *204:61 15.6214 
10 *204:61 *204:67 18.9357 
11 *204:67 *628:A 23 
12 *204:67 *686:A 25.5271 
13 *204:61 *701:A 42.785 
14 *204:8 *703:A1 38 
*END

*D_NET *205 0.00804629
*CONN
*I *685:B I *D sky130_fd_sc_hd__nand2_1
*I *702:A1 I *D sky130_fd_sc_hd__a211o_1
*I *853:A I *D sky130_fd_sc_hd__dlygate4sd3_1
*I *704:B I *D sky130_fd_sc_hd__and3_1
*I *691:A2 I *D sky130_fd_sc_hd__a31o_1
*I *679:C1 I *D sky130_fd_sc_hd__a211o_1
*I *700:D1 I *D sky130_fd_sc_hd__a2111oi_1
*I *694:A I *D sky130_fd_sc_hd__or3b_1
*I *852:A I *D sky130_fd_sc_hd__dlygate4sd3_1
*I *748:Q O *D sky130_fd_sc_hd__dfrtp_4
*CAP
1 *685:B 0.000212564
2 *702:A1 6.21539e-05
3 *853:A 1.74844e-05
4 *704:B 2.00578e-05
5 *691:A2 0.000172742
6 *679:C1 0
7 *700:D1 7.8567e-05
8 *694:A 9.02924e-05
9 *852:A 0
10 *748:Q 0.000334202
11 *205:86 7.96383e-05
12 *205:84 0.000253257
13 *205:66 0.000461307
14 *205:53 0.00035244
15 *205:43 0.000620947
16 *205:34 0.00040576
17 *205:30 0.000485944
18 *205:19 0.000332744
19 *205:10 0.000458597
20 *691:A2 *206:74 6.24959e-05
21 *694:A *694:C_N 5.3304e-05
22 *205:53 *206:35 6.33094e-05
23 *205:66 *206:66 2.64616e-05
24 *205:66 *206:70 7.88828e-05
25 *205:66 *206:74 2.9938e-05
26 *205:66 *206:105 0.00021039
27 *689:A2 *205:53 0.000164364
28 *691:B1 *691:A2 5.41288e-05
29 *695:A2 *205:53 5.3304e-05
30 *700:A1 *205:53 0.000179062
31 *700:A1 *205:66 1.78655e-05
32 *701:A *694:A 6.82611e-05
33 *701:C *694:A 1.03836e-05
34 *702:A2 *702:A1 5.50106e-05
35 *702:A2 *853:A 9.84794e-05
36 *86:10 *205:53 0.000160312
37 *87:29 *205:66 0.000141954
38 *88:12 *205:53 2.61727e-05
39 *89:12 *704:B 0
40 *89:12 *205:66 1.17152e-05
41 *92:8 *694:A 0.000267167
42 *95:8 *205:53 8.68903e-05
43 *95:8 *205:66 4.18957e-05
44 *103:8 *702:A1 3.06608e-05
45 *104:10 *205:84 0
46 *105:10 *700:D1 9.67842e-05
47 *105:10 *853:A 5.67058e-05
48 *105:10 *205:34 0.000392386
49 *112:72 *694:A 2.64616e-05
50 *112:72 *205:10 0.000268221
51 *112:72 *205:19 0.000179702
52 *113:27 *205:53 0.000181125
53 *136:53 *685:B 6.78463e-05
54 *136:53 *205:10 2.12347e-06
55 *136:53 *205:19 1.34354e-05
56 *136:53 *205:30 3.35885e-05
57 *136:53 *205:84 1.59312e-05
58 *193:10 *205:10 0
59 *195:8 *205:66 0.000187986
60 *203:100 *205:19 9.28842e-05
*RES
1 *748:Q *205:10 44.1729 
2 *205:10 *852:A 38 
3 *205:10 *205:19 3.31429 
4 *205:19 *694:A 41.0036 
5 *205:19 *205:30 1.90571 
6 *205:30 *205:34 19.9093 
7 *205:34 *700:D1 24.0979 
8 *205:34 *205:43 15 
9 *205:43 *205:53 38.8243 
10 *205:53 *679:C1 38 
11 *205:43 *205:66 22.3743 
12 *205:66 *691:A2 26.5007 
13 *205:66 *704:B 23.4971 
14 *205:30 *205:84 0.849286 
15 *205:84 *205:86 15 
16 *205:86 *853:A 24.0979 
17 *205:86 *702:A1 24.595 
18 *205:84 *685:B 42.06 
*END

*D_NET *206 0.00770343
*CONN
*I *685:A I *D sky130_fd_sc_hd__nand2_1
*I *684:A I *D sky130_fd_sc_hd__and3_1
*I *700:C1 I *D sky130_fd_sc_hd__a2111oi_1
*I *704:A I *D sky130_fd_sc_hd__and3_1
*I *691:A1 I *D sky130_fd_sc_hd__a31o_1
*I *673:A I *D sky130_fd_sc_hd__xor2_1
*I *701:B I *D sky130_fd_sc_hd__and3_1
*I *694:C_N I *D sky130_fd_sc_hd__or3b_1
*I *679:B1 I *D sky130_fd_sc_hd__a211o_1
*I *680:C1 I *D sky130_fd_sc_hd__a211o_1
*I *749:Q O *D sky130_fd_sc_hd__dfrtp_4
*CAP
1 *685:A 0
2 *684:A 2.0995e-05
3 *700:C1 0
4 *704:A 0
5 *691:A1 0
6 *673:A 0
7 *701:B 0.000141989
8 *694:C_N 1.9139e-05
9 *679:B1 0
10 *680:C1 1.92201e-05
11 *749:Q 0.000211328
12 *206:105 0.000188128
13 *206:82 0.000334123
14 *206:74 0.000496578
15 *206:70 0.000212251
16 *206:66 0.000342645
17 *206:64 0.000155521
18 *206:62 2.98041e-05
19 *206:35 0.000473921
20 *206:18 0.000608764
21 *206:14 0.000187293
22 *206:12 0.0003843
23 *206:10 0.000401108
24 *684:C *206:70 1.56665e-05
25 *684:C *206:74 5.50106e-05
26 *691:A2 *206:74 6.24959e-05
27 *691:B1 *206:74 9.84794e-05
28 *694:A *694:C_N 5.3304e-05
29 *696:B1 *206:35 2.45549e-06
30 *697:A2 *206:82 7.30875e-05
31 *700:A1 *206:105 8.9783e-05
32 *701:A *694:C_N 5.50049e-05
33 *701:A *206:18 1.22803e-05
34 *701:C *680:C1 6.48049e-05
35 *701:C *206:18 7.39034e-05
36 *704:C *206:74 6.25657e-05
37 *749:RESET_B *206:10 2.64616e-05
38 *11:42 *680:C1 1.14452e-05
39 *12:8 *206:82 7.81176e-05
40 *83:10 *206:35 3.55513e-05
41 *87:14 *206:82 0
42 *87:29 *206:66 8.48502e-06
43 *87:29 *206:82 0
44 *88:12 *206:35 2.77178e-05
45 *89:12 *206:10 6.7177e-06
46 *89:12 *206:12 9.43928e-05
47 *89:12 *206:14 1.62015e-05
48 *89:12 *206:66 9.67842e-05
49 *90:16 *684:A 1.14154e-05
50 *90:16 *206:64 2.18409e-05
51 *90:16 *206:66 0.000233406
52 *90:16 *206:70 9.67842e-05
53 *90:16 *206:105 6.33511e-05
54 *92:8 *701:B 0.000181125
55 *95:8 *206:14 0
56 *95:8 *206:18 1.02387e-05
57 *95:20 *206:105 2.65505e-05
58 *105:10 *206:105 9.75779e-05
59 *107:10 *206:74 5.3304e-05
60 *113:55 *680:C1 1.14452e-05
61 *136:20 *206:82 0
62 *136:22 *206:82 5.41385e-05
63 *136:53 *680:C1 2.70366e-05
64 *136:53 *206:10 0.000223043
65 *136:53 *206:12 0.000339903
66 *136:53 *206:14 8.4047e-05
67 *136:53 *206:18 5.72853e-05
68 *195:8 *206:10 0
69 *204:41 *206:35 2.75054e-05
70 *204:52 *206:35 0.000306338
71 *204:61 *206:35 2.02872e-05
72 *205:53 *206:35 6.33094e-05
73 *205:66 *206:66 2.64616e-05
74 *205:66 *206:70 7.88828e-05
75 *205:66 *206:74 2.9938e-05
76 *205:66 *206:105 0.00021039
*RES
1 *749:Q *206:10 42.5364 
2 *206:10 *206:12 4.72286 
3 *206:12 *206:14 1.20143 
4 *206:14 *206:18 2.52714 
5 *206:18 *680:C1 38.8493 
6 *206:18 *206:35 36.7114 
7 *206:35 *679:B1 38 
8 *206:14 *694:C_N 38.6214 
9 *206:12 *701:B 40.0507 
10 *206:10 *206:62 15 
11 *206:62 *206:64 0.621429 
12 *206:64 *206:66 3.00357 
13 *206:66 *206:70 2.07143 
14 *206:70 *206:74 4.32929 
15 *206:74 *206:82 36.525 
16 *206:82 *673:A 23 
17 *206:74 *691:A1 23 
18 *206:70 *704:A 23 
19 *206:66 *206:105 34.06 
20 *206:105 *700:C1 23 
21 *206:64 *684:A 23.4971 
22 *206:62 *685:A 23 
*END

*D_NET *207 0.00304545
*CONN
*I *667:A2 I *D sky130_fd_sc_hd__o211ai_1
*I *668:A2 I *D sky130_fd_sc_hd__a211o_1
*I *719:A1 I *D sky130_fd_sc_hd__mux2_1
*I *847:A I *D sky130_fd_sc_hd__dlygate4sd3_1
*I *766:Q O *D sky130_fd_sc_hd__dfrtp_1
*CAP
1 *667:A2 0
2 *668:A2 5.97994e-05
3 *719:A1 0
4 *847:A 7.84972e-05
5 *766:Q 0
6 *207:45 0.00022019
7 *207:30 0.000420921
8 *207:21 0.000518446
9 *207:6 0.000456011
10 *207:21 *210:44 0.000269775
11 *667:A1 *207:45 3.53115e-05
12 *668:A1 *668:A2 4.95081e-05
13 *674:C *847:A 7.28526e-05
14 *674:C *207:21 5.03449e-05
15 *766:RESET_B *207:45 0.000167443
16 *31:10 *207:21 9.84794e-05
17 *79:8 *668:A2 5.50049e-05
18 *79:8 *207:21 1.72202e-05
19 *79:8 *207:30 0.00022109
20 *81:18 *207:21 0.000197853
21 *115:30 *207:45 0
22 *129:27 *847:A 0
23 *129:27 *207:21 0
24 *130:17 *207:45 5.67058e-05
25 *131:21 *207:21 0
*RES
1 *766:Q *207:6 38 
2 *207:6 *847:A 39.9057 
3 *207:6 *207:21 24.9636 
4 *207:21 *719:A1 23 
5 *207:21 *207:30 3.02429 
6 *207:30 *668:A2 24.5743 
7 *207:30 *207:45 34.3086 
8 *207:45 *667:A2 23 
*END

*D_NET *208 0.00338689
*CONN
*I *720:A1 I *D sky130_fd_sc_hd__mux2_1
*I *666:B I *D sky130_fd_sc_hd__xnor2_1
*I *848:A I *D sky130_fd_sc_hd__dlygate4sd3_1
*I *767:Q O *D sky130_fd_sc_hd__dfrtp_1
*CAP
1 *720:A1 0.000335916
2 *666:B 0.000192586
3 *848:A 0
4 *767:Q 8.71949e-05
5 *208:21 0.00100579
6 *208:12 0.000558602
7 *208:8 0.000168503
8 *666:B *229:29 7.88828e-05
9 *720:A1 *211:24 5.94125e-05
10 *720:A1 *230:33 0
11 *659:A2 *720:A1 5.79559e-05
12 *720:A0 *720:A1 0.000140927
13 *787:A *720:A1 1.42006e-05
14 *38:8 *208:8 4.58924e-05
15 *115:41 *720:A1 8.29713e-05
16 *124:8 *208:21 6.40928e-05
17 *133:20 *208:8 0
18 *172:27 *666:B 6.80231e-05
19 *172:27 *720:A1 0.000123428
20 *172:41 *208:12 5.12328e-05
21 *172:41 *208:21 6.23522e-05
22 *187:8 *720:A1 0.000188916
*RES
1 *767:Q *208:8 39.9057 
2 *208:8 *208:12 16.5743 
3 *208:12 *848:A 23 
4 *208:12 *208:21 23.2443 
5 *208:21 *666:B 42.1843 
6 *208:21 *720:A1 46.0579 
*END

*D_NET *209 0.000740217
*CONN
*I *834:A I *D sky130_fd_sc_hd__dlygate4sd3_1
*I *665:B I *D sky130_fd_sc_hd__xor2_1
*I *768:Q O *D sky130_fd_sc_hd__dfrtp_1
*CAP
1 *834:A 0
2 *665:B 0
3 *768:Q 0.0001369
4 *209:12 0.000144259
5 *209:6 0.000281159
6 *133:8 *209:6 0.000177899
7 *133:18 *209:12 0
*RES
1 *768:Q *209:6 26.48 
2 *209:6 *209:12 32.61 
3 *209:12 *665:B 23 
4 *209:6 *834:A 23 
*END

*D_NET *210 0.00384417
*CONN
*I *820:A I *D sky130_fd_sc_hd__dlygate4sd3_1
*I *643:A2 I *D sky130_fd_sc_hd__a211o_1
*I *641:A2_N I *D sky130_fd_sc_hd__a2bb2o_1
*I *763:Q O *D sky130_fd_sc_hd__dfrtp_1
*CAP
1 *820:A 0
2 *643:A2 0.00027094
3 *641:A2_N 2.96906e-05
4 *763:Q 3.92298e-05
5 *210:44 0.000453056
6 *210:10 0.00048555
7 *210:6 0.000677205
8 *641:A1_N *641:A2_N 5.50049e-05
9 *660:A2 *643:A2 3.91386e-05
10 *668:B1 *643:A2 0
11 *763:RESET_B *210:44 3.46476e-05
12 *766:RESET_B *210:10 3.47781e-05
13 *786:A *643:A2 5.50049e-05
14 *31:10 *210:44 0.000114856
15 *52:10 *643:A2 0
16 *54:10 *643:A2 9.75779e-05
17 *79:8 *210:44 0.000397596
18 *115:18 *641:A2_N 9.84794e-05
19 *115:30 *643:A2 0
20 *115:30 *210:10 0
21 *129:38 *210:44 2.35393e-05
22 *130:43 *210:10 0.000118807
23 *130:56 *643:A2 7.21237e-05
24 *130:56 *210:10 1.12487e-05
25 *130:62 *643:A2 8.41336e-05
26 *131:21 *210:44 0.000133316
27 *134:21 *210:6 5.50049e-05
28 *134:21 *210:44 5.3304e-05
29 *162:14 *210:44 8.4047e-05
30 *199:16 *210:44 5.61154e-05
31 *207:21 *210:44 0.000269775
*RES
1 *763:Q *210:6 23.6214 
2 *210:6 *210:10 19.0186 
3 *210:10 *641:A2_N 39.0979 
4 *210:10 *643:A2 43.4271 
5 *210:6 *210:44 40.295 
6 *210:44 *820:A 23 
*END

*D_NET *211 0.00487043
*CONN
*I *641:B1 I *D sky130_fd_sc_hd__a2bb2o_1
*I *844:A I *D sky130_fd_sc_hd__dlygate4sd3_1
*I *642:A2 I *D sky130_fd_sc_hd__o211ai_1
*I *717:A1 I *D sky130_fd_sc_hd__mux2_1
*I *764:Q O *D sky130_fd_sc_hd__dfrtp_1
*CAP
1 *641:B1 0
2 *844:A 0
3 *642:A2 2.16901e-05
4 *717:A1 0
5 *764:Q 0.000111995
6 *211:34 0.000685768
7 *211:24 0.00130027
8 *211:14 0.000711584
9 *211:12 0.000118776
10 *211:10 0.000111995
11 *211:24 *230:33 0
12 *211:34 *230:33 5.56279e-05
13 *668:B1 *211:10 7.03766e-05
14 *717:A0 *211:34 5.56279e-05
15 *720:A0 *211:24 9.41704e-05
16 *720:A1 *211:24 5.94125e-05
17 *760:RESET_B *211:24 0.00018536
18 *760:RESET_B *211:34 0.000185368
19 *761:RESET_B *211:34 0
20 *787:A *211:24 0
21 *798:A *642:A2 3.23857e-06
22 *798:A *211:24 3.74633e-05
23 *798:A *211:34 7.26547e-05
24 *51:10 *211:34 0.000108681
25 *53:10 *211:24 1.21972e-05
26 *115:30 *211:10 0.000139647
27 *115:41 *211:14 9.17998e-05
28 *115:41 *211:24 0.000130676
29 *115:64 *211:24 0.000395686
30 *123:23 *211:24 0
31 *138:27 *211:34 0
32 *138:33 *211:24 3.64246e-05
33 *138:33 *211:34 0
34 *187:8 *211:24 4.74809e-05
35 *199:16 *211:10 2.64616e-05
*RES
1 *764:Q *211:10 40.5271 
2 *211:10 *211:12 15 
3 *211:12 *211:14 2.05071 
4 *211:14 *211:24 42.4907 
5 *211:24 *211:34 43.3814 
6 *211:34 *717:A1 23 
7 *211:24 *642:A2 23.4971 
8 *211:14 *844:A 23 
9 *211:12 *641:B1 23 
*END

*D_NET *212 0.003166
*CONN
*I *839:A I *D sky130_fd_sc_hd__dlygate4sd3_1
*I *640:B I *D sky130_fd_sc_hd__xnor2_1
*I *718:A1 I *D sky130_fd_sc_hd__mux2_1
*I *765:Q O *D sky130_fd_sc_hd__dfrtp_1
*CAP
1 *839:A 0
2 *640:B 0.000214471
3 *718:A1 0
4 *765:Q 0
5 *212:25 0.000479499
6 *212:14 0.000516959
7 *212:4 0.000781987
8 *212:14 *648:B 6.95665e-05
9 *212:14 *215:8 6.7177e-06
10 *718:A0 *212:14 0.000139346
11 *765:RESET_B *212:14 4.19048e-05
12 *765:RESET_B *212:25 3.64736e-05
13 *125:10 *212:25 6.11286e-05
14 *125:14 *640:B 7.31082e-05
15 *125:14 *212:25 4.21594e-06
16 *125:20 *640:B 0.00010655
17 *132:51 *212:14 0.000167443
18 *132:53 *640:B 0
19 *132:53 *212:14 0.000354778
20 *132:53 *212:25 0
21 *132:123 *212:14 0.000111852
22 *135:28 *212:25 0
*RES
1 *765:Q *212:4 23 
2 *212:4 *212:14 41.3929 
3 *212:14 *718:A1 23 
4 *212:4 *212:25 20.2407 
5 *212:25 *640:B 43.0129 
6 *212:25 *839:A 38 
*END

*D_NET *213 0.00148886
*CONN
*I *650:A2 I *D sky130_fd_sc_hd__o211ai_1
*I *824:A I *D sky130_fd_sc_hd__dlygate4sd3_1
*I *651:A2 I *D sky130_fd_sc_hd__a211o_1
*I *760:Q O *D sky130_fd_sc_hd__dfrtp_1
*CAP
1 *650:A2 0.000157064
2 *824:A 5.33761e-05
3 *651:A2 0
4 *760:Q 0.000166219
5 *213:12 5.33761e-05
6 *213:10 0.000323283
7 *651:A1 *824:A 9.41704e-05
8 *760:RESET_B *213:10 0.00010018
9 *3:13 *650:A2 0.00015795
10 *3:13 *213:10 0.000136486
11 *61:8 *650:A2 0
12 *61:8 *213:10 0
13 *71:10 *213:10 0
14 *75:24 *650:A2 5.50049e-05
15 *131:23 *824:A 5.50106e-05
16 *138:65 *824:A 0.000136743
17 *159:23 *213:10 0
*RES
1 *760:Q *213:10 41.0036 
2 *213:10 *213:12 15 
3 *213:12 *651:A2 23 
4 *213:12 *824:A 24.5743 
5 *213:10 *650:A2 40.8793 
*END

*D_NET *214 0.00358002
*CONN
*I *714:A1 I *D sky130_fd_sc_hd__mux2_1
*I *649:B I *D sky130_fd_sc_hd__xnor2_1
*I *841:A I *D sky130_fd_sc_hd__dlygate4sd3_1
*I *761:Q O *D sky130_fd_sc_hd__dfrtp_1
*CAP
1 *714:A1 0.00019663
2 *649:B 6.44133e-05
3 *841:A 4.24211e-05
4 *761:Q 0.000218326
5 *214:19 0.000371042
6 *214:8 0.000370745
7 *714:A1 *231:31 6.356e-05
8 *214:8 *231:31 7.8085e-05
9 *214:19 *231:31 7.73301e-05
10 *649:A *649:B 0.000181794
11 *714:A0 *714:A1 0.000270659
12 *718:S *714:A1 0.000102389
13 *731:S *214:8 8.62783e-05
14 *43:8 *214:8 0.000138718
15 *59:6 *649:B 6.8137e-05
16 *60:8 *649:B 5.3304e-05
17 *123:23 *214:8 9.27917e-05
18 *132:47 *714:A1 1.21972e-05
19 *196:10 *214:8 1.01436e-05
20 *196:10 *214:19 0.000185104
21 *196:12 *214:8 0.000485221
22 *196:47 *714:A1 0.000175612
23 *196:47 *214:19 5.94125e-05
24 *196:51 *714:A1 0.000140927
25 *196:73 *714:A1 3.47781e-05
*RES
1 *761:Q *214:8 45.54 
2 *214:8 *841:A 38.6214 
3 *214:8 *214:19 3.31429 
4 *214:19 *649:B 40.0507 
5 *214:19 *714:A1 43.9657 
*END

*D_NET *215 0.00102967
*CONN
*I *831:A I *D sky130_fd_sc_hd__dlygate4sd3_1
*I *648:B I *D sky130_fd_sc_hd__xor2_1
*I *762:Q O *D sky130_fd_sc_hd__dfrtp_1
*CAP
1 *831:A 7.79085e-05
2 *648:B 0.000188236
3 *762:Q 9.61601e-05
4 *215:8 0.000362304
5 *718:S *831:A 0.000185434
6 *132:123 *215:8 0
7 *135:28 *648:B 0
8 *135:28 *215:8 0
9 *173:19 *215:8 4.334e-05
10 *179:8 *215:8 0
11 *212:14 *648:B 6.95665e-05
12 *212:14 *215:8 6.7177e-06
*RES
1 *762:Q *215:8 39.9057 
2 *215:8 *648:B 41.5836 
3 *215:8 *831:A 40.0507 
*END

*D_NET *216 0.00269904
*CONN
*I *825:A I *D sky130_fd_sc_hd__dlygate4sd3_1
*I *637:A2_N I *D sky130_fd_sc_hd__a2bb2o_1
*I *639:A2 I *D sky130_fd_sc_hd__a211o_1
*I *756:Q O *D sky130_fd_sc_hd__dfrtp_1
*CAP
1 *825:A 0
2 *637:A2_N 0
3 *639:A2 0
4 *756:Q 0.000244033
5 *216:24 0.000227371
6 *216:14 0.000319964
7 *216:12 9.25921e-05
8 *216:10 0.000244033
9 *639:A1 *216:24 0.000205883
10 *639:B1 *216:24 7.15126e-05
11 *711:S *216:10 5.01247e-05
12 *756:RESET_B *216:10 0.000166513
13 *756:RESET_B *216:24 0
14 *3:13 *216:24 9.20311e-06
15 *115:99 *216:14 0.000249708
16 *115:118 *216:24 0.000188926
17 *120:8 *216:24 6.7177e-06
18 *129:76 *216:24 0.000301084
19 *130:97 *216:14 0.000268074
20 *197:8 *216:10 5.3304e-05
*RES
1 *756:Q *216:10 42.3086 
2 *216:10 *216:12 15 
3 *216:12 *216:14 3.48 
4 *216:14 *216:24 36.4629 
5 *216:24 *639:A2 23 
6 *216:14 *637:A2_N 23 
7 *216:12 *825:A 23 
*END

*D_NET *217 0.00254799
*CONN
*I *638:A2 I *D sky130_fd_sc_hd__o211ai_1
*I *637:B1 I *D sky130_fd_sc_hd__a2bb2o_1
*I *836:A I *D sky130_fd_sc_hd__dlygate4sd3_1
*I *757:Q O *D sky130_fd_sc_hd__dfrtp_1
*CAP
1 *638:A2 0
2 *637:B1 0
3 *836:A 2.34823e-05
4 *757:Q 0.000210998
5 *217:25 0.000424114
6 *217:19 0.000493397
7 *217:8 0.000303763
8 *217:25 *638:B1 6.07611e-06
9 *650:C1 *217:25 0
10 *754:CLK *217:8 0.000201109
11 *754:CLK *217:19 0.000128391
12 *3:13 *217:25 0.000575568
13 *115:118 *217:19 3.91386e-05
14 *121:10 *217:19 0.000141954
15 *122:8 *217:25 0
*RES
1 *757:Q *217:8 27.4536 
2 *217:8 *836:A 23.4971 
3 *217:8 *217:19 3.02429 
4 *217:19 *217:25 37.8921 
5 *217:25 *637:B1 23 
6 *217:19 *638:A2 23 
*END

*D_NET *218 0.00282695
*CONN
*I *833:A I *D sky130_fd_sc_hd__dlygate4sd3_1
*I *636:B I *D sky130_fd_sc_hd__xnor2_1
*I *758:Q O *D sky130_fd_sc_hd__dfrtp_1
*CAP
1 *833:A 0.000390179
2 *636:B 0
3 *758:Q 0
4 *218:18 0.000669074
5 *218:6 0.00105925
6 *755:CLK *218:18 7.00283e-05
7 *755:D *218:18 6.17437e-06
8 *758:RESET_B *833:A 0
9 *803:A *218:18 7.28226e-05
10 *24:8 *833:A 7.55832e-05
11 *24:8 *218:18 3.04062e-05
12 *119:10 *218:18 3.72951e-05
13 *132:123 *218:18 0.000321966
14 *135:8 *218:18 9.41704e-05
15 *173:19 *833:A 0
16 *175:10 *833:A 0
*RES
1 *758:Q *218:6 38 
2 *218:6 *218:18 28.5471 
3 *218:18 *636:B 23 
4 *218:6 *833:A 45.5814 
*END

*D_NET *219 0.00452149
*CONN
*I *646:A2 I *D sky130_fd_sc_hd__o211ai_1
*I *647:A2 I *D sky130_fd_sc_hd__a211o_1
*I *846:A I *D sky130_fd_sc_hd__dlygate4sd3_1
*I *707:A1 I *D sky130_fd_sc_hd__mux2_1
*I *753:Q O *D sky130_fd_sc_hd__dfrtp_1
*CAP
1 *646:A2 0
2 *647:A2 0.000242914
3 *846:A 8.17198e-05
4 *707:A1 0.000226051
5 *753:Q 0
6 *219:53 0.000298502
7 *219:32 0.000629273
8 *219:21 0.000330289
9 *219:6 0.000386764
10 *707:A1 *222:20 0.000111852
11 *219:53 *708:A1 4.39488e-05
12 *646:A1 *219:53 5.50106e-05
13 *647:B1 *647:A2 8.13415e-05
14 *710:A0 *846:A 6.17437e-06
15 *750:RESET_B *219:21 5.30518e-05
16 *57:8 *219:53 4.21594e-06
17 *64:8 *707:A1 3.01561e-05
18 *64:8 *219:21 1.14452e-05
19 *75:10 *846:A 9.50411e-05
20 *75:10 *219:21 0.000164291
21 *115:99 *647:A2 0.00011277
22 *123:45 *707:A1 0.000313399
23 *123:45 *219:21 5.96687e-05
24 *123:45 *219:32 9.03157e-05
25 *123:45 *219:53 7.65883e-06
26 *127:20 *707:A1 0.000185434
27 *130:97 *647:A2 6.64204e-05
28 *137:45 *219:21 8.57765e-05
29 *137:45 *219:32 9.39159e-05
30 *137:45 *219:53 7.56417e-05
31 *164:14 *707:A1 0.00010018
32 *197:45 *846:A 0.00026808
33 *199:67 *647:A2 5.50049e-05
34 *199:67 *219:53 0.000155184
*RES
1 *753:Q *219:6 38 
2 *219:6 *707:A1 44.4214 
3 *219:6 *219:21 4.64 
4 *219:21 *846:A 41.0036 
5 *219:21 *219:32 2.61 
6 *219:32 *647:A2 43.8829 
7 *219:32 *219:53 35.1579 
8 *219:53 *646:A2 38 
*END

*D_NET *220 0.00265957
*CONN
*I *838:A I *D sky130_fd_sc_hd__dlygate4sd3_1
*I *708:A1 I *D sky130_fd_sc_hd__mux2_1
*I *645:B I *D sky130_fd_sc_hd__xnor2_1
*I *754:Q O *D sky130_fd_sc_hd__dfrtp_1
*CAP
1 *838:A 0
2 *708:A1 0.000291136
3 *645:B 0.00011394
4 *754:Q 0.000200443
5 *220:14 0.00054369
6 *220:10 0.000339056
7 *220:10 *233:21 8.51225e-05
8 *220:14 *233:21 9.53499e-05
9 *645:A *645:B 3.91386e-05
10 *646:A1 *645:B 9.84851e-05
11 *646:A1 *708:A1 0.000181381
12 *646:C1 *645:B 7.88828e-05
13 *646:C1 *708:A1 3.52912e-05
14 *780:RESET_B *708:A1 0.000272383
15 *129:64 *220:14 0
16 *129:89 *220:10 0
17 *129:89 *220:14 0
18 *132:37 *220:10 5.47808e-05
19 *199:67 *645:B 5.29672e-05
20 *199:67 *708:A1 0.000133575
21 *199:67 *220:14 0
22 *219:53 *708:A1 4.39488e-05
*RES
1 *754:Q *220:10 41.8321 
2 *220:10 *220:14 17.9621 
3 *220:14 *645:B 26.5007 
4 *220:14 *708:A1 31.41 
5 *220:10 *838:A 38 
*END

*D_NET *221 0.00577362
*CONN
*I *709:A1 I *D sky130_fd_sc_hd__mux2_1
*I *644:B I *D sky130_fd_sc_hd__xor2_1
*I *843:A I *D sky130_fd_sc_hd__dlygate4sd3_1
*I *755:Q O *D sky130_fd_sc_hd__dfrtp_1
*CAP
1 *709:A1 0
2 *644:B 0
3 *843:A 0
4 *755:Q 0.000130328
5 *221:34 0.000430676
6 *221:21 0.00127793
7 *221:12 0.000386706
8 *221:6 0.00136429
9 *221:34 *233:21 8.16356e-05
10 *644:A *221:21 8.82787e-05
11 *733:S *221:21 4.5051e-05
12 *752:CLK *221:34 0.000185207
13 *752:D *221:34 8.1796e-05
14 *752:RESET_B *221:34 0.000140949
15 *778:RESET_B *221:12 0.000346842
16 *44:10 *221:12 9.21347e-06
17 *119:10 *221:6 1.28774e-05
18 *119:10 *221:21 8.06804e-06
19 *149:18 *221:21 0.000567984
20 *151:10 *221:12 0
21 *152:14 *221:21 9.24795e-06
22 *152:14 *221:34 8.1796e-05
23 *185:8 *221:12 0
24 *196:73 *221:12 9.10649e-05
25 *196:79 *221:21 6.70749e-05
26 *196:97 *221:12 0.000358846
27 *197:125 *221:34 7.76364e-06
*RES
1 *755:Q *221:6 24.5743 
2 *221:6 *221:12 39.3007 
3 *221:12 *843:A 23 
4 *221:6 *221:21 13.3814 
5 *221:21 *644:B 23 
6 *221:21 *221:34 40.9786 
7 *221:34 *709:A1 23 
*END

*D_NET *222 0.00543979
*CONN
*I *653:A2_N I *D sky130_fd_sc_hd__a2bb2o_1
*I *675:A1 I *D sky130_fd_sc_hd__mux2_1
*I *822:A I *D sky130_fd_sc_hd__dlygate4sd3_1
*I *655:A2 I *D sky130_fd_sc_hd__a211o_1
*I *750:Q O *D sky130_fd_sc_hd__dfrtp_1
*CAP
1 *653:A2_N 0.000147218
2 *675:A1 0
3 *822:A 0.000436804
4 *655:A2 0
5 *750:Q 8.81957e-05
6 *222:46 0.000260709
7 *222:29 0.00101048
8 *222:20 0.000169089
9 *222:6 0.000717475
10 *653:A2_N *223:28 5.3304e-05
11 *653:B2 *653:A2_N 5.3304e-05
12 *655:A1 *222:20 5.0554e-05
13 *655:B1 *222:20 0.000133842
14 *707:A1 *222:20 0.000111852
15 *707:S *822:A 0.000244526
16 *707:S *222:46 0.000128583
17 *743:CLK *653:A2_N 0.00022109
18 *750:RESET_B *222:20 1.37246e-05
19 *64:8 *222:20 5.94125e-05
20 *65:16 *653:A2_N 0.000126046
21 *127:44 *222:29 0.000116554
22 *131:47 *222:20 3.22879e-05
23 *131:57 *222:20 0.000256855
24 *131:78 *653:A2_N 0.000112592
25 *138:65 *222:6 9.41704e-05
26 *138:65 *222:20 0.000112463
27 *138:65 *222:29 0.000167358
28 *138:73 *222:29 2.03764e-06
29 *156:8 *653:A2_N 3.80961e-05
30 *164:14 *822:A 0.00031495
31 *165:10 *822:A 0.000154769
32 *197:57 *222:46 1.14452e-05
33 *200:19 *822:A 0
34 *200:19 *222:46 0
*RES
1 *750:Q *222:6 24.0979 
2 *222:6 *222:20 36.525 
3 *222:20 *655:A2 23 
4 *222:6 *222:29 20.8621 
5 *222:29 *822:A 48.15 
6 *222:29 *222:46 16.9057 
7 *222:46 *675:A1 23 
8 *222:46 *653:A2_N 27.4536 
*END

*D_NET *223 0.00478954
*CONN
*I *654:A2 I *D sky130_fd_sc_hd__o211ai_1
*I *826:A I *D sky130_fd_sc_hd__dlygate4sd3_1
*I *676:A1 I *D sky130_fd_sc_hd__mux2_1
*I *653:B1 I *D sky130_fd_sc_hd__a2bb2o_1
*I *751:Q O *D sky130_fd_sc_hd__dfrtp_1
*CAP
1 *654:A2 0
2 *826:A 0
3 *676:A1 5.50887e-05
4 *653:B1 0
5 *751:Q 0.00010264
6 *223:59 0.000385538
7 *223:28 0.000408315
8 *223:18 0.000721496
9 *223:10 0.000383307
10 *223:6 0.000613394
11 *653:A2_N *223:28 5.3304e-05
12 *664:C1 *676:A1 9.5877e-05
13 *664:C1 *223:28 9.41704e-05
14 *707:S *223:28 4.6318e-06
15 *735:S *223:59 1.39431e-05
16 *13:10 *223:18 0.000243587
17 *63:10 *223:59 5.79715e-05
18 *63:22 *223:59 1.05569e-05
19 *65:16 *223:28 5.50106e-05
20 *75:10 *223:28 0.00014196
21 *115:131 *223:10 0
22 *115:131 *223:59 2.01531e-05
23 *132:22 *223:59 8.80821e-05
24 *157:10 *223:18 0.000187996
25 *197:45 *223:28 0.000112685
26 *197:57 *223:28 1.6873e-05
27 *197:81 *223:28 4.5051e-05
28 *197:94 *223:10 6.28591e-05
29 *197:94 *223:18 9.71093e-05
30 *197:98 *223:6 1.85916e-05
31 *197:98 *223:59 3.46673e-05
32 *199:57 *223:28 0.000184825
33 *200:19 *223:10 0.000290903
34 *200:19 *223:18 0.000188951
35 *200:19 *223:59 0
*RES
1 *751:Q *223:6 24.0979 
2 *223:6 *223:10 19.0186 
3 *223:10 *223:18 21.8979 
4 *223:18 *223:28 38.6171 
5 *223:28 *653:B1 23 
6 *223:18 *676:A1 24.0979 
7 *223:10 *826:A 38 
8 *223:6 *223:59 36.1521 
9 *223:59 *654:A2 23 
*END

*D_NET *224 0.00295422
*CONN
*I *677:A1 I *D sky130_fd_sc_hd__mux2_1
*I *828:A I *D sky130_fd_sc_hd__dlygate4sd3_1
*I *652:B I *D sky130_fd_sc_hd__xnor2_1
*I *752:Q O *D sky130_fd_sc_hd__dfrtp_1
*CAP
1 *677:A1 0.000115073
2 *828:A 0
3 *652:B 0.000141721
4 *752:Q 5.43738e-05
5 *224:25 0.000467142
6 *224:8 0.000548164
7 *652:B *233:21 0
8 *224:25 *233:21 0
9 *677:S *677:A1 0.000272383
10 *677:S *224:25 0
11 *744:CLK *224:25 0.000125413
12 *127:123 *652:B 0.000133316
13 *127:123 *224:25 0.000142818
14 *129:89 *652:B 0.000270682
15 *132:22 *652:B 0.000272383
16 *137:10 *224:25 2.04774e-05
17 *145:6 *677:A1 5.67058e-05
18 *146:10 *224:25 0
19 *170:8 *224:25 6.57551e-05
20 *197:125 *224:8 2.64616e-05
21 *197:125 *224:25 0.000241355
*RES
1 *752:Q *224:8 38.6214 
2 *224:8 *652:B 42.9093 
3 *224:8 *224:25 23.5343 
4 *224:25 *828:A 23 
5 *224:25 *677:A1 26.48 
*END

*D_NET *225 0.00449683
*CONN
*I *663:A2 I *D sky130_fd_sc_hd__o211ai_1
*I *664:A2 I *D sky130_fd_sc_hd__a211o_1
*I *814:A I *D sky130_fd_sc_hd__dlygate4sd3_1
*I *742:Q O *D sky130_fd_sc_hd__dfrtp_1
*CAP
1 *663:A2 0.000107532
2 *664:A2 0
3 *814:A 0.000255135
4 *742:Q 0.000162651
5 *225:31 0.000776007
6 *225:23 0.00107862
7 *225:10 0.00061287
8 *663:A2 *662:B 8.4047e-05
9 *225:23 *662:B 5.33597e-05
10 *225:23 *226:10 0.000165593
11 *663:C1 *663:A2 5.3304e-05
12 *664:C1 *225:31 9.7001e-05
13 *742:RESET_B *225:10 2.54193e-05
14 *14:10 *225:31 0.000210133
15 *65:16 *663:A2 0
16 *65:16 *225:10 0
17 *65:16 *225:23 0
18 *131:78 *225:31 1.14452e-05
19 *131:93 *225:31 7.79942e-05
20 *136:16 *225:23 0
21 *138:81 *814:A 0.000145611
22 *138:81 *225:10 0.000111852
23 *138:81 *225:23 6.16531e-05
24 *156:8 *814:A 0.000182826
25 *197:45 *225:31 9.5877e-05
26 *197:81 *225:31 0.000101436
27 *197:94 *225:31 2.64616e-05
28 *199:57 *225:31 0
*RES
1 *742:Q *225:10 40.6514 
2 *225:10 *814:A 43.4064 
3 *225:10 *225:23 4.37071 
4 *225:23 *225:31 41.3514 
5 *225:31 *664:A2 38 
6 *225:23 *663:A2 39.8229 
*END

*D_NET *226 0.00186639
*CONN
*I *662:B I *D sky130_fd_sc_hd__xnor2_1
*I *856:A I *D sky130_fd_sc_hd__dlygate4sd3_1
*I *743:Q O *D sky130_fd_sc_hd__dfrtp_1
*CAP
1 *662:B 0.00018175
2 *856:A 0.000168552
3 *743:Q 0.000164926
4 *226:10 0.000515228
5 *663:A2 *662:B 8.4047e-05
6 *663:C1 *662:B 9.84794e-05
7 *664:C1 *856:A 5.3304e-05
8 *743:RESET_B *226:10 0.00010018
9 *65:16 *662:B 0
10 *74:8 *662:B 0.000139647
11 *74:8 *226:10 3.47781e-05
12 *131:93 *662:B 0.00010655
13 *225:23 *662:B 5.33597e-05
14 *225:23 *226:10 0.000165593
*RES
1 *743:Q *226:10 41.3557 
2 *226:10 *856:A 41.0036 
3 *226:10 *662:B 43.1371 
*END

*D_NET *227 0.00173975
*CONN
*I *854:A I *D sky130_fd_sc_hd__dlygate4sd3_1
*I *661:B I *D sky130_fd_sc_hd__xor2_1
*I *744:Q O *D sky130_fd_sc_hd__dfrtp_1
*CAP
1 *854:A 0.000333701
2 *661:B 0.000247107
3 *744:Q 0
4 *227:6 0.000580808
5 *661:A *661:B 0.000327273
6 *72:8 *661:B 0.00011807
7 *132:8 *661:B 3.39231e-05
8 *132:8 *854:A 4.21594e-06
9 *132:22 *661:B 1.19796e-05
10 *200:19 *661:B 7.03869e-05
11 *200:19 *854:A 1.22803e-05
*RES
1 *744:Q *227:6 38 
2 *227:6 *661:B 45.3121 
3 *227:6 *854:A 44.1936 
*END

*D_NET *228 0.00260829
*CONN
*I *633:A I *D sky130_fd_sc_hd__inv_2
*I *812:A I *D sky130_fd_sc_hd__dlygate4sd3_1
*I *773:Q O *D sky130_fd_sc_hd__dfrtp_1
*CAP
1 *633:A 0.000432326
2 *812:A 6.52692e-05
3 *773:Q 0.000315375
4 *228:10 0.000812971
5 *729:A1 *812:A 0.000185428
6 *41:10 *812:A 3.22879e-05
7 *41:10 *228:10 0
8 *116:12 *633:A 7.53384e-06
9 *124:57 *228:10 7.73389e-05
10 *133:22 *633:A 0.000244517
11 *133:22 *228:10 0.000157309
12 *133:24 *228:10 0.000192087
13 *154:12 *633:A 0
14 *158:10 *633:A 1.94693e-05
15 *194:37 *633:A 6.63801e-05
*RES
1 *773:Q *228:10 44.2971 
2 *228:10 *812:A 40.0507 
3 *228:10 *633:A 46.7 
*END

*D_NET *229 0.00419062
*CONN
*I *667:B1 I *D sky130_fd_sc_hd__o211ai_1
*I *816:A I *D sky130_fd_sc_hd__dlygate4sd3_1
*I *774:Q O *D sky130_fd_sc_hd__dfrtp_1
*CAP
1 *667:B1 0
2 *816:A 0
3 *774:Q 0.000487829
4 *229:29 0.001006
5 *229:10 0.00149383
6 *229:10 *230:10 0
7 *229:10 *230:33 0
8 *229:29 *230:33 0
9 *666:A *229:29 0.000223698
10 *666:B *229:29 7.88828e-05
11 *667:C1 *229:29 1.76557e-05
12 *771:RESET_B *229:29 0.000311905
13 *775:RESET_B *229:10 0.00031495
14 *42:10 *229:10 2.29192e-05
15 *116:12 *229:29 8.62783e-05
16 *124:14 *229:29 4.81964e-05
17 *133:22 *229:10 0
18 *133:22 *229:29 0
19 *158:10 *229:10 0
20 *172:8 *229:29 9.84794e-05
*RES
1 *774:Q *229:10 46.2029 
2 *229:10 *816:A 38 
3 *229:10 *229:29 31.8821 
4 *229:29 *667:B1 23 
*END

*D_NET *230 0.00421688
*CONN
*I *642:B1 I *D sky130_fd_sc_hd__o211ai_1
*I *817:A I *D sky130_fd_sc_hd__dlygate4sd3_1
*I *775:Q O *D sky130_fd_sc_hd__dfrtp_1
*CAP
1 *642:B1 0
2 *817:A 2.63285e-05
3 *775:Q 0.000321126
4 *230:33 0.00109762
5 *230:10 0.00144508
6 *230:10 *818:A 0.000144501
7 *230:10 *237:8 3.70187e-05
8 *659:C1 *230:33 0
9 *720:A1 *230:33 0
10 *764:CLK *230:33 0.000128574
11 *798:A *230:33 5.56279e-05
12 *32:8 *230:33 0.000125332
13 *51:10 *230:33 6.07611e-06
14 *115:64 *230:33 1.0417e-05
15 *116:12 *230:33 0
16 *124:14 *230:33 0.000275482
17 *159:12 *817:A 5.40337e-05
18 *159:12 *230:10 0
19 *159:12 *230:33 0
20 *172:74 *230:33 0.000192087
21 *194:22 *817:A 0.000100069
22 *194:93 *230:33 0.000141888
23 *211:24 *230:33 0
24 *211:34 *230:33 5.56279e-05
25 *229:10 *230:10 0
26 *229:10 *230:33 0
27 *229:29 *230:33 0
*RES
1 *775:Q *230:10 43.7171 
2 *230:10 *817:A 39.0979 
3 *230:10 *230:33 37.0193 
4 *230:33 *642:B1 23 
*END

*D_NET *231 0.00518498
*CONN
*I *650:B1 I *D sky130_fd_sc_hd__o211ai_1
*I *732:A1 I *D sky130_fd_sc_hd__mux2_1
*I *819:A I *D sky130_fd_sc_hd__dlygate4sd3_1
*I *776:Q O *D sky130_fd_sc_hd__dfrtp_1
*CAP
1 *650:B1 0.000217146
2 *732:A1 0
3 *819:A 0.000165608
4 *776:Q 7.06613e-05
5 *231:31 0.000969147
6 *231:12 0.00120339
7 *231:6 0.000356444
8 *650:C1 *650:B1 5.50106e-05
9 *670:A *650:B1 0.000138444
10 *714:A1 *231:31 6.356e-05
11 *760:RESET_B *819:A 9.58714e-05
12 *776:D *231:6 5.3304e-05
13 *53:10 *819:A 5.25848e-05
14 *59:16 *231:31 0
15 *71:10 *819:A 0.000346225
16 *71:10 *231:31 8.94487e-05
17 *75:24 *650:B1 0.000199112
18 *75:24 *231:12 2.3853e-05
19 *81:10 *650:B1 0.000181125
20 *81:10 *231:6 5.61255e-06
21 *81:10 *231:31 1.4471e-05
22 *119:16 *231:31 0
23 *123:23 *819:A 0.000346225
24 *123:23 *231:31 0.000231212
25 *149:18 *231:31 3.70187e-05
26 *178:8 *231:31 0.000114092
27 *196:73 *231:31 0
28 *214:8 *231:31 7.8085e-05
29 *214:19 *231:31 7.73301e-05
*RES
1 *776:Q *231:6 24.0979 
2 *231:6 *231:12 16.1186 
3 *231:12 *819:A 43.8207 
4 *231:12 *231:31 33.5186 
5 *231:31 *732:A1 23 
6 *231:6 *650:B1 29.2764 
*END

*D_NET *232 0.00190106
*CONN
*I *808:A I *D sky130_fd_sc_hd__dlygate4sd3_1
*I *638:B1 I *D sky130_fd_sc_hd__o211ai_1
*I *777:Q O *D sky130_fd_sc_hd__dfrtp_1
*CAP
1 *808:A 0.000263229
2 *638:B1 0.000236733
3 *777:Q 0.00020983
4 *232:8 0.000709792
5 *778:CLK *232:8 2.30292e-05
6 *778:RESET_B *232:8 7.05707e-05
7 *3:13 *638:B1 6.83697e-05
8 *45:10 *638:B1 3.83778e-05
9 *45:10 *808:A 1.37349e-05
10 *119:16 *638:B1 0.000261317
11 *149:8 *808:A 0
12 *149:18 *638:B1 0
13 *217:25 *638:B1 6.07611e-06
*RES
1 *777:Q *232:8 41.0036 
2 *232:8 *638:B1 43.075 
3 *232:8 *808:A 42.7643 
*END

*D_NET *233 0.0025707
*CONN
*I *646:B1 I *D sky130_fd_sc_hd__o211ai_1
*I *810:A I *D sky130_fd_sc_hd__dlygate4sd3_1
*I *778:Q O *D sky130_fd_sc_hd__dfrtp_1
*CAP
1 *646:B1 0
2 *810:A 0
3 *778:Q 0.000162789
4 *233:21 0.000667315
5 *233:8 0.000830104
6 *652:B *233:21 0
7 *778:RESET_B *233:8 1.37232e-05
8 *20:8 *233:21 0
9 *21:10 *233:21 5.47808e-05
10 *129:89 *233:21 0
11 *137:10 *233:21 1.4471e-05
12 *137:43 *233:21 0
13 *138:114 *233:8 0.000185428
14 *152:33 *233:8 0.000121733
15 *152:33 *233:21 0.000258245
16 *169:10 *233:21 0
17 *171:8 *233:21 0
18 *199:67 *233:21 0
19 *220:10 *233:21 8.51225e-05
20 *220:14 *233:21 9.53499e-05
21 *221:34 *233:21 8.16356e-05
22 *224:25 *233:21 0
*RES
1 *778:Q *233:8 27.4536 
2 *233:8 *810:A 23 
3 *233:8 *233:21 44.065 
4 *233:21 *646:B1 23 
*END

*D_NET *234 0.00135359
*CONN
*I *654:B1 I *D sky130_fd_sc_hd__o211ai_1
*I *735:A1 I *D sky130_fd_sc_hd__mux2_1
*I *813:A I *D sky130_fd_sc_hd__dlygate4sd3_1
*I *779:Q O *D sky130_fd_sc_hd__dfrtp_1
*CAP
1 *654:B1 0
2 *735:A1 0.000188637
3 *813:A 0
4 *779:Q 0
5 *234:21 0.000379438
6 *234:10 9.00957e-05
7 *234:4 0.000280897
8 *63:10 *234:21 9.84794e-05
9 *63:22 *735:A1 1.83667e-05
10 *63:22 *234:21 4.09683e-05
11 *65:16 *735:A1 8.62876e-05
12 *115:131 *735:A1 3.04021e-05
13 *132:22 *234:10 7.66316e-05
14 *132:22 *234:21 0
15 *143:10 *735:A1 5.34928e-05
16 *144:10 *735:A1 9.8971e-06
*RES
1 *779:Q *234:4 23 
2 *234:4 *234:10 31.9057 
3 *234:10 *813:A 23 
4 *234:4 *234:21 18.2521 
5 *234:21 *735:A1 41.48 
6 *234:21 *654:B1 38 
*END

*D_NET *235 0.00107636
*CONN
*I *840:A I *D sky130_fd_sc_hd__dlygate4sd3_1
*I *663:B1 I *D sky130_fd_sc_hd__o211ai_1
*I *780:Q O *D sky130_fd_sc_hd__dfrtp_1
*CAP
1 *840:A 0.000255812
2 *663:B1 0.000266225
3 *780:Q 0
4 *235:6 0.000522037
5 *663:C1 *663:B1 3.22879e-05
*RES
1 *780:Q *235:6 38 
2 *235:6 *663:B1 43.2407 
3 *235:6 *840:A 42.4329 
*END

*D_NET *236 0.000658399
*CONN
*I *807:A I *D sky130_fd_sc_hd__dlygate4sd3_1
*I *759:Q O *D sky130_fd_sc_hd__dfrtp_1
*CAP
1 *807:A 0
2 *759:Q 0.000263547
3 *236:6 0.000263547
4 *140:10 *236:6 0.000131304
*RES
1 *759:Q *236:6 28.8621 
2 *236:6 *807:A 23 
*END

*D_NET *237 0.000900643
*CONN
*I *818:A I *D sky130_fd_sc_hd__dlygate4sd3_1
*I *769:Q O *D sky130_fd_sc_hd__dfrtp_1
*CAP
1 *818:A 8.35492e-05
2 *769:Q 0.000276012
3 *237:8 0.000359561
4 *230:10 *818:A 0.000144501
5 *230:10 *237:8 3.70187e-05
*RES
1 *769:Q *237:8 42.7229 
2 *237:8 *818:A 40.0507 
*END

*D_NET *238 0.000525233
*CONN
*I *829:A I *D sky130_fd_sc_hd__dlygate4sd3_1
*I *781:Q O *D sky130_fd_sc_hd__dfrtp_1
*CAP
1 *829:A 0.00010288
2 *781:Q 8.48407e-05
3 *238:8 0.000187721
4 *672:B *238:8 0.000139647
5 *10:10 *238:8 0
6 *141:8 *238:8 1.01436e-05
*RES
1 *781:Q *238:8 39.9057 
2 *238:8 *829:A 39.5743 
*END

*D_NET *239 0.0014745
*CONN
*I *674:A I *D sky130_fd_sc_hd__and3_1
*I *785:Q O *D sky130_fd_sc_hd__dfrtp_1
*CAP
1 *674:A 0
2 *785:Q 0.000536235
3 *239:10 0.000536235
4 *117:19 *239:10 0.000201109
5 *117:25 *239:10 0
6 *192:22 *239:10 6.63801e-05
7 *198:10 *239:10 9.74235e-05
8 *201:12 *239:10 3.71198e-05
*RES
1 *785:Q *239:10 47.28 
2 *239:10 *674:A 38 
*END
