*SPEF "ieee 1481-1999"
*DESIGN "rng_top"
*DATE "13:29:11 Tuesday February 17, 2026"
*VENDOR "The OpenROAD Project"
*PROGRAM "OpenROAD"
*VERSION "edf00dff99f6c40d67a30c0e22a8191c5d2ed9d6"
*DESIGN_FLOW "NAME_SCOPE LOCAL" "PIN_CAP NONE"
*DIVIDER /
*DELIMITER :
*BUS_DELIMITER []
*T_UNIT 1 NS
*C_UNIT 1 PF
*R_UNIT 1 OHM
*L_UNIT 1 HENRY

*NAME_MAP
*3 clk_i
*4 num_to_send_o[0]
*5 num_to_send_o[1]
*6 num_to_send_o[2]
*7 req_num_i
*8 rst_i
*9 wr_i
*10 _000_
*11 _001_
*12 _002_
*13 _003_
*14 _004_
*15 _005_
*16 _006_
*17 _007_
*18 _008_
*19 _009_
*20 _010_
*21 _011_
*22 _012_
*23 _013_
*24 _014_
*25 _015_
*26 _016_
*27 _017_
*28 _018_
*29 _019_
*30 _020_
*31 _021_
*32 _022_
*33 _023_
*34 _024_
*35 _025_
*36 _026_
*37 _027_
*38 _028_
*39 _029_
*40 _030_
*41 _031_
*42 _032_
*43 _033_
*44 _034_
*45 _035_
*46 _036_
*47 _037_
*48 _038_
*49 _039_
*50 _040_
*51 _041_
*52 _042_
*53 _043_
*54 _044_
*55 _045_
*56 _046_
*57 _047_
*58 _048_
*59 _049_
*60 _050_
*61 _051_
*62 _052_
*63 _053_
*64 _054_
*65 _055_
*66 _056_
*67 _057_
*68 _058_
*69 _059_
*70 _060_
*71 _061_
*72 _062_
*73 _063_
*74 _064_
*75 _065_
*76 _066_
*77 _067_
*78 _068_
*79 _069_
*80 _070_
*81 _071_
*82 _072_
*83 _073_
*84 _074_
*85 _075_
*86 _076_
*87 _077_
*88 _078_
*89 _079_
*90 _080_
*91 _081_
*92 _082_
*93 _083_
*94 _084_
*95 _085_
*96 _086_
*97 _087_
*98 _088_
*99 _089_
*100 _090_
*101 _091_
*102 _092_
*103 _093_
*104 _094_
*105 _095_
*106 _096_
*107 _097_
*108 _098_
*109 _099_
*110 _100_
*111 _101_
*112 _102_
*113 _103_
*114 _104_
*115 _105_
*116 _106_
*117 _107_
*118 _108_
*119 _109_
*120 _110_
*121 _111_
*122 _112_
*123 _113_
*124 _114_
*125 _115_
*126 _116_
*127 _117_
*128 _118_
*129 _119_
*130 _120_
*131 _121_
*132 _122_
*133 _123_
*134 _124_
*135 _125_
*136 _126_
*137 _127_
*138 _128_
*139 _129_
*140 _130_
*141 _131_
*142 _132_
*143 _133_
*144 _134_
*145 _135_
*146 _136_
*147 _137_
*148 _138_
*149 _139_
*150 _140_
*151 _141_
*152 _142_
*153 _143_
*154 _144_
*155 _145_
*156 _146_
*157 _147_
*158 _148_
*159 _149_
*160 _150_
*161 _151_
*162 _152_
*163 _153_
*164 _154_
*165 _155_
*166 _156_
*167 _157_
*168 _158_
*169 _159_
*170 _160_
*171 _161_
*172 _162_
*173 _163_
*174 _164_
*175 _165_
*176 clknet_0_clk_i
*177 clknet_3_0__leaf_clk_i
*178 clknet_3_1__leaf_clk_i
*179 clknet_3_2__leaf_clk_i
*180 clknet_3_3__leaf_clk_i
*181 clknet_3_4__leaf_clk_i
*182 clknet_3_5__leaf_clk_i
*183 clknet_3_6__leaf_clk_i
*184 clknet_3_7__leaf_clk_i
*185 net1
*186 net10
*187 net11
*188 net12
*189 net13
*190 net14
*191 net15
*192 net16
*193 net17
*194 net18
*195 net19
*196 net2
*197 net20
*198 net21
*199 net22
*200 net23
*201 net24
*202 net25
*203 net26
*204 net27
*205 net28
*206 net29
*207 net3
*208 net30
*209 net31
*210 net32
*211 net33
*212 net34
*213 net35
*214 net36
*215 net37
*216 net38
*217 net39
*218 net4
*219 net40
*220 net41
*221 net42
*222 net43
*223 net44
*224 net45
*225 net46
*226 net47
*227 net48
*228 net49
*229 net5
*230 net50
*231 net51
*232 net52
*233 net53
*234 net54
*235 net55
*236 net56
*237 net57
*238 net58
*239 net59
*240 net6
*241 net60
*242 net61
*243 net62
*244 net63
*245 net64
*246 net65
*247 net66
*248 net67
*249 net68
*250 net69
*251 net7
*252 net70
*253 net71
*254 net72
*255 net73
*256 net74
*257 net75
*258 net76
*259 net77
*260 net78
*261 net79
*262 net8
*263 net80
*264 net81
*265 net82
*266 net83
*267 net84
*268 net85
*269 net86
*270 net87
*271 net88
*272 net89
*273 net9
*274 net90
*275 net91
*276 net92
*277 net93
*278 net94
*279 net95
*280 net96
*281 num_i_bar\[0\]
*282 num_i_bar\[1\]
*283 num_i_bar\[2\]
*284 req_num_again
*285 rng_dp\.inst\.next_num_o\[0\]
*286 rng_dp\.inst\.next_num_o\[1\]
*287 rng_dp\.inst\.next_num_o\[2\]
*288 rng_dp\.seed_sel_i\[0\]
*289 rng_dp\.seed_sel_i\[1\]
*290 rng_rd\.mem\[10\]\[0\]
*291 rng_rd\.mem\[10\]\[1\]
*292 rng_rd\.mem\[10\]\[2\]
*293 rng_rd\.mem\[11\]\[0\]
*294 rng_rd\.mem\[11\]\[1\]
*295 rng_rd\.mem\[11\]\[2\]
*296 rng_rd\.mem\[1\]\[0\]
*297 rng_rd\.mem\[1\]\[1\]
*298 rng_rd\.mem\[1\]\[2\]
*299 rng_rd\.mem\[2\]\[0\]
*300 rng_rd\.mem\[2\]\[1\]
*301 rng_rd\.mem\[2\]\[2\]
*302 rng_rd\.mem\[3\]\[0\]
*303 rng_rd\.mem\[3\]\[1\]
*304 rng_rd\.mem\[3\]\[2\]
*305 rng_rd\.mem\[4\]\[0\]
*306 rng_rd\.mem\[4\]\[1\]
*307 rng_rd\.mem\[4\]\[2\]
*308 rng_rd\.mem\[5\]\[0\]
*309 rng_rd\.mem\[5\]\[1\]
*310 rng_rd\.mem\[5\]\[2\]
*311 rng_rd\.mem\[6\]\[0\]
*312 rng_rd\.mem\[6\]\[1\]
*313 rng_rd\.mem\[6\]\[2\]
*314 rng_rd\.mem\[7\]\[0\]
*315 rng_rd\.mem\[7\]\[1\]
*316 rng_rd\.mem\[7\]\[2\]
*317 rng_rd\.mem\[8\]\[0\]
*318 rng_rd\.mem\[8\]\[1\]
*319 rng_rd\.mem\[8\]\[2\]
*320 rng_rd\.mem\[9\]\[0\]
*321 rng_rd\.mem\[9\]\[1\]
*322 rng_rd\.mem\[9\]\[2\]
*323 rng_rd\.vld\[0\]
*324 rng_rd\.vld\[10\]
*325 rng_rd\.vld\[11\]
*326 rng_rd\.vld\[1\]
*327 rng_rd\.vld\[2\]
*328 rng_rd\.vld\[3\]
*329 rng_rd\.vld\[4\]
*330 rng_rd\.vld\[5\]
*331 rng_rd\.vld\[6\]
*332 rng_rd\.vld\[7\]
*333 rng_rd\.vld\[8\]
*334 rng_rd\.vld\[9\]
*335 rng_rd\.wr_ff1
*336 rng_rd\.wr_ff2
*337 rng_rd\.wr_ff2_d
*338 rng_rd\.wr_pulse
*339 FILLER_0_105
*340 FILLER_0_107
*341 FILLER_0_111
*342 FILLER_0_113
*343 FILLER_0_125
*344 FILLER_0_137
*345 FILLER_0_139
*346 FILLER_0_141
*347 FILLER_0_15
*348 FILLER_0_153
*349 FILLER_0_165
*350 FILLER_0_167
*351 FILLER_0_169
*352 FILLER_0_181
*353 FILLER_0_193
*354 FILLER_0_195
*355 FILLER_0_197
*356 FILLER_0_209
*357 FILLER_0_221
*358 FILLER_0_27
*359 FILLER_0_29
*360 FILLER_0_3
*361 FILLER_0_41
*362 FILLER_0_53
*363 FILLER_0_55
*364 FILLER_0_57
*365 FILLER_0_69
*366 FILLER_0_81
*367 FILLER_0_83
*368 FILLER_0_85
*369 FILLER_0_97
*370 FILLER_10_104
*371 FILLER_10_111
*372 FILLER_10_154
*373 FILLER_10_175
*374 FILLER_10_193
*375 FILLER_10_195
*376 FILLER_10_209
*377 FILLER_10_221
*378 FILLER_10_24
*379 FILLER_10_29
*380 FILLER_10_3
*381 FILLER_10_50
*382 FILLER_10_52
*383 FILLER_10_85
*384 FILLER_11_103
*385 FILLER_11_111
*386 FILLER_11_123
*387 FILLER_11_128
*388 FILLER_11_136
*389 FILLER_11_183
*390 FILLER_11_204
*391 FILLER_11_216
*392 FILLER_11_220
*393 FILLER_11_222
*394 FILLER_11_29
*395 FILLER_11_3
*396 FILLER_11_47
*397 FILLER_11_5
*398 FILLER_11_55
*399 FILLER_11_66
*400 FILLER_11_70
*401 FILLER_11_91
*402 FILLER_12_118
*403 FILLER_12_130
*404 FILLER_12_138
*405 FILLER_12_141
*406 FILLER_12_161
*407 FILLER_12_193
*408 FILLER_12_195
*409 FILLER_12_210
*410 FILLER_12_222
*411 FILLER_12_45
*412 FILLER_12_49
*413 FILLER_12_7
*414 FILLER_12_82
*415 FILLER_13_104
*416 FILLER_13_110
*417 FILLER_13_113
*418 FILLER_13_135
*419 FILLER_13_147
*420 FILLER_13_149
*421 FILLER_13_159
*422 FILLER_13_167
*423 FILLER_13_169
*424 FILLER_13_173
*425 FILLER_13_184
*426 FILLER_13_19
*427 FILLER_13_205
*428 FILLER_13_217
*429 FILLER_13_221
*430 FILLER_13_23
*431 FILLER_13_41
*432 FILLER_13_48
*433 FILLER_13_7
*434 FILLER_13_9
*435 FILLER_14_107
*436 FILLER_14_133
*437 FILLER_14_137
*438 FILLER_14_139
*439 FILLER_14_141
*440 FILLER_14_193
*441 FILLER_14_195
*442 FILLER_14_197
*443 FILLER_14_209
*444 FILLER_14_221
*445 FILLER_14_26
*446 FILLER_14_29
*447 FILLER_14_39
*448 FILLER_14_48
*449 FILLER_14_56
*450 FILLER_14_65
*451 FILLER_14_67
*452 FILLER_14_85
*453 FILLER_14_89
*454 FILLER_15_11
*455 FILLER_15_119
*456 FILLER_15_128
*457 FILLER_15_13
*458 FILLER_15_130
*459 FILLER_15_167
*460 FILLER_15_197
*461 FILLER_15_207
*462 FILLER_15_219
*463 FILLER_15_23
*464 FILLER_15_25
*465 FILLER_15_46
*466 FILLER_15_57
*467 FILLER_15_7
*468 FILLER_15_70
*469 FILLER_15_92
*470 FILLER_15_96
*471 FILLER_15_98
*472 FILLER_16_101
*473 FILLER_16_111
*474 FILLER_16_123
*475 FILLER_16_135
*476 FILLER_16_139
*477 FILLER_16_150
*478 FILLER_16_195
*479 FILLER_16_197
*480 FILLER_16_209
*481 FILLER_16_221
*482 FILLER_16_3
*483 FILLER_16_37
*484 FILLER_16_47
*485 FILLER_16_7
*486 FILLER_16_74
*487 FILLER_17_105
*488 FILLER_17_130
*489 FILLER_17_132
*490 FILLER_17_141
*491 FILLER_17_149
*492 FILLER_17_15
*493 FILLER_17_169
*494 FILLER_17_173
*495 FILLER_17_209
*496 FILLER_17_221
*497 FILLER_17_27
*498 FILLER_17_3
*499 FILLER_17_35
*500 FILLER_17_66
*501 FILLER_17_74
*502 FILLER_17_95
*503 FILLER_18_115
*504 FILLER_18_119
*505 FILLER_18_141
*506 FILLER_18_161
*507 FILLER_18_172
*508 FILLER_18_180
*509 FILLER_18_182
*510 FILLER_18_192
*511 FILLER_18_197
*512 FILLER_18_206
*513 FILLER_18_218
*514 FILLER_18_222
*515 FILLER_18_26
*516 FILLER_18_29
*517 FILLER_18_3
*518 FILLER_18_5
*519 FILLER_18_59
*520 FILLER_18_71
*521 FILLER_18_91
*522 FILLER_19_104
*523 FILLER_19_111
*524 FILLER_19_113
*525 FILLER_19_117
*526 FILLER_19_209
*527 FILLER_19_221
*528 FILLER_19_3
*529 FILLER_19_37
*530 FILLER_19_50
*531 FILLER_19_54
*532 FILLER_19_57
*533 FILLER_19_61
*534 FILLER_19_71
*535 FILLER_19_75
*536 FILLER_19_90
*537 FILLER_19_94
*538 FILLER_1_110
*539 FILLER_1_113
*540 FILLER_1_125
*541 FILLER_1_137
*542 FILLER_1_149
*543 FILLER_1_161
*544 FILLER_1_165
*545 FILLER_1_167
*546 FILLER_1_169
*547 FILLER_1_181
*548 FILLER_1_193
*549 FILLER_1_205
*550 FILLER_1_217
*551 FILLER_1_221
*552 FILLER_1_25
*553 FILLER_1_3
*554 FILLER_1_37
*555 FILLER_1_42
*556 FILLER_1_53
*557 FILLER_1_55
*558 FILLER_1_80
*559 FILLER_20_108
*560 FILLER_20_120
*561 FILLER_20_126
*562 FILLER_20_138
*563 FILLER_20_141
*564 FILLER_20_145
*565 FILLER_20_147
*566 FILLER_20_15
*567 FILLER_20_167
*568 FILLER_20_169
*569 FILLER_20_187
*570 FILLER_20_195
*571 FILLER_20_197
*572 FILLER_20_209
*573 FILLER_20_221
*574 FILLER_20_26
*575 FILLER_20_29
*576 FILLER_20_3
*577 FILLER_20_80
*578 FILLER_20_85
*579 FILLER_20_89
*580 FILLER_21_108
*581 FILLER_21_113
*582 FILLER_21_115
*583 FILLER_21_125
*584 FILLER_21_127
*585 FILLER_21_136
*586 FILLER_21_147
*587 FILLER_21_15
*588 FILLER_21_151
*589 FILLER_21_162
*590 FILLER_21_166
*591 FILLER_21_189
*592 FILLER_21_201
*593 FILLER_21_213
*594 FILLER_21_221
*595 FILLER_21_23
*596 FILLER_21_3
*597 FILLER_21_33
*598 FILLER_21_45
*599 FILLER_21_47
*600 FILLER_21_57
*601 FILLER_21_59
*602 FILLER_22_136
*603 FILLER_22_15
*604 FILLER_22_189
*605 FILLER_22_193
*606 FILLER_22_195
*607 FILLER_22_197
*608 FILLER_22_209
*609 FILLER_22_221
*610 FILLER_22_27
*611 FILLER_22_29
*612 FILLER_22_3
*613 FILLER_22_41
*614 FILLER_22_45
*615 FILLER_22_47
*616 FILLER_22_65
*617 FILLER_22_74
*618 FILLER_22_82
*619 FILLER_22_94
*620 FILLER_23_105
*621 FILLER_23_109
*622 FILLER_23_111
*623 FILLER_23_130
*624 FILLER_23_142
*625 FILLER_23_144
*626 FILLER_23_15
*627 FILLER_23_161
*628 FILLER_23_165
*629 FILLER_23_167
*630 FILLER_23_177
*631 FILLER_23_189
*632 FILLER_23_201
*633 FILLER_23_213
*634 FILLER_23_221
*635 FILLER_23_27
*636 FILLER_23_3
*637 FILLER_23_39
*638 FILLER_23_51
*639 FILLER_23_55
*640 FILLER_23_57
*641 FILLER_23_69
*642 FILLER_24_109
*643 FILLER_24_125
*644 FILLER_24_137
*645 FILLER_24_139
*646 FILLER_24_141
*647 FILLER_24_15
*648 FILLER_24_153
*649 FILLER_24_165
*650 FILLER_24_177
*651 FILLER_24_189
*652 FILLER_24_193
*653 FILLER_24_195
*654 FILLER_24_197
*655 FILLER_24_209
*656 FILLER_24_221
*657 FILLER_24_27
*658 FILLER_24_29
*659 FILLER_24_3
*660 FILLER_24_41
*661 FILLER_24_53
*662 FILLER_24_65
*663 FILLER_24_77
*664 FILLER_24_81
*665 FILLER_24_83
*666 FILLER_24_85
*667 FILLER_24_97
*668 FILLER_25_105
*669 FILLER_25_109
*670 FILLER_25_111
*671 FILLER_25_113
*672 FILLER_25_125
*673 FILLER_25_137
*674 FILLER_25_149
*675 FILLER_25_15
*676 FILLER_25_161
*677 FILLER_25_165
*678 FILLER_25_167
*679 FILLER_25_169
*680 FILLER_25_181
*681 FILLER_25_193
*682 FILLER_25_205
*683 FILLER_25_217
*684 FILLER_25_221
*685 FILLER_25_27
*686 FILLER_25_3
*687 FILLER_25_39
*688 FILLER_25_51
*689 FILLER_25_55
*690 FILLER_25_57
*691 FILLER_25_69
*692 FILLER_25_81
*693 FILLER_25_93
*694 FILLER_26_109
*695 FILLER_26_121
*696 FILLER_26_133
*697 FILLER_26_137
*698 FILLER_26_139
*699 FILLER_26_141
*700 FILLER_26_15
*701 FILLER_26_153
*702 FILLER_26_165
*703 FILLER_26_177
*704 FILLER_26_189
*705 FILLER_26_193
*706 FILLER_26_195
*707 FILLER_26_197
*708 FILLER_26_209
*709 FILLER_26_221
*710 FILLER_26_27
*711 FILLER_26_29
*712 FILLER_26_3
*713 FILLER_26_41
*714 FILLER_26_53
*715 FILLER_26_65
*716 FILLER_26_77
*717 FILLER_26_81
*718 FILLER_26_83
*719 FILLER_26_85
*720 FILLER_26_97
*721 FILLER_27_105
*722 FILLER_27_109
*723 FILLER_27_111
*724 FILLER_27_113
*725 FILLER_27_125
*726 FILLER_27_137
*727 FILLER_27_149
*728 FILLER_27_15
*729 FILLER_27_161
*730 FILLER_27_165
*731 FILLER_27_167
*732 FILLER_27_169
*733 FILLER_27_181
*734 FILLER_27_193
*735 FILLER_27_205
*736 FILLER_27_217
*737 FILLER_27_221
*738 FILLER_27_27
*739 FILLER_27_3
*740 FILLER_27_39
*741 FILLER_27_51
*742 FILLER_27_55
*743 FILLER_27_57
*744 FILLER_27_69
*745 FILLER_27_81
*746 FILLER_27_93
*747 FILLER_28_109
*748 FILLER_28_121
*749 FILLER_28_133
*750 FILLER_28_137
*751 FILLER_28_139
*752 FILLER_28_141
*753 FILLER_28_15
*754 FILLER_28_153
*755 FILLER_28_165
*756 FILLER_28_177
*757 FILLER_28_189
*758 FILLER_28_193
*759 FILLER_28_195
*760 FILLER_28_197
*761 FILLER_28_209
*762 FILLER_28_221
*763 FILLER_28_27
*764 FILLER_28_29
*765 FILLER_28_3
*766 FILLER_28_41
*767 FILLER_28_53
*768 FILLER_28_65
*769 FILLER_28_77
*770 FILLER_28_81
*771 FILLER_28_83
*772 FILLER_28_85
*773 FILLER_28_97
*774 FILLER_29_105
*775 FILLER_29_109
*776 FILLER_29_111
*777 FILLER_29_113
*778 FILLER_29_125
*779 FILLER_29_137
*780 FILLER_29_149
*781 FILLER_29_15
*782 FILLER_29_161
*783 FILLER_29_165
*784 FILLER_29_167
*785 FILLER_29_169
*786 FILLER_29_181
*787 FILLER_29_193
*788 FILLER_29_205
*789 FILLER_29_217
*790 FILLER_29_221
*791 FILLER_29_27
*792 FILLER_29_3
*793 FILLER_29_39
*794 FILLER_29_51
*795 FILLER_29_55
*796 FILLER_29_57
*797 FILLER_29_69
*798 FILLER_29_81
*799 FILLER_29_93
*800 FILLER_2_112
*801 FILLER_2_124
*802 FILLER_2_136
*803 FILLER_2_141
*804 FILLER_2_153
*805 FILLER_2_165
*806 FILLER_2_177
*807 FILLER_2_189
*808 FILLER_2_193
*809 FILLER_2_195
*810 FILLER_2_197
*811 FILLER_2_209
*812 FILLER_2_221
*813 FILLER_2_27
*814 FILLER_2_52
*815 FILLER_2_54
*816 FILLER_2_62
*817 FILLER_30_109
*818 FILLER_30_121
*819 FILLER_30_133
*820 FILLER_30_137
*821 FILLER_30_139
*822 FILLER_30_141
*823 FILLER_30_15
*824 FILLER_30_153
*825 FILLER_30_165
*826 FILLER_30_177
*827 FILLER_30_189
*828 FILLER_30_193
*829 FILLER_30_195
*830 FILLER_30_197
*831 FILLER_30_209
*832 FILLER_30_221
*833 FILLER_30_27
*834 FILLER_30_29
*835 FILLER_30_3
*836 FILLER_30_41
*837 FILLER_30_53
*838 FILLER_30_65
*839 FILLER_30_77
*840 FILLER_30_81
*841 FILLER_30_83
*842 FILLER_30_85
*843 FILLER_30_97
*844 FILLER_31_105
*845 FILLER_31_109
*846 FILLER_31_111
*847 FILLER_31_113
*848 FILLER_31_125
*849 FILLER_31_137
*850 FILLER_31_149
*851 FILLER_31_15
*852 FILLER_31_161
*853 FILLER_31_165
*854 FILLER_31_167
*855 FILLER_31_169
*856 FILLER_31_181
*857 FILLER_31_193
*858 FILLER_31_205
*859 FILLER_31_217
*860 FILLER_31_221
*861 FILLER_31_27
*862 FILLER_31_3
*863 FILLER_31_39
*864 FILLER_31_51
*865 FILLER_31_55
*866 FILLER_31_57
*867 FILLER_31_69
*868 FILLER_31_81
*869 FILLER_31_93
*870 FILLER_32_109
*871 FILLER_32_121
*872 FILLER_32_133
*873 FILLER_32_137
*874 FILLER_32_139
*875 FILLER_32_141
*876 FILLER_32_15
*877 FILLER_32_153
*878 FILLER_32_165
*879 FILLER_32_177
*880 FILLER_32_189
*881 FILLER_32_193
*882 FILLER_32_195
*883 FILLER_32_197
*884 FILLER_32_209
*885 FILLER_32_221
*886 FILLER_32_27
*887 FILLER_32_29
*888 FILLER_32_3
*889 FILLER_32_41
*890 FILLER_32_53
*891 FILLER_32_65
*892 FILLER_32_77
*893 FILLER_32_81
*894 FILLER_32_83
*895 FILLER_32_85
*896 FILLER_32_97
*897 FILLER_33_109
*898 FILLER_33_111
*899 FILLER_33_113
*900 FILLER_33_125
*901 FILLER_33_137
*902 FILLER_33_139
*903 FILLER_33_141
*904 FILLER_33_15
*905 FILLER_33_153
*906 FILLER_33_165
*907 FILLER_33_167
*908 FILLER_33_169
*909 FILLER_33_181
*910 FILLER_33_193
*911 FILLER_33_195
*912 FILLER_33_197
*913 FILLER_33_209
*914 FILLER_33_221
*915 FILLER_33_27
*916 FILLER_33_29
*917 FILLER_33_3
*918 FILLER_33_41
*919 FILLER_33_53
*920 FILLER_33_55
*921 FILLER_33_57
*922 FILLER_33_69
*923 FILLER_33_81
*924 FILLER_33_83
*925 FILLER_33_85
*926 FILLER_33_97
*927 FILLER_3_101
*928 FILLER_3_109
*929 FILLER_3_11
*930 FILLER_3_111
*931 FILLER_3_113
*932 FILLER_3_125
*933 FILLER_3_137
*934 FILLER_3_149
*935 FILLER_3_161
*936 FILLER_3_165
*937 FILLER_3_167
*938 FILLER_3_169
*939 FILLER_3_181
*940 FILLER_3_193
*941 FILLER_3_205
*942 FILLER_3_217
*943 FILLER_3_221
*944 FILLER_3_24
*945 FILLER_3_3
*946 FILLER_3_40
*947 FILLER_3_42
*948 FILLER_3_55
*949 FILLER_3_73
*950 FILLER_3_77
*951 FILLER_3_86
*952 FILLER_3_94
*953 FILLER_4_129
*954 FILLER_4_137
*955 FILLER_4_139
*956 FILLER_4_141
*957 FILLER_4_15
*958 FILLER_4_159
*959 FILLER_4_171
*960 FILLER_4_183
*961 FILLER_4_195
*962 FILLER_4_197
*963 FILLER_4_209
*964 FILLER_4_221
*965 FILLER_4_3
*966 FILLER_4_41
*967 FILLER_4_45
*968 FILLER_4_49
*969 FILLER_4_57
*970 FILLER_4_64
*971 FILLER_4_77
*972 FILLER_4_81
*973 FILLER_4_83
*974 FILLER_4_85
*975 FILLER_4_97
*976 FILLER_5_15
*977 FILLER_5_166
*978 FILLER_5_169
*979 FILLER_5_173
*980 FILLER_5_175
*981 FILLER_5_196
*982 FILLER_5_208
*983 FILLER_5_220
*984 FILLER_5_222
*985 FILLER_5_3
*986 FILLER_5_37
*987 FILLER_5_45
*988 FILLER_5_55
*989 FILLER_5_65
*990 FILLER_5_67
*991 FILLER_5_91
*992 FILLER_6_150
*993 FILLER_6_152
*994 FILLER_6_193
*995 FILLER_6_195
*996 FILLER_6_205
*997 FILLER_6_217
*998 FILLER_6_221
*999 FILLER_6_3
*1000 FILLER_6_33
*1001 FILLER_6_45
*1002 FILLER_6_7
*1003 FILLER_6_78
*1004 FILLER_6_82
*1005 FILLER_6_85
*1006 FILLER_7_102
*1007 FILLER_7_15
*1008 FILLER_7_155
*1009 FILLER_7_178
*1010 FILLER_7_182
*1011 FILLER_7_212
*1012 FILLER_7_3
*1013 FILLER_7_41
*1014 FILLER_7_53
*1015 FILLER_7_55
*1016 FILLER_7_61
*1017 FILLER_8_124
*1018 FILLER_8_131
*1019 FILLER_8_139
*1020 FILLER_8_144
*1021 FILLER_8_146
*1022 FILLER_8_161
*1023 FILLER_8_190
*1024 FILLER_8_194
*1025 FILLER_8_220
*1026 FILLER_8_222
*1027 FILLER_8_23
*1028 FILLER_8_27
*1029 FILLER_8_49
*1030 FILLER_8_53
*1031 FILLER_8_62
*1032 FILLER_8_64
*1033 FILLER_8_71
*1034 FILLER_8_81
*1035 FILLER_8_83
*1036 FILLER_8_99
*1037 FILLER_9_10
*1038 FILLER_9_141
*1039 FILLER_9_208
*1040 FILLER_9_21
*1041 FILLER_9_220
*1042 FILLER_9_222
*1043 FILLER_9_54
*1044 FILLER_9_6
*1045 PHY_EDGE_ROW_0_Left_34
*1046 PHY_EDGE_ROW_0_Right_0
*1047 PHY_EDGE_ROW_10_Left_44
*1048 PHY_EDGE_ROW_10_Right_10
*1049 PHY_EDGE_ROW_11_Left_45
*1050 PHY_EDGE_ROW_11_Right_11
*1051 PHY_EDGE_ROW_12_Left_46
*1052 PHY_EDGE_ROW_12_Right_12
*1053 PHY_EDGE_ROW_13_Left_47
*1054 PHY_EDGE_ROW_13_Right_13
*1055 PHY_EDGE_ROW_14_Left_48
*1056 PHY_EDGE_ROW_14_Right_14
*1057 PHY_EDGE_ROW_15_Left_49
*1058 PHY_EDGE_ROW_15_Right_15
*1059 PHY_EDGE_ROW_16_Left_50
*1060 PHY_EDGE_ROW_16_Right_16
*1061 PHY_EDGE_ROW_17_Left_51
*1062 PHY_EDGE_ROW_17_Right_17
*1063 PHY_EDGE_ROW_18_Left_52
*1064 PHY_EDGE_ROW_18_Right_18
*1065 PHY_EDGE_ROW_19_Left_53
*1066 PHY_EDGE_ROW_19_Right_19
*1067 PHY_EDGE_ROW_1_Left_35
*1068 PHY_EDGE_ROW_1_Right_1
*1069 PHY_EDGE_ROW_20_Left_54
*1070 PHY_EDGE_ROW_20_Right_20
*1071 PHY_EDGE_ROW_21_Left_55
*1072 PHY_EDGE_ROW_21_Right_21
*1073 PHY_EDGE_ROW_22_Left_56
*1074 PHY_EDGE_ROW_22_Right_22
*1075 PHY_EDGE_ROW_23_Left_57
*1076 PHY_EDGE_ROW_23_Right_23
*1077 PHY_EDGE_ROW_24_Left_58
*1078 PHY_EDGE_ROW_24_Right_24
*1079 PHY_EDGE_ROW_25_Left_59
*1080 PHY_EDGE_ROW_25_Right_25
*1081 PHY_EDGE_ROW_26_Left_60
*1082 PHY_EDGE_ROW_26_Right_26
*1083 PHY_EDGE_ROW_27_Left_61
*1084 PHY_EDGE_ROW_27_Right_27
*1085 PHY_EDGE_ROW_28_Left_62
*1086 PHY_EDGE_ROW_28_Right_28
*1087 PHY_EDGE_ROW_29_Left_63
*1088 PHY_EDGE_ROW_29_Right_29
*1089 PHY_EDGE_ROW_2_Left_36
*1090 PHY_EDGE_ROW_2_Right_2
*1091 PHY_EDGE_ROW_30_Left_64
*1092 PHY_EDGE_ROW_30_Right_30
*1093 PHY_EDGE_ROW_31_Left_65
*1094 PHY_EDGE_ROW_31_Right_31
*1095 PHY_EDGE_ROW_32_Left_66
*1096 PHY_EDGE_ROW_32_Right_32
*1097 PHY_EDGE_ROW_33_Left_67
*1098 PHY_EDGE_ROW_33_Right_33
*1099 PHY_EDGE_ROW_3_Left_37
*1100 PHY_EDGE_ROW_3_Right_3
*1101 PHY_EDGE_ROW_4_Left_38
*1102 PHY_EDGE_ROW_4_Right_4
*1103 PHY_EDGE_ROW_5_Left_39
*1104 PHY_EDGE_ROW_5_Right_5
*1105 PHY_EDGE_ROW_6_Left_40
*1106 PHY_EDGE_ROW_6_Right_6
*1107 PHY_EDGE_ROW_7_Left_41
*1108 PHY_EDGE_ROW_7_Right_7
*1109 PHY_EDGE_ROW_8_Left_42
*1110 PHY_EDGE_ROW_8_Right_8
*1111 PHY_EDGE_ROW_9_Left_43
*1112 PHY_EDGE_ROW_9_Right_9
*1113 TAP_TAPCELL_ROW_0_68
*1114 TAP_TAPCELL_ROW_0_69
*1115 TAP_TAPCELL_ROW_0_70
*1116 TAP_TAPCELL_ROW_0_71
*1117 TAP_TAPCELL_ROW_0_72
*1118 TAP_TAPCELL_ROW_0_73
*1119 TAP_TAPCELL_ROW_0_74
*1120 TAP_TAPCELL_ROW_10_106
*1121 TAP_TAPCELL_ROW_10_107
*1122 TAP_TAPCELL_ROW_10_108
*1123 TAP_TAPCELL_ROW_10_109
*1124 TAP_TAPCELL_ROW_11_110
*1125 TAP_TAPCELL_ROW_11_111
*1126 TAP_TAPCELL_ROW_11_112
*1127 TAP_TAPCELL_ROW_12_113
*1128 TAP_TAPCELL_ROW_12_114
*1129 TAP_TAPCELL_ROW_12_115
*1130 TAP_TAPCELL_ROW_12_116
*1131 TAP_TAPCELL_ROW_13_117
*1132 TAP_TAPCELL_ROW_13_118
*1133 TAP_TAPCELL_ROW_13_119
*1134 TAP_TAPCELL_ROW_14_120
*1135 TAP_TAPCELL_ROW_14_121
*1136 TAP_TAPCELL_ROW_14_122
*1137 TAP_TAPCELL_ROW_14_123
*1138 TAP_TAPCELL_ROW_15_124
*1139 TAP_TAPCELL_ROW_15_125
*1140 TAP_TAPCELL_ROW_15_126
*1141 TAP_TAPCELL_ROW_16_127
*1142 TAP_TAPCELL_ROW_16_128
*1143 TAP_TAPCELL_ROW_16_129
*1144 TAP_TAPCELL_ROW_16_130
*1145 TAP_TAPCELL_ROW_17_131
*1146 TAP_TAPCELL_ROW_17_132
*1147 TAP_TAPCELL_ROW_17_133
*1148 TAP_TAPCELL_ROW_18_134
*1149 TAP_TAPCELL_ROW_18_135
*1150 TAP_TAPCELL_ROW_18_136
*1151 TAP_TAPCELL_ROW_18_137
*1152 TAP_TAPCELL_ROW_19_138
*1153 TAP_TAPCELL_ROW_19_139
*1154 TAP_TAPCELL_ROW_19_140
*1155 TAP_TAPCELL_ROW_1_75
*1156 TAP_TAPCELL_ROW_1_76
*1157 TAP_TAPCELL_ROW_1_77
*1158 TAP_TAPCELL_ROW_20_141
*1159 TAP_TAPCELL_ROW_20_142
*1160 TAP_TAPCELL_ROW_20_143
*1161 TAP_TAPCELL_ROW_20_144
*1162 TAP_TAPCELL_ROW_21_145
*1163 TAP_TAPCELL_ROW_21_146
*1164 TAP_TAPCELL_ROW_21_147
*1165 TAP_TAPCELL_ROW_22_148
*1166 TAP_TAPCELL_ROW_22_149
*1167 TAP_TAPCELL_ROW_22_150
*1168 TAP_TAPCELL_ROW_22_151
*1169 TAP_TAPCELL_ROW_23_152
*1170 TAP_TAPCELL_ROW_23_153
*1171 TAP_TAPCELL_ROW_23_154
*1172 TAP_TAPCELL_ROW_24_155
*1173 TAP_TAPCELL_ROW_24_156
*1174 TAP_TAPCELL_ROW_24_157
*1175 TAP_TAPCELL_ROW_24_158
*1176 TAP_TAPCELL_ROW_25_159
*1177 TAP_TAPCELL_ROW_25_160
*1178 TAP_TAPCELL_ROW_25_161
*1179 TAP_TAPCELL_ROW_26_162
*1180 TAP_TAPCELL_ROW_26_163
*1181 TAP_TAPCELL_ROW_26_164
*1182 TAP_TAPCELL_ROW_26_165
*1183 TAP_TAPCELL_ROW_27_166
*1184 TAP_TAPCELL_ROW_27_167
*1185 TAP_TAPCELL_ROW_27_168
*1186 TAP_TAPCELL_ROW_28_169
*1187 TAP_TAPCELL_ROW_28_170
*1188 TAP_TAPCELL_ROW_28_171
*1189 TAP_TAPCELL_ROW_28_172
*1190 TAP_TAPCELL_ROW_29_173
*1191 TAP_TAPCELL_ROW_29_174
*1192 TAP_TAPCELL_ROW_29_175
*1193 TAP_TAPCELL_ROW_2_78
*1194 TAP_TAPCELL_ROW_2_79
*1195 TAP_TAPCELL_ROW_2_80
*1196 TAP_TAPCELL_ROW_2_81
*1197 TAP_TAPCELL_ROW_30_176
*1198 TAP_TAPCELL_ROW_30_177
*1199 TAP_TAPCELL_ROW_30_178
*1200 TAP_TAPCELL_ROW_30_179
*1201 TAP_TAPCELL_ROW_31_180
*1202 TAP_TAPCELL_ROW_31_181
*1203 TAP_TAPCELL_ROW_31_182
*1204 TAP_TAPCELL_ROW_32_183
*1205 TAP_TAPCELL_ROW_32_184
*1206 TAP_TAPCELL_ROW_32_185
*1207 TAP_TAPCELL_ROW_32_186
*1208 TAP_TAPCELL_ROW_33_187
*1209 TAP_TAPCELL_ROW_33_188
*1210 TAP_TAPCELL_ROW_33_189
*1211 TAP_TAPCELL_ROW_33_190
*1212 TAP_TAPCELL_ROW_33_191
*1213 TAP_TAPCELL_ROW_33_192
*1214 TAP_TAPCELL_ROW_33_193
*1215 TAP_TAPCELL_ROW_3_82
*1216 TAP_TAPCELL_ROW_3_83
*1217 TAP_TAPCELL_ROW_3_84
*1218 TAP_TAPCELL_ROW_4_85
*1219 TAP_TAPCELL_ROW_4_86
*1220 TAP_TAPCELL_ROW_4_87
*1221 TAP_TAPCELL_ROW_4_88
*1222 TAP_TAPCELL_ROW_5_89
*1223 TAP_TAPCELL_ROW_5_90
*1224 TAP_TAPCELL_ROW_5_91
*1225 TAP_TAPCELL_ROW_6_92
*1226 TAP_TAPCELL_ROW_6_93
*1227 TAP_TAPCELL_ROW_6_94
*1228 TAP_TAPCELL_ROW_6_95
*1229 TAP_TAPCELL_ROW_7_96
*1230 TAP_TAPCELL_ROW_7_97
*1231 TAP_TAPCELL_ROW_7_98
*1232 TAP_TAPCELL_ROW_8_100
*1233 TAP_TAPCELL_ROW_8_101
*1234 TAP_TAPCELL_ROW_8_102
*1235 TAP_TAPCELL_ROW_8_99
*1236 TAP_TAPCELL_ROW_9_103
*1237 TAP_TAPCELL_ROW_9_104
*1238 TAP_TAPCELL_ROW_9_105
*1239 _166_
*1240 _167_
*1241 _168_
*1242 _169_
*1243 _170_
*1244 _171_
*1245 _172_
*1246 _173_
*1247 _174_
*1248 _175_
*1249 _176_
*1250 _177_
*1251 _178_
*1252 _179_
*1253 _180_
*1254 _181_
*1255 _182_
*1256 _183_
*1257 _184_
*1258 _185_
*1259 _186_
*1260 _187_
*1261 _188_
*1262 _189_
*1263 _190_
*1264 _191_
*1265 _192_
*1266 _193_
*1267 _194_
*1268 _195_
*1269 _196_
*1270 _197_
*1271 _198_
*1272 _199_
*1273 _200_
*1274 _201_
*1275 _202_
*1276 _203_
*1277 _204_
*1278 _205_
*1279 _206_
*1280 _207_
*1281 _208_
*1282 _209_
*1283 _210_
*1284 _211_
*1285 _212_
*1286 _213_
*1287 _214_
*1288 _215_
*1289 _216_
*1290 _217_
*1291 _218_
*1292 _219_
*1293 _220_
*1294 _221_
*1295 _222_
*1296 _223_
*1297 _224_
*1298 _225_
*1299 _226_
*1300 _227_
*1301 _228_
*1302 _229_
*1303 _230_
*1304 _231_
*1305 _232_
*1306 _233_
*1307 _234_
*1308 _235_
*1309 _236_
*1310 _237_
*1311 _238_
*1312 _239_
*1313 _240_
*1314 _241_
*1315 _242_
*1316 _243_
*1317 _244_
*1318 _245_
*1319 _246_
*1320 _247_
*1321 _248_
*1322 _249_
*1323 _250_
*1324 _251_
*1325 _252_
*1326 _253_
*1327 _254_
*1328 _255_
*1329 _256_
*1330 _257_
*1331 _258_
*1332 _259_
*1333 _260_
*1334 _261_
*1335 _262_
*1336 _263_
*1337 _264_
*1338 _265_
*1339 _266_
*1340 _267_
*1341 _268_
*1342 _269_
*1343 _270_
*1344 _271_
*1345 _272_
*1346 _273_
*1347 _274_
*1348 _275_
*1349 _276_
*1350 _277_
*1351 _278_
*1352 _279_
*1353 _280_
*1354 _281_
*1355 _282_
*1356 _283_
*1357 _284_
*1358 _285_
*1359 _286_
*1360 _287_
*1361 _288_
*1362 _289_
*1363 _290_
*1364 _291_
*1365 _292_
*1366 _293_
*1367 _294_
*1368 _295_
*1369 _296_
*1370 _297_
*1371 _298_
*1372 _299_
*1373 _300_
*1374 _301_
*1375 _302_
*1376 _303_
*1377 _304_
*1378 _305_
*1379 _306_
*1380 _307_
*1381 _308_
*1382 _309_
*1383 _310_
*1384 _311_
*1385 _312_
*1386 _313_
*1387 _314_
*1388 _315_
*1389 _316_
*1390 _317_
*1391 _318_
*1392 _319_
*1393 _320_
*1394 _321_
*1395 _322_
*1396 _323_
*1397 _324_
*1398 _325_
*1399 _326_
*1400 _327_
*1401 _328_
*1402 _329_
*1403 _330_
*1404 _331_
*1405 _332_
*1406 _333_
*1407 _334_
*1408 _335_
*1409 _336_
*1410 _337_
*1411 _338_
*1412 _339_
*1413 _340_
*1414 _341_
*1415 _342_
*1416 _343_
*1417 _344_
*1418 _345_
*1419 _346_
*1420 _347_
*1421 _348_
*1422 _349_
*1423 _350_
*1424 _351_
*1425 _352_
*1426 _353_
*1427 _354_
*1428 _355_
*1429 _356_
*1430 _357_
*1431 _358_
*1432 _359_
*1433 _360_
*1434 _361_
*1435 _362_
*1436 _363_
*1437 _364_
*1438 _365_
*1439 _366_
*1440 _367_
*1441 _368_
*1442 _369_
*1443 _370_
*1444 _371_
*1445 _372_
*1446 _373_
*1447 _374_
*1448 _375_
*1449 _376_
*1450 _377_
*1451 _378_
*1452 _379_
*1453 _380_
*1454 _381_
*1455 _382_
*1456 _383_
*1457 _384_
*1458 _385_
*1459 _386_
*1460 _387_
*1461 _388_
*1462 _389_
*1463 _390_
*1464 _391_
*1465 _392_
*1466 clkbuf_0_clk_i
*1467 clkbuf_3_0__f_clk_i
*1468 clkbuf_3_1__f_clk_i
*1469 clkbuf_3_2__f_clk_i
*1470 clkbuf_3_3__f_clk_i
*1471 clkbuf_3_4__f_clk_i
*1472 clkbuf_3_5__f_clk_i
*1473 clkbuf_3_6__f_clk_i
*1474 clkbuf_3_7__f_clk_i
*1475 clkload0
*1476 clkload1
*1477 clkload2
*1478 clkload3
*1479 clkload4
*1480 clkload5
*1481 clkload6
*1482 fanout10
*1483 fanout11
*1484 fanout12
*1485 fanout13
*1486 fanout14
*1487 fanout15
*1488 fanout16
*1489 fanout17
*1490 fanout18
*1491 fanout19
*1492 fanout20
*1493 fanout21
*1494 fanout22
*1495 fanout23
*1496 fanout24
*1497 fanout25
*1498 fanout26
*1499 fanout27
*1500 fanout7
*1501 fanout8
*1502 fanout9
*1503 hold1
*1504 hold10
*1505 hold11
*1506 hold12
*1507 hold13
*1508 hold14
*1509 hold15
*1510 hold16
*1511 hold17
*1512 hold18
*1513 hold19
*1514 hold2
*1515 hold20
*1516 hold21
*1517 hold22
*1518 hold23
*1519 hold24
*1520 hold25
*1521 hold26
*1522 hold27
*1523 hold28
*1524 hold29
*1525 hold3
*1526 hold30
*1527 hold31
*1528 hold32
*1529 hold33
*1530 hold34
*1531 hold35
*1532 hold36
*1533 hold37
*1534 hold38
*1535 hold39
*1536 hold4
*1537 hold40
*1538 hold41
*1539 hold42
*1540 hold43
*1541 hold44
*1542 hold45
*1543 hold46
*1544 hold47
*1545 hold48
*1546 hold49
*1547 hold5
*1548 hold50
*1549 hold51
*1550 hold52
*1551 hold53
*1552 hold54
*1553 hold55
*1554 hold56
*1555 hold57
*1556 hold58
*1557 hold59
*1558 hold6
*1559 hold60
*1560 hold61
*1561 hold62
*1562 hold63
*1563 hold64
*1564 hold65
*1565 hold66
*1566 hold67
*1567 hold68
*1568 hold69
*1569 hold7
*1570 hold8
*1571 hold9
*1572 input1
*1573 input2
*1574 input3
*1575 output4
*1576 output5
*1577 output6

*PORTS
clk_i I
num_to_send_o[0] O
num_to_send_o[1] O
num_to_send_o[2] O
req_num_i I
rst_i I
wr_i I

*D_NET *3 0.0126914
*CONN
*P clk_i I
*I *1466:A I *D sky130_fd_sc_hd__clkbuf_16
*CAP
1 clk_i 0.000336199
2 *1466:A 0
3 *3:21 0.00112439
4 *3:19 0.00196203
5 *3:13 0.00277839
6 *3:11 0.00227695
7 *3:13 *4:14 0
8 *3:13 *5:14 0
9 *3:13 *6:14 0
10 *3:19 *1381:S 0.000155736
11 *3:19 *1441:CLK 9.84794e-05
12 *3:19 *1441:D 5.29672e-05
13 *3:19 *6:14 0.000317749
14 *3:19 *229:12 5.70419e-05
15 *3:19 *229:19 0.000339186
16 *3:19 *229:36 0.000212155
17 *3:21 *1370:A1 0.000468008
18 *3:21 *1373:A1 0.000272383
19 *3:21 *1381:A1 0.000711788
20 *3:21 *1381:S 1.59071e-05
21 *3:21 *106:16 0.000100069
22 *3:21 *109:12 0.000246727
23 *3:21 *198:10 5.3304e-05
24 *3:21 *245:12 5.67058e-05
25 *3:21 *249:14 0.000228001
26 *3:21 *262:28 0.000252162
27 *3:21 *298:29 0.000220047
28 *3:21 *301:16 0.000355029
*RES
1 clk_i *3:11 9.55307 
2 *3:11 *3:13 43.9868 
3 *3:13 *3:19 37.4336 
4 *3:19 *3:21 30.6364 
5 *3:21 *1466:A 23 
*END

*D_NET *4 0.000770048
*CONN
*P num_to_send_o[0] O
*I *1575:X O *D sky130_fd_sc_hd__buf_2
*CAP
1 num_to_send_o[0] 8.40108e-05
2 *1575:X 0.000283419
3 *4:14 0.00036743
4 num_to_send_o[0] num_to_send_o[1] 2.12457e-05
5 *4:14 *1437:CLK 1.39431e-05
6 *3:13 *4:14 0
*RES
1 *1575:X *4:14 49.9 
2 *4:14 num_to_send_o[0] 0.382667 
*END

*D_NET *5 0.0006811
*CONN
*P num_to_send_o[1] O
*I *1576:X O *D sky130_fd_sc_hd__buf_2
*CAP
1 num_to_send_o[1] 7.65184e-05
2 *1576:X 0.000229499
3 *5:14 0.000306018
4 num_to_send_o[1] num_to_send_o[2] 1.5289e-05
5 *5:14 *6:14 3.25302e-05
6 num_to_send_o[0] num_to_send_o[1] 2.12457e-05
7 *3:13 *5:14 0
*RES
1 *1576:X *5:14 49.9 
2 *5:14 num_to_send_o[1] 0.382667 
*END

*D_NET *6 0.000872671
*CONN
*P num_to_send_o[2] O
*I *1577:X O *D sky130_fd_sc_hd__buf_2
*CAP
1 num_to_send_o[2] 9.65827e-05
2 *1577:X 0.000156969
3 *6:14 0.000253552
4 num_to_send_o[1] num_to_send_o[2] 1.5289e-05
5 *3:13 *6:14 0
6 *3:19 *6:14 0.000317749
7 *5:14 *6:14 3.25302e-05
*RES
1 *1577:X *6:14 49.9 
2 *6:14 num_to_send_o[2] 0.382667 
*END

*D_NET *7 0.00100427
*CONN
*P req_num_i I
*I *1572:A I *D sky130_fd_sc_hd__clkbuf_1
*CAP
1 req_num_i 0.000502134
2 *1572:A 0.000502134
*RES
1 req_num_i *1572:A 48.2743 
*END

*D_NET *8 0.000462828
*CONN
*P rst_i I
*I *1573:A I *D sky130_fd_sc_hd__clkbuf_1
*CAP
1 rst_i 0.000231414
2 *1573:A 0.000231414
3 *1573:A *334:38 0
*RES
1 rst_i *1573:A 47.4311 
*END

*D_NET *9 0.00103934
*CONN
*P wr_i I
*I *1574:A I *D sky130_fd_sc_hd__clkbuf_1
*CAP
1 wr_i 0.00039398
2 *1574:A 0
3 *9:13 0.00039398
4 *9:13 *1442:CLK 0.000208037
5 *9:13 *207:10 4.334e-05
*RES
1 wr_i *9:13 27.2512 
2 *9:13 *1574:A 23 
*END

*D_NET *10 0.00198573
*CONN
*I *1465:D I *D sky130_fd_sc_hd__dfrtp_1
*I *1321:X O *D sky130_fd_sc_hd__and2b_1
*CAP
1 *1465:D 1.85777e-05
2 *1321:X 0.000446721
3 *10:10 0.000465299
4 *1465:D *193:102 9.04105e-06
5 *10:10 *1321:A_N 7.73389e-05
6 *10:10 *1321:B 5.67058e-05
7 *10:10 *1435:RESET_B 0.000126343
8 *10:10 *178:90 8.58486e-05
9 *10:10 *197:51 0.000327221
10 *10:10 *198:32 0.000241365
11 *10:10 *281:33 0
12 *10:10 *282:37 7.91596e-05
13 *10:10 *301:10 5.21127e-05
*RES
1 *1321:X *10:10 49.9729 
2 *10:10 *1465:D 38.2123 
*END

*D_NET *11 0.00238495
*CONN
*I *1323:B I *D sky130_fd_sc_hd__nand2_1
*I *1322:B I *D sky130_fd_sc_hd__or2_1
*I *1412:D I *D sky130_fd_sc_hd__dfrtp_2
*I *1249:Y O *D sky130_fd_sc_hd__inv_2
*CAP
1 *1323:B 0
2 *1322:B 1.56543e-05
3 *1412:D 0.000583876
4 *1249:Y 0
5 *11:29 0.000327445
6 *11:6 0.000895667
7 *1322:B *1322:A 5.50049e-05
8 *1322:B *1324:B 2.32004e-05
9 *1412:D *1412:RESET_B 2.8521e-05
10 *1412:D *288:10 3.71251e-05
11 *11:29 *1322:A 2.55283e-05
12 *11:29 *1324:B 5.3304e-05
13 *11:29 *1412:RESET_B 0
14 *11:29 *148:21 1.56762e-05
15 *11:29 *169:10 8.30958e-05
16 *11:29 *197:93 0
17 *11:29 *287:34 0.000113095
18 *11:29 *288:10 0
19 *11:29 *289:10 3.35885e-05
20 *11:29 *289:21 5.3304e-05
21 *11:29 *289:28 4.08664e-05
22 *11:29 *289:34 0
*RES
1 *1249:Y *11:6 38 
2 *11:6 *1412:D 48.9786 
3 *11:6 *11:29 21.5043 
4 *11:29 *1322:B 23.6214 
5 *11:29 *1323:B 23 
*END

*D_NET *12 0.00100243
*CONN
*I *1413:D I *D sky130_fd_sc_hd__dfrtp_2
*I *1324:Y O *D sky130_fd_sc_hd__nand2_1
*CAP
1 *1413:D 0.000217331
2 *1324:Y 0.000271184
3 *12:8 0.000488515
4 *12:8 *147:27 2.54046e-05
5 *12:8 *197:93 0
*RES
1 *1324:Y *12:8 41.3143 
2 *12:8 *1413:D 41.9564 
*END

*D_NET *13 0.00107921
*CONN
*I *1516:A I *D sky130_fd_sc_hd__dlygate4sd3_1
*I *1326:X O *D sky130_fd_sc_hd__mux2_1
*CAP
1 *1516:A 0
2 *1326:X 0.000216565
3 *13:10 0.000216565
4 *13:10 *1326:A1 5.50106e-05
5 *13:10 *1394:A1 0.000140259
6 *13:10 *1478:A 2.93845e-05
7 *13:10 *181:14 2.31797e-05
8 *13:10 *181:18 2.07242e-05
9 *13:10 *201:62 2.33476e-05
10 *13:10 *201:78 0.000153501
11 *13:10 *324:6 9.84851e-05
12 *13:10 *324:19 7.02794e-05
13 *13:10 *325:19 3.19093e-05
*RES
1 *1326:X *13:10 44.3179 
2 *13:10 *1516:A 38 
*END

*D_NET *14 0.00143455
*CONN
*I *1407:D I *D sky130_fd_sc_hd__dfrtp_1
*I *1327:X O *D sky130_fd_sc_hd__mux2_1
*CAP
1 *1407:D 0
2 *1327:X 0.000356057
3 *14:10 0.000356057
4 *14:10 *176:26 0.000138718
5 *14:10 *197:51 0.000442771
6 *14:10 *281:33 0.000140949
*RES
1 *1327:X *14:10 44.815 
2 *14:10 *1407:D 38 
*END

*D_NET *15 0.000949736
*CONN
*I *1521:A I *D sky130_fd_sc_hd__dlygate4sd3_1
*I *1328:X O *D sky130_fd_sc_hd__mux2_1
*CAP
1 *1521:A 0
2 *1328:X 0.000326508
3 *15:10 0.000326508
4 *15:10 *1284:A 3.22879e-05
5 *15:10 *111:10 2.31797e-05
6 *15:10 *197:10 0.000129402
7 *15:10 *197:24 0.000111852
8 *15:10 *204:63 0
9 *15:10 *281:23 0
*RES
1 *1328:X *15:10 44.2971 
2 *15:10 *1521:A 38 
*END

*D_NET *16 0.000704904
*CONN
*I *1409:D I *D sky130_fd_sc_hd__dfrtp_4
*I *1341:X O *D sky130_fd_sc_hd__o32a_1
*CAP
1 *1409:D 0
2 *1341:X 0.000264481
3 *16:10 0.000264481
4 *16:10 *1341:A3 3.22879e-05
5 *16:10 *146:78 0
6 *16:10 *157:10 0.000143655
7 *16:10 *178:26 0
*RES
1 *1341:X *16:10 42.4329 
2 *16:10 *1409:D 38 
*END

*D_NET *17 0.000590117
*CONN
*I *1410:D I *D sky130_fd_sc_hd__dfrtp_1
*I *1348:X O *D sky130_fd_sc_hd__o2bb2a_1
*CAP
1 *1410:D 8.54787e-05
2 *1348:X 0.00011948
3 *17:10 0.000204959
4 *1410:D *1410:CLK 7.59794e-05
5 *17:10 *1347:A3 5.67058e-05
6 *17:10 *1348:B2 3.14377e-05
7 *17:10 *146:88 4.6318e-06
8 *17:10 *163:10 1.14452e-05
*RES
1 *1348:X *17:10 40.175 
2 *17:10 *1410:D 39.5743 
*END

*D_NET *18 0.000714199
*CONN
*I *1411:D I *D sky130_fd_sc_hd__dfrtp_1
*I *1355:X O *D sky130_fd_sc_hd__o2bb2a_1
*CAP
1 *1411:D 0.000221978
2 *1355:X 0.000110767
3 *18:8 0.000332745
4 *18:8 *1355:B2 0
5 *18:8 *171:8 1.14452e-05
6 *18:8 *197:93 3.72639e-05
*RES
1 *1355:X *18:8 40.2579 
2 *18:8 *1411:D 41.9564 
*END

*D_NET *19 0.000124612
*CONN
*I *1537:A I *D sky130_fd_sc_hd__dlygate4sd3_1
*I *1356:X O *D sky130_fd_sc_hd__mux2_1
*CAP
1 *1537:A 5.07916e-05
2 *1356:X 5.07916e-05
3 *1537:A *1356:A0 2.30292e-05
*RES
1 *1356:X *1537:A 47.1186 
*END

*D_NET *20 0.000369305
*CONN
*I *1415:D I *D sky130_fd_sc_hd__dfrtp_1
*I *1357:X O *D sky130_fd_sc_hd__mux2_1
*CAP
1 *1415:D 7.20583e-05
2 *1357:X 5.60887e-05
3 *20:8 0.000128147
4 *1415:D *1363:A0 2.44915e-05
5 *20:8 *1357:A1 0
6 *20:8 *184:88 8.85189e-05
*RES
1 *1357:X *20:8 39.2014 
2 *20:8 *1415:D 38.9995 
*END

*D_NET *21 0.00181099
*CONN
*I *1523:A I *D sky130_fd_sc_hd__dlygate4sd3_1
*I *1358:X O *D sky130_fd_sc_hd__mux2_1
*CAP
1 *1523:A 0
2 *1358:X 0.000219312
3 *21:10 0.000219312
4 *21:10 *1264:A 1.22822e-05
5 *21:10 *91:10 0.000135557
6 *21:10 *184:16 0.000180218
7 *21:10 *187:52 0.000573195
8 *21:10 *192:106 6.16531e-05
9 *21:10 *192:117 2.24048e-05
10 *21:10 *194:120 0.000240435
11 *21:10 *316:38 0.000146619
*RES
1 *1358:X *21:10 47.6529 
2 *21:10 *1523:A 38 
*END

*D_NET *22 0.00225859
*CONN
*I *1556:A I *D sky130_fd_sc_hd__dlygate4sd3_1
*I *1359:X O *D sky130_fd_sc_hd__mux2_1
*CAP
1 *1556:A 0
2 *1359:X 0.00046116
3 *22:8 0.00046116
4 *22:8 *1452:CLK 5.50106e-05
5 *22:8 *1452:RESET_B 2.09871e-05
6 *22:8 *201:20 0.000103174
7 *22:8 *201:32 7.44257e-05
8 *22:8 *267:22 0.000139347
9 *22:8 *334:8 0.000625767
10 *22:8 *334:38 0.000317553
*RES
1 *1359:X *22:8 39.3643 
2 *22:8 *1556:A 23 
*END

*D_NET *23 0.00036793
*CONN
*I *1418:D I *D sky130_fd_sc_hd__dfrtp_1
*I *1360:X O *D sky130_fd_sc_hd__mux2_1
*CAP
1 *1418:D 0.000183965
2 *1360:X 0.000183965
*RES
1 *1360:X *1418:D 49.0243 
*END

*D_NET *24 0.0013076
*CONN
*I *1419:D I *D sky130_fd_sc_hd__dfrtp_1
*I *1361:X O *D sky130_fd_sc_hd__mux2_1
*CAP
1 *1419:D 0
2 *1361:X 0.000430571
3 *24:10 0.000430571
4 *24:10 *244:16 0.000446461
*RES
1 *1361:X *24:10 45.7679 
2 *24:10 *1419:D 38 
*END

*D_NET *25 0.00136849
*CONN
*I *1554:A I *D sky130_fd_sc_hd__dlygate4sd3_1
*I *1362:X O *D sky130_fd_sc_hd__mux2_1
*CAP
1 *1554:A 0
2 *1362:X 0.000422132
3 *25:10 0.000422132
4 *25:10 *1362:S 0.000135037
5 *25:10 *1420:RESET_B 5.46706e-05
6 *25:10 *186:74 0.000140259
7 *25:10 *186:98 0.000110207
8 *25:10 *202:53 8.4047e-05
9 *25:10 *220:29 0
*RES
1 *1362:X *25:10 45.7264 
2 *25:10 *1554:A 38 
*END

*D_NET *26 0.00123612
*CONN
*I *1542:A I *D sky130_fd_sc_hd__dlygate4sd3_1
*I *1363:X O *D sky130_fd_sc_hd__mux2_1
*CAP
1 *1542:A 0.00021833
2 *1363:X 0.000171667
3 *26:8 0.000389998
4 *1542:A *220:29 2.64616e-05
5 *26:8 *220:14 0
6 *26:8 *220:29 0.000296017
7 *26:8 *331:27 0.000133645
*RES
1 *1363:X *26:8 42.7229 
2 *26:8 *1542:A 41.9564 
*END

*D_NET *27 0.000855691
*CONN
*I *1422:D I *D sky130_fd_sc_hd__dfrtp_1
*I *1364:X O *D sky130_fd_sc_hd__mux2_1
*CAP
1 *1422:D 7.58967e-05
2 *1364:X 0.000103206
3 *27:8 0.000179103
4 *1422:D *187:131 0.000153054
5 *1422:D *310:31 0.000177909
6 *27:8 *1312:A2_N 0
7 *27:8 *142:12 0
8 *27:8 *195:52 0.000166522
*RES
1 *1364:X *27:8 40.2579 
2 *27:8 *1422:D 41.48 
*END

*D_NET *28 0.000423695
*CONN
*I *1423:D I *D sky130_fd_sc_hd__dfrtp_1
*I *1365:X O *D sky130_fd_sc_hd__mux2_1
*CAP
1 *1423:D 0
2 *1365:X 0.000156686
3 *28:10 0.000156686
4 *28:10 *1425:RESET_B 0
5 *28:10 *176:84 0.00010018
6 *28:10 *183:16 1.01436e-05
7 *28:10 *306:28 0
*RES
1 *1365:X *28:10 40.6514 
2 *28:10 *1423:D 38 
*END

*D_NET *29 0.000947186
*CONN
*I *1544:A I *D sky130_fd_sc_hd__dlygate4sd3_1
*I *1366:X O *D sky130_fd_sc_hd__mux2_1
*CAP
1 *1544:A 0
2 *1366:X 0.000380028
3 *29:10 0.000380028
4 *29:10 *1389:A1 0.000187129
5 *29:10 *330:35 0
*RES
1 *1366:X *29:10 44.7736 
2 *29:10 *1544:A 38 
*END

*D_NET *30 0.000597228
*CONN
*I *1425:D I *D sky130_fd_sc_hd__dfrtp_1
*I *1367:X O *D sky130_fd_sc_hd__mux2_1
*CAP
1 *1425:D 0
2 *1367:X 0.000140616
3 *30:10 0.000140616
4 *30:10 *1367:A1 9.41704e-05
5 *30:10 *104:14 0.000110913
6 *30:10 *190:46 0.000110913
*RES
1 *1367:X *30:10 40.6514 
2 *30:10 *1425:D 38 
*END

*D_NET *31 0.00130594
*CONN
*I *1565:A I *D sky130_fd_sc_hd__dlygate4sd3_1
*I *1368:X O *D sky130_fd_sc_hd__mux2_1
*CAP
1 *1565:A 0
2 *1368:X 0.000404698
3 *31:10 0.000404698
4 *31:10 *1368:A0 9.58714e-05
5 *31:10 *188:59 0.00035793
6 *31:10 *281:113 0
7 *31:10 *302:40 4.27467e-05
8 *31:10 *305:10 0
*RES
1 *1368:X *31:10 45.7264 
2 *31:10 *1565:A 38 
*END

*D_NET *32 0.00062157
*CONN
*I *1527:A I *D sky130_fd_sc_hd__dlygate4sd3_1
*I *1369:X O *D sky130_fd_sc_hd__mux2_1
*CAP
1 *1527:A 0.0001686
2 *1369:X 0.0001686
3 *1527:A *188:59 9.84794e-05
4 *1527:A *194:89 0.000129185
5 *1527:A *238:10 5.67058e-05
*RES
1 *1369:X *1527:A 49.9771 
*END

*D_NET *33 0.000546573
*CONN
*I *1428:D I *D sky130_fd_sc_hd__dfrtp_1
*I *1370:X O *D sky130_fd_sc_hd__mux2_1
*CAP
1 *1428:D 0
2 *1370:X 0.000153837
3 *33:10 0.000153837
4 *33:10 *109:20 0.00010018
5 *33:10 *200:10 0.000138718
*RES
1 *1370:X *33:10 41.0036 
2 *33:10 *1428:D 38 
*END

*D_NET *34 0.0014325
*CONN
*I *1546:A I *D sky130_fd_sc_hd__dlygate4sd3_1
*I *1371:X O *D sky130_fd_sc_hd__mux2_1
*CAP
1 *1546:A 0
2 *1371:X 0.000194499
3 *34:8 0.000194499
4 *34:8 *1260:C1 5.12254e-05
5 *34:8 *1545:A 0.000145611
6 *34:8 *189:61 0.000701917
7 *34:8 *190:81 4.45667e-05
8 *34:8 *257:6 0.00010018
*RES
1 *1371:X *34:8 31.265 
2 *34:8 *1546:A 23 
*END

*D_NET *35 0.000850925
*CONN
*I *1431:D I *D sky130_fd_sc_hd__dfrtp_1
*I *1372:X O *D sky130_fd_sc_hd__mux2_1
*CAP
1 *1431:D 0.000302927
2 *1372:X 5.94923e-05
3 *35:8 0.000362419
4 *1431:D *180:83 3.98085e-05
5 *35:8 *1512:A 8.62783e-05
6 *35:8 *200:64 0
*RES
1 *1372:X *35:8 39.2014 
2 *35:8 *1431:D 42.0238 
*END

*D_NET *36 0.000170534
*CONN
*I *1534:A I *D sky130_fd_sc_hd__dlygate4sd3_1
*I *1373:X O *D sky130_fd_sc_hd__mux2_1
*CAP
1 *1534:A 2.65058e-05
2 *1373:X 2.65058e-05
3 *1534:A *109:12 6.81213e-05
4 *1534:A *262:28 4.94008e-05
*RES
1 *1373:X *1534:A 47.1186 
*END

*D_NET *37 0.000998601
*CONN
*I *1433:D I *D sky130_fd_sc_hd__dfrtp_1
*I *1374:X O *D sky130_fd_sc_hd__mux2_1
*CAP
1 *1433:D 0
2 *1374:X 0.0002738
3 *37:10 0.0002738
4 *37:10 *1433:CLK 4.2361e-05
5 *37:10 *1551:A 0.000138708
6 *37:10 *179:19 2.76611e-06
7 *37:10 *251:29 0.000267167
*RES
1 *1374:X *37:10 42.9093 
2 *37:10 *1433:D 38 
*END

*D_NET *38 0.000930291
*CONN
*I *1434:D I *D sky130_fd_sc_hd__dfrtp_1
*I *1375:X O *D sky130_fd_sc_hd__mux2_1
*CAP
1 *1434:D 0.000158651
2 *1375:X 0.000226294
3 *38:8 0.000384945
4 *1434:D *1434:RESET_B 0.000144494
5 *1434:D *179:23 1.59071e-05
6 *38:8 *251:31 0
7 *38:8 *251:87 0
*RES
1 *1375:X *38:8 42.0186 
2 *38:8 *1434:D 40.5479 
*END

*D_NET *39 0.00100466
*CONN
*I *1540:A I *D sky130_fd_sc_hd__dlygate4sd3_1
*I *1376:X O *D sky130_fd_sc_hd__mux2_1
*CAP
1 *1540:A 0
2 *1376:X 0.000276343
3 *39:10 0.000276343
4 *39:10 *1376:A0 2.4754e-05
5 *39:10 *262:28 0
6 *39:10 *298:21 0.000224605
7 *39:10 *298:29 0.000138727
8 *39:10 *301:16 6.38845e-05
*RES
1 *1376:X *39:10 42.9093 
2 *39:10 *1540:A 38 
*END

*D_NET *40 0.000511648
*CONN
*I *1436:D I *D sky130_fd_sc_hd__dfrtp_1
*I *1377:X O *D sky130_fd_sc_hd__mux2_1
*CAP
1 *1436:D 0
2 *1377:X 0.000183997
3 *40:10 0.000183997
4 *40:10 *1437:CLK 0.000143655
5 *40:10 *179:46 0
6 *40:10 *199:64 0
*RES
1 *1377:X *40:10 41.1279 
2 *40:10 *1436:D 38 
*END

*D_NET *41 0.000360413
*CONN
*I *1437:D I *D sky130_fd_sc_hd__dfrtp_1
*I *1378:X O *D sky130_fd_sc_hd__mux2_1
*CAP
1 *1437:D 2.1093e-05
2 *1378:X 0.000129739
3 *41:8 0.000150832
4 *1437:D *263:28 2.93747e-05
5 *1437:D *326:18 2.93747e-05
6 *41:8 *1375:A1 0
7 *41:8 *1378:A0 0
8 *41:8 *218:19 0
*RES
1 *1378:X *41:8 39.9057 
2 *41:8 *1437:D 38.6214 
*END

*D_NET *42 0.00110334
*CONN
*I *1550:A I *D sky130_fd_sc_hd__dlygate4sd3_1
*I *1379:X O *D sky130_fd_sc_hd__mux2_1
*CAP
1 *1550:A 0
2 *1379:X 0.000395221
3 *42:14 0.000395221
4 *42:14 *1379:A0 0.000106277
5 *42:14 *260:8 0.000206616
6 *42:14 *262:42 0
*RES
1 *1379:X *42:14 45.54 
2 *42:14 *1550:A 38 
*END

*D_NET *43 0.000513292
*CONN
*I *1440:D I *D sky130_fd_sc_hd__dfrtp_1
*I *1380:X O *D sky130_fd_sc_hd__mux2_1
*CAP
1 *1440:D 0
2 *1380:X 0.000256646
3 *43:10 0.000256646
*RES
1 *1380:X *43:10 41.6043 
2 *43:10 *1440:D 38 
*END

*D_NET *44 0.00047576
*CONN
*I *1441:D I *D sky130_fd_sc_hd__dfrtp_1
*I *1381:X O *D sky130_fd_sc_hd__mux2_1
*CAP
1 *1441:D 0.000184332
2 *1381:X 0.000184332
3 *1441:D *1441:CLK 5.41288e-05
4 *3:19 *1441:D 5.29672e-05
*RES
1 *1381:X *1441:D 49.0243 
*END

*D_NET *45 0.000758184
*CONN
*I *1442:D I *D sky130_fd_sc_hd__dfrtp_1
*I *1382:X O *D sky130_fd_sc_hd__mux2_1
*CAP
1 *1442:D 0
2 *1382:X 0.000229333
3 *45:10 0.000229333
4 *45:10 *1442:CLK 0
5 *45:10 *193:35 0.000299517
*RES
1 *1382:X *45:10 42.0807 
2 *45:10 *1442:D 38 
*END

*D_NET *46 0.000751663
*CONN
*I *1443:D I *D sky130_fd_sc_hd__dfrtp_1
*I *1383:X O *D sky130_fd_sc_hd__or2_1
*CAP
1 *1443:D 0
2 *1383:X 0.000311636
3 *46:10 0.000311636
4 *46:10 *1444:CLK 0.000128391
5 *46:10 *179:44 0
*RES
1 *1383:X *46:10 43.1371 
2 *46:10 *1443:D 38 
*END

*D_NET *47 0.000620867
*CONN
*I *1444:D I *D sky130_fd_sc_hd__dfrtp_1
*I *1384:X O *D sky130_fd_sc_hd__mux2_1
*CAP
1 *1444:D 0
2 *1384:X 0.000265382
3 *47:10 0.000265382
4 *47:10 *251:108 9.01041e-05
*RES
1 *1384:X *47:10 42.0807 
2 *47:10 *1444:D 38 
*END

*D_NET *48 0.000926166
*CONN
*I *1445:D I *D sky130_fd_sc_hd__dfrtp_1
*I *1385:X O *D sky130_fd_sc_hd__mux2_1
*CAP
1 *1445:D 0
2 *1385:X 0.000282696
3 *48:10 0.000282696
4 *48:10 *179:29 3.81391e-05
5 *48:10 *219:27 0.000322634
*RES
1 *1385:X *48:10 43.0336 
2 *48:10 *1445:D 38 
*END

*D_NET *49 0.000131565
*CONN
*I *1513:A I *D sky130_fd_sc_hd__dlygate4sd3_1
*I *1386:X O *D sky130_fd_sc_hd__mux2_1
*CAP
1 *1513:A 4.96387e-05
2 *1386:X 4.96387e-05
3 *1513:A *251:126 3.22879e-05
*RES
1 *1386:X *1513:A 47.1186 
*END

*D_NET *50 0.000597129
*CONN
*I *1447:D I *D sky130_fd_sc_hd__dfrtp_1
*I *1387:X O *D sky130_fd_sc_hd__mux2_1
*CAP
1 *1447:D 5.28462e-05
2 *1387:X 0.000106169
3 *50:8 0.000159015
4 *1447:D *1447:CLK 0.000128391
5 *1447:D *1447:RESET_B 0.000125304
6 *50:8 *1447:CLK 2.54046e-05
7 *50:8 *1447:RESET_B 0
*RES
1 *1387:X *50:8 39.9057 
2 *50:8 *1447:D 40.5271 
*END

*D_NET *51 0.00097346
*CONN
*I *1448:D I *D sky130_fd_sc_hd__dfrtp_1
*I *1388:X O *D sky130_fd_sc_hd__mux2_1
*CAP
1 *1448:D 0.000361696
2 *1388:X 0.000110774
3 *51:8 0.00047247
4 *1448:D *1448:RESET_B 2.8521e-05
5 *51:8 *186:114 0
*RES
1 *1388:X *51:8 39.9057 
2 *51:8 *1448:D 44.815 
*END

*D_NET *52 0.000855486
*CONN
*I *1509:A I *D sky130_fd_sc_hd__dlygate4sd3_1
*I *1389:X O *D sky130_fd_sc_hd__mux2_1
*CAP
1 *1509:A 0.000145008
2 *1389:X 0.000234544
3 *52:8 0.000379552
4 *52:8 *183:96 0
5 *52:8 *220:14 0
6 *52:8 *221:10 9.63815e-05
7 *52:8 *312:12 0
*RES
1 *1389:X *52:8 42.7229 
2 *52:8 *1509:A 40.5271 
*END

*D_NET *53 0.00038914
*CONN
*I *1450:D I *D sky130_fd_sc_hd__dfrtp_1
*I *1390:X O *D sky130_fd_sc_hd__mux2_1
*CAP
1 *1450:D 0
2 *1390:X 0.000131544
3 *53:10 0.000131544
4 *53:10 *1357:S 0
5 *53:10 *186:74 5.67058e-05
6 *53:10 *194:110 6.93449e-05
*RES
1 *1390:X *53:10 40.5271 
2 *53:10 *1450:D 38 
*END

*D_NET *54 0.000754934
*CONN
*I *1504:A I *D sky130_fd_sc_hd__dlygate4sd3_1
*I *1391:X O *D sky130_fd_sc_hd__mux2_1
*CAP
1 *1504:A 0.000134383
2 *1391:X 0.000134383
3 *1504:A *191:59 0.000182826
4 *1504:A *273:126 0.000303342
*RES
1 *1391:X *1504:A 49.9771 
*END

*D_NET *55 0.00132083
*CONN
*I *1452:D I *D sky130_fd_sc_hd__dfrtp_1
*I *1392:X O *D sky130_fd_sc_hd__mux2_1
*CAP
1 *1452:D 0
2 *1392:X 0.000367363
3 *55:10 0.000367363
4 *55:10 *64:8 4.95339e-05
5 *55:10 *182:70 0
6 *55:10 *201:32 1.14452e-05
7 *55:10 *203:22 0.000441076
8 *55:10 *267:22 8.4047e-05
*RES
1 *1392:X *55:10 44.4629 
2 *55:10 *1452:D 38 
*END

*D_NET *56 0.000610484
*CONN
*I *1506:A I *D sky130_fd_sc_hd__dlygate4sd3_1
*I *1393:X O *D sky130_fd_sc_hd__mux2_1
*CAP
1 *1506:A 8.97235e-05
2 *1393:X 7.31448e-05
3 *56:8 0.000162868
4 *1506:A *176:73 9.62764e-05
5 *1506:A *334:8 5.12254e-05
6 *56:8 *1294:C1 2.70366e-05
7 *56:8 *1393:A1 4.334e-05
8 *56:8 *292:29 6.6869e-05
*RES
1 *1393:X *56:8 39.9057 
2 *56:8 *1506:A 40.0507 
*END

*D_NET *57 0.000647671
*CONN
*I *1570:A I *D sky130_fd_sc_hd__dlygate4sd3_1
*I *1394:X O *D sky130_fd_sc_hd__mux2_1
*CAP
1 *1570:A 0
2 *1394:X 0.00029431
3 *57:8 0.00029431
4 *57:8 *197:24 4.04598e-06
5 *57:8 *213:10 5.50049e-05
*RES
1 *1394:X *57:8 27.3293 
2 *57:8 *1570:A 23 
*END

*D_NET *58 0.00076031
*CONN
*I *1455:D I *D sky130_fd_sc_hd__dfrtp_1
*I *1395:X O *D sky130_fd_sc_hd__mux2_1
*CAP
1 *1455:D 0
2 *1395:X 0.00017402
3 *58:8 0.00017402
4 *58:8 *93:10 8.93766e-05
5 *58:8 *189:153 0
6 *58:8 *332:33 0.000322892
*RES
1 *1395:X *58:8 42.3707 
2 *58:8 *1455:D 38 
*END

*D_NET *59 0.000340022
*CONN
*I *1456:D I *D sky130_fd_sc_hd__dfrtp_1
*I *1396:X O *D sky130_fd_sc_hd__mux2_1
*CAP
1 *1456:D 0
2 *1396:X 0.000158496
3 *59:10 0.000158496
4 *59:10 *186:84 2.30292e-05
5 *59:10 *203:81 0
6 *59:10 *315:23 0
*RES
1 *1396:X *59:10 40.5271 
2 *59:10 *1456:D 38 
*END

*D_NET *60 0.00102415
*CONN
*I *1530:A I *D sky130_fd_sc_hd__dlygate4sd3_1
*I *1397:X O *D sky130_fd_sc_hd__mux2_1
*CAP
1 *1530:A 0
2 *1397:X 0.000419809
3 *60:10 0.000419809
4 *60:10 *1457:CLK 0
5 *60:10 *182:26 0
6 *60:10 *273:126 0
7 *60:10 *316:24 0.000184527
*RES
1 *1397:X *60:10 44.7736 
2 *60:10 *1530:A 38 
*END

*D_NET *61 0.000709941
*CONN
*I *1459:D I *D sky130_fd_sc_hd__dfrtp_4
*I *1398:Y O *D sky130_fd_sc_hd__xnor2_1
*CAP
1 *1459:D 0
2 *1398:Y 0.000263982
3 *61:8 0.000263982
4 *61:8 *74:6 0.00010018
5 *61:8 *178:26 8.1796e-05
*RES
1 *1398:Y *61:8 28.8829 
2 *61:8 *1459:D 23 
*END

*D_NET *62 0.00178699
*CONN
*I *1460:D I *D sky130_fd_sc_hd__dfrtp_4
*I *1401:Y O *D sky130_fd_sc_hd__nor2_1
*CAP
1 *1460:D 0.000166318
2 *1401:Y 0.00070165
3 *62:10 0.000867968
4 *62:10 *1460:CLK 0
5 *62:10 *146:46 2.38288e-05
6 *62:10 *181:37 0
7 *62:10 *197:10 2.72257e-05
8 *62:10 *198:44 0
9 *62:10 *198:50 0
*RES
1 *1401:Y *62:10 47.9843 
2 *62:10 *1460:D 41.0036 
*END

*D_NET *63 0.00160915
*CONN
*I *1461:D I *D sky130_fd_sc_hd__dfrtp_2
*I *1402:Y O *D sky130_fd_sc_hd__xnor2_1
*CAP
1 *1461:D 0
2 *1402:Y 0.000646805
3 *63:14 0.000646805
4 *63:14 *1400:A2 0.000191132
5 *63:14 *1461:RESET_B 5.66348e-05
6 *63:14 *146:23 6.77695e-05
*RES
1 *1402:Y *63:14 33.8336 
2 *63:14 *1461:D 23 
*END

*D_NET *64 0.00154853
*CONN
*I *1462:D I *D sky130_fd_sc_hd__dfrtp_1
*I *1403:X O *D sky130_fd_sc_hd__mux2_1
*CAP
1 *1462:D 9.55608e-05
2 *1403:X 0.000513354
3 *64:8 0.000608915
4 *64:8 *182:76 0
5 *64:8 *182:89 0
6 *64:8 *201:32 0.000188926
7 *64:8 *267:10 0
8 *64:8 *267:22 6.68211e-05
9 *64:8 *270:8 2.5415e-05
10 *55:10 *64:8 4.95339e-05
*RES
1 *1403:X *64:8 48.005 
2 *64:8 *1462:D 39.5743 
*END

*D_NET *65 0.000151466
*CONN
*I *1559:A I *D sky130_fd_sc_hd__dlygate4sd3_1
*I *1404:X O *D sky130_fd_sc_hd__mux2_1
*CAP
1 *1559:A 6.10406e-05
2 *1404:X 6.10406e-05
3 *1559:A *321:44 2.93845e-05
*RES
1 *1404:X *1559:A 47.1186 
*END

*D_NET *66 0.000599354
*CONN
*I *1464:D I *D sky130_fd_sc_hd__dfrtp_1
*I *1405:X O *D sky130_fd_sc_hd__mux2_1
*CAP
1 *1464:D 0
2 *1405:X 0.00015084
3 *66:10 0.00015084
4 *66:10 *1419:CLK 4.21594e-06
5 *66:10 *176:73 3.17634e-05
6 *66:10 *182:26 5.15848e-05
7 *66:10 *201:44 1.14452e-05
8 *66:10 *244:16 0
9 *66:10 *320:20 5.67058e-05
10 *66:10 *334:8 0.00014196
*RES
1 *1405:X *66:10 41.8321 
2 *66:10 *1464:D 38 
*END

*D_NET *67 0.00420957
*CONN
*I *1487:A I *D sky130_fd_sc_hd__clkbuf_2
*I *1486:A I *D sky130_fd_sc_hd__buf_2
*I *1239:Y O *D sky130_fd_sc_hd__inv_2
*CAP
1 *1487:A 0
2 *1486:A 0.000304342
3 *1239:Y 0.000325367
4 *67:35 0.000256104
5 *67:14 0.000768299
6 *67:10 0.00053322
7 *1486:A *190:46 9.84851e-05
8 *1486:A *195:44 7.00898e-05
9 *1486:A *195:52 0.000237285
10 *67:10 *1418:CLK 0
11 *67:10 *192:81 0.000487153
12 *67:10 *201:78 4.2361e-05
13 *67:14 *195:52 0.000262858
14 *67:35 *1244:A 9.675e-05
15 *67:35 *1276:A1 8.21123e-05
16 *67:35 *103:10 8.21123e-05
17 *67:35 *122:14 5.3304e-05
18 *67:35 *191:10 0.000338944
19 *67:35 *191:32 7.70737e-05
20 *67:35 *193:127 5.3304e-05
21 *67:35 *291:31 4.04039e-05
*RES
1 *1239:Y *67:10 45.2914 
2 *67:10 *67:14 18.0036 
3 *67:14 *1486:A 28.9243 
4 *67:14 *67:35 37.4571 
5 *67:35 *1487:A 23 
*END

*D_NET *68 0.00114007
*CONN
*I *1266:A1 I *D sky130_fd_sc_hd__o221a_1
*I *1240:Y O *D sky130_fd_sc_hd__inv_2
*CAP
1 *1266:A1 0
2 *1240:Y 0.000158256
3 *68:8 0.000158256
4 *68:8 *1266:A2 2.02517e-05
5 *68:8 *1266:C1 0.000434942
6 *68:8 *1291:A 9.41704e-05
7 *68:8 *1291:C_N 9.84851e-05
8 *68:8 *93:10 5.06321e-05
9 *68:8 *118:8 2.65879e-05
10 *68:8 *315:39 5.50106e-05
11 *68:8 *332:33 4.34745e-05
*RES
1 *1240:Y *68:8 28.8829 
2 *68:8 *1266:A1 23 
*END

*D_NET *69 0.00384271
*CONN
*I *1309:B2 I *D sky130_fd_sc_hd__a22o_1
*I *1310:A1 I *D sky130_fd_sc_hd__o221a_1
*I *1485:A I *D sky130_fd_sc_hd__buf_2
*I *1241:Y O *D sky130_fd_sc_hd__inv_2
*CAP
1 *1309:B2 0.000275702
2 *1310:A1 0
3 *1485:A 0
4 *1241:Y 0
5 *69:29 0.000464658
6 *69:18 0.00063895
7 *69:4 0.000827906
8 *1309:B2 *1404:A1 1.44546e-05
9 *1309:B2 *136:10 0.000114074
10 *1309:B2 *137:8 8.92841e-05
11 *1309:B2 *184:16 5.50106e-05
12 *1309:B2 *187:52 2.71291e-05
13 *1309:B2 *192:106 0
14 *1309:B2 *192:117 2.76611e-06
15 *1309:B2 *318:22 0.000103225
16 *69:18 *1360:A1 0.000184527
17 *69:18 *1404:S 0.000351519
18 *69:18 *182:16 6.81645e-05
19 *69:18 *182:26 6.12496e-06
20 *69:18 *273:31 0.000268165
21 *69:18 *273:38 0.000137651
22 *69:18 *316:24 2.18409e-05
23 *69:29 *1404:A1 6.11327e-05
24 *69:29 *1404:S 0.000130423
25 *69:29 *192:106 0
*RES
1 *1241:Y *69:4 23 
2 *69:4 *69:18 41.31 
3 *69:18 *1485:A 23 
4 *69:4 *69:29 19.1843 
5 *69:29 *1310:A1 38 
6 *69:29 *1309:B2 44.4007 
*END

*D_NET *70 0.00981149
*CONN
*I *1287:A1 I *D sky130_fd_sc_hd__a211o_1
*I *1305:A1 I *D sky130_fd_sc_hd__o211a_1
*I *1303:A1_N I *D sky130_fd_sc_hd__o2bb2a_1
*I *1312:A1_N I *D sky130_fd_sc_hd__o2bb2a_1
*I *1316:A1 I *D sky130_fd_sc_hd__o211a_1
*I *1285:B2 I *D sky130_fd_sc_hd__o22ai_1
*I *1242:Y O *D sky130_fd_sc_hd__inv_2
*CAP
1 *1287:A1 0.000185405
2 *1305:A1 1.26784e-05
3 *1303:A1_N 0.000115006
4 *1312:A1_N 0.000190986
5 *1316:A1 0
6 *1285:B2 0
7 *1242:Y 0.000516947
8 *70:65 0.000392931
9 *70:39 0.000946139
10 *70:31 0.00136433
11 *70:27 0.000827015
12 *70:16 0.000123105
13 *70:10 0.000937737
14 *1287:A1 *1287:A2 0.000193825
15 *1287:A1 *291:12 5.3304e-05
16 *1303:A1_N *1305:B1 5.2894e-05
17 *1303:A1_N *99:6 1.66782e-05
18 *1303:A1_N *190:58 1.17065e-05
19 *1303:A1_N *304:25 0
20 *1303:A1_N *304:42 0.00029867
21 *1305:A1 *304:42 1.14154e-05
22 *1312:A1_N *1312:B2 4.08641e-05
23 *1312:A1_N *1367:S 0
24 *1312:A1_N *1422:CLK 0.000273795
25 *1312:A1_N *1425:RESET_B 0.000212621
26 *1312:A1_N *187:131 0.000124577
27 *1312:A1_N *191:32 3.47776e-05
28 *1312:A1_N *308:22 5.50049e-05
29 *70:10 *1242:A 0.000566018
30 *70:10 *262:10 1.32939e-05
31 *70:16 *1287:A2 9.28842e-05
32 *70:16 *190:26 1.83667e-05
33 *70:16 *211:8 4.06408e-05
34 *70:27 *1242:A 2.93845e-05
35 *70:27 *1287:A2 0.000310872
36 *70:27 *1318:C 3.98834e-05
37 *70:31 *1318:C 0.000287454
38 *70:31 *105:12 4.00514e-05
39 *70:31 *144:8 0.000292865
40 *70:31 *176:10 0.000175143
41 *70:31 *176:84 0.000168341
42 *70:39 *1317:D 0.000241303
43 *70:39 *1425:RESET_B 0.000135557
44 *70:39 *191:32 6.68793e-05
45 *70:65 *1538:A 0.000139357
46 *70:65 *99:6 5.61255e-06
47 *70:65 *105:12 3.14377e-05
48 *70:65 *176:84 5.31444e-05
49 *70:65 *249:14 6.68822e-05
50 *70:65 *304:42 3.7122e-06
*RES
1 *1242:Y *70:10 31.8864 
2 *70:10 *70:16 32.61 
3 *70:16 *1285:B2 23 
4 *70:10 *70:27 6.02786 
5 *70:27 *70:31 24.6529 
6 *70:31 *70:39 40.6264 
7 *70:39 *1316:A1 38 
8 *70:39 *1312:A1_N 44.4784 
9 *70:31 *70:65 20.0336 
10 *70:65 *1303:A1_N 26.6716 
11 *70:65 *1305:A1 23.4971 
12 *70:27 *1287:A1 27.1429 
*END

*D_NET *71 0.00182883
*CONN
*I *1294:A2 I *D sky130_fd_sc_hd__o221a_1
*I *1293:A2 I *D sky130_fd_sc_hd__a22o_1
*I *1243:Y O *D sky130_fd_sc_hd__inv_2
*CAP
1 *1294:A2 0.000103547
2 *1293:A2 0
3 *1243:Y 0.000272882
4 *71:16 0.000141948
5 *71:10 0.000311282
6 *1294:A2 *1293:A1 0.000324584
7 *1294:A2 *1294:B1 0.000129909
8 *1294:A2 *121:10 9.24795e-06
9 *1294:A2 *189:18 2.93747e-05
10 *71:10 *176:73 0.00010018
11 *71:10 *182:26 0.000315236
12 *71:10 *192:87 0
13 *71:10 *241:17 0
14 *71:10 *244:10 0
15 *71:16 *1293:A1 1.21972e-05
16 *71:16 *1293:B1 9.72057e-06
17 *71:16 *1294:B1 6.8722e-05
*RES
1 *1243:Y *71:10 43.8207 
2 *71:10 *71:16 16.1186 
3 *71:16 *1293:A2 23 
4 *71:16 *1294:A2 27.6296 
*END

*D_NET *72 0.000852332
*CONN
*I *1277:A2 I *D sky130_fd_sc_hd__o211a_1
*I *1244:Y O *D sky130_fd_sc_hd__inv_2
*CAP
1 *1277:A2 0
2 *1244:Y 0.000169582
3 *72:8 0.000169582
4 *72:8 *1244:A 0.00021076
5 *72:8 *190:46 0.000167059
6 *72:8 *291:31 0.00013535
*RES
1 *1244:Y *72:8 42.7229 
2 *72:8 *1277:A2 38 
*END

*D_NET *73 0.00358101
*CONN
*I *1286:C1 I *D sky130_fd_sc_hd__a221o_1
*I *1245:Y O *D sky130_fd_sc_hd__inv_2
*CAP
1 *1286:C1 0
2 *1245:Y 0.00104402
3 *73:12 0.000280376
4 *73:6 0.0013244
5 *73:6 *1328:A0 0.000300153
6 *73:6 *1406:D 6.70017e-05
7 *73:6 *1505:A 9.13962e-05
8 *73:12 *111:10 0.000111792
9 *73:12 *197:24 0
10 *73:12 *204:63 3.39335e-05
11 *73:12 *262:132 0.000192385
12 *73:12 *295:8 0.000135557
*RES
1 *1245:Y *73:6 37.4379 
2 *73:6 *73:12 36.4836 
3 *73:12 *1286:C1 23 
*END

*D_NET *74 0.00133226
*CONN
*I *1337:A1 I *D sky130_fd_sc_hd__a211o_1
*I *1334:A I *D sky130_fd_sc_hd__nor2_1
*I *1398:A I *D sky130_fd_sc_hd__xnor2_1
*I *1246:Y O *D sky130_fd_sc_hd__inv_2
*CAP
1 *1337:A1 0
2 *1334:A 5.41684e-05
3 *1398:A 0
4 *1246:Y 0.000136403
5 *74:30 9.62673e-05
6 *74:15 0.000278427
7 *74:6 0.000264394
8 *1334:A *1334:B 0
9 *1334:A *155:10 3.22465e-05
10 *74:6 *1334:B 5.40876e-05
11 *74:15 *1334:B 0.000169122
12 *74:30 *146:108 6.28499e-05
13 *74:30 *155:10 8.41115e-05
14 *61:8 *74:6 0.00010018
*RES
1 *1246:Y *74:6 26.0036 
2 *74:6 *1398:A 23 
3 *74:6 *74:15 3.02429 
4 *74:15 *1334:A 24.1186 
5 *74:15 *74:30 32.2579 
6 *74:30 *1337:A1 23 
*END

*D_NET *75 0.00509184
*CONN
*I *1402:A I *D sky130_fd_sc_hd__xnor2_1
*I *1329:A I *D sky130_fd_sc_hd__nor2_1
*I *1343:A1 I *D sky130_fd_sc_hd__a22o_1
*I *1334:B I *D sky130_fd_sc_hd__nor2_1
*I *1247:Y O *D sky130_fd_sc_hd__inv_2
*CAP
1 *1402:A 0.000121325
2 *1329:A 0.000127429
3 *1343:A1 0
4 *1334:B 0.000410814
5 *1247:Y 0
6 *75:31 0.00023897
7 *75:10 0.00107519
8 *75:4 0.000674163
9 *1329:A *150:29 9.20311e-06
10 *1329:A *286:66 8.16356e-05
11 *1334:B *146:108 0.000166513
12 *1334:B *148:29 1.08978e-05
13 *1334:B *150:29 1.62015e-05
14 *1334:B *158:10 1.00084e-05
15 *1334:B *285:50 0
16 *1402:A *1400:A2 0.000158559
17 *1402:A *287:12 0.000329568
18 *75:10 *147:29 0.000441076
19 *75:10 *147:44 0.000566289
20 *75:10 *152:10 5.50106e-05
21 *75:10 *165:10 5.50106e-05
22 *75:10 *287:12 6.6426e-05
23 *75:10 *287:20 1.32939e-05
24 *75:31 *1343:B1 8.50457e-05
25 *75:31 *150:29 5.58171e-05
26 *75:31 *158:10 0.000100176
27 *1334:A *1334:B 0
28 *74:6 *1334:B 5.40876e-05
29 *74:15 *1334:B 0.000169122
*RES
1 *1247:Y *75:4 23 
2 *75:4 *75:10 27.5529 
3 *75:10 *1334:B 46.7829 
4 *75:10 *75:31 2.61 
5 *75:31 *1343:A1 38 
6 *75:31 *1329:A 40.61 
7 *75:4 *1402:A 27.4536 
*END

*D_NET *76 0.00224814
*CONN
*I *1330:B I *D sky130_fd_sc_hd__nor2_1
*I *1339:A2 I *D sky130_fd_sc_hd__a22o_1
*I *1345:A2 I *D sky130_fd_sc_hd__a211o_1
*I *1248:Y O *D sky130_fd_sc_hd__inv_2
*CAP
1 *1330:B 6.38331e-05
2 *1339:A2 0
3 *1345:A2 0.000124085
4 *1248:Y 0.000135393
5 *76:33 0.000104158
6 *76:10 0.000283259
7 *76:8 0.000254242
8 *1330:B *1347:A2 1.14452e-05
9 *1330:B *151:22 0.000125413
10 *1330:B *165:10 0.000135557
11 *1345:A2 *147:44 9.84794e-05
12 *1345:A2 *159:12 1.85961e-05
13 *1345:A2 *165:10 0.000108681
14 *1345:A2 *178:26 3.3746e-05
15 *1345:A2 *285:33 0.00010018
16 *1345:A2 *287:63 4.73689e-05
17 *76:8 *1339:B1 2.17429e-05
18 *76:8 *1339:B2 3.4126e-05
19 *76:10 *151:22 9.3211e-05
20 *76:10 *159:12 1.02249e-06
21 *76:10 *165:10 0.000110642
22 *76:33 *1339:A1 2.09226e-05
23 *76:33 *1339:B1 9.41704e-05
24 *76:33 *159:12 0.000141349
25 *76:33 *178:26 5.79427e-05
26 *76:33 *285:33 1.83667e-05
27 *76:33 *285:64 1.02029e-05
*RES
1 *1248:Y *76:8 39.5743 
2 *76:8 *76:10 1.55357 
3 *76:10 *1345:A2 41.7079 
4 *76:10 *76:33 47.6929 
5 *76:33 *1339:A2 23 
6 *76:8 *1330:B 39.9057 
*END

*D_NET *77 0.00176412
*CONN
*I *1280:A2 I *D sky130_fd_sc_hd__a22o_1
*I *1281:A2 I *D sky130_fd_sc_hd__o221a_1
*I *1250:Y O *D sky130_fd_sc_hd__inv_2
*CAP
1 *1280:A2 0
2 *1281:A2 0
3 *1250:Y 0.000321146
4 *77:29 0.000340124
5 *77:12 0.000340124
6 *77:10 0.000321146
7 *77:10 *1281:B1 3.35885e-06
8 *77:10 *1380:S 0
9 *77:10 *229:36 4.39444e-06
10 *77:10 *229:57 0
11 *77:10 *251:45 8.10857e-05
12 *77:10 *281:80 1.83667e-05
13 *77:10 *323:10 0
14 *77:29 *1281:B1 4.5051e-05
15 *77:29 *1281:B2 0.000182544
16 *77:29 *229:57 1.02799e-05
17 *77:29 *281:66 9.65021e-05
*RES
1 *1250:Y *77:10 42.785 
2 *77:10 *77:12 15 
3 *77:12 *1281:A2 23 
4 *77:12 *77:29 35.22 
5 *77:29 *1280:A2 23 
*END

*D_NET *78 0.0014458
*CONN
*I *1299:B1 I *D sky130_fd_sc_hd__o221a_1
*I *1298:B1 I *D sky130_fd_sc_hd__a22o_1
*I *1251:Y O *D sky130_fd_sc_hd__inv_2
*CAP
1 *1299:B1 0.000219307
2 *1298:B1 0.000152767
3 *1251:Y 6.78793e-05
4 *78:8 0.000439953
5 *1298:B1 *1298:A2 7.53384e-06
6 *1298:B1 *1298:B2 5.50049e-05
7 *1298:B1 *1528:A 6.17437e-06
8 *1299:B1 *1251:A 5.25479e-05
9 *1299:B1 *194:32 0
10 *1299:B1 *194:43 0
11 *1299:B1 *251:41 2.3007e-05
12 *1299:B1 *263:28 0.00014196
13 *1299:B1 *297:8 0.000139713
14 *1299:B1 *326:18 2.53879e-05
15 *78:8 *1251:A 0.000114566
16 *78:8 *194:32 0
*RES
1 *1251:Y *78:8 39.5536 
2 *78:8 *1298:B1 40.5271 
3 *78:8 *1299:B1 43.3857 
*END

*D_NET *79 0.000527205
*CONN
*I *1304:A2 I *D sky130_fd_sc_hd__o221a_1
*I *1252:Y O *D sky130_fd_sc_hd__inv_2
*CAP
1 *1304:A2 0
2 *1252:Y 0.00020708
3 *79:10 0.00020708
4 *79:10 *180:64 4.23714e-05
5 *79:10 *194:74 1.58805e-05
6 *79:10 *262:87 5.47927e-05
7 *79:10 *281:98 0
*RES
1 *1252:Y *79:10 41.48 
2 *79:10 *1304:A2 38 
*END

*D_NET *80 0.00125992
*CONN
*I *1260:A2 I *D sky130_fd_sc_hd__o221a_1
*I *1253:Y O *D sky130_fd_sc_hd__inv_2
*CAP
1 *1260:A2 0
2 *1253:Y 0.000481631
3 *80:12 0.000481631
4 *80:12 *1253:A 5.92396e-05
5 *80:12 *1257:B1 5.50049e-05
6 *80:12 *1257:B2 2.02872e-05
7 *80:12 *84:10 7.28721e-05
8 *80:12 *189:30 1.50684e-05
9 *80:12 *189:61 7.41816e-05
*RES
1 *1253:Y *80:12 31.4307 
2 *80:12 *1260:A2 23 
*END

*D_NET *81 0.00153975
*CONN
*I *1315:A2 I *D sky130_fd_sc_hd__o221a_1
*I *1254:Y O *D sky130_fd_sc_hd__inv_2
*CAP
1 *1315:A2 0
2 *1254:Y 0.000468174
3 *81:10 0.000468174
4 *81:10 *1480:A 0.000272383
5 *81:10 *183:16 6.16439e-05
6 *81:10 *183:51 8.62876e-05
7 *81:10 *194:110 0.00010018
8 *81:10 *309:14 2.9938e-05
9 *81:10 *309:28 5.29672e-05
*RES
1 *1254:Y *81:10 46.2443 
2 *81:10 *1315:A2 38 
*END

*D_NET *82 0.00187362
*CONN
*I *1290:B1 I *D sky130_fd_sc_hd__o221a_1
*I *1289:B1 I *D sky130_fd_sc_hd__a22o_1
*I *1255:Y O *D sky130_fd_sc_hd__inv_2
*CAP
1 *1290:B1 0.000104693
2 *1289:B1 0.000174248
3 *1255:Y 0.000190071
4 *82:8 0.000469013
5 *1289:B1 *1473:A 9.64022e-05
6 *1289:B1 *1474:A 4.6318e-06
7 *1289:B1 *186:40 3.53115e-05
8 *1289:B1 *186:59 0
9 *1289:B1 *195:56 5.50049e-05
10 *1289:B1 *195:66 0.000114092
11 *1289:B1 *265:14 1.58805e-05
12 *1290:B1 *1362:A0 9.67842e-05
13 *1290:B1 *1362:S 0.000200325
14 *1290:B1 *195:66 7.52992e-05
15 *1290:B1 *202:24 0
16 *82:8 *1473:A 0.00010404
17 *82:8 *183:96 0
18 *82:8 *265:14 7.97308e-05
19 *82:8 *266:8 5.80963e-05
*RES
1 *1255:Y *82:8 42.7229 
2 *82:8 *1289:B1 42.1843 
3 *82:8 *1290:B1 41.3764 
*END

*D_NET *83 0.000850723
*CONN
*I *1261:A I *D sky130_fd_sc_hd__and3_1
*I *1256:Y O *D sky130_fd_sc_hd__nand2_1
*CAP
1 *1261:A 0.000230099
2 *1256:Y 6.30464e-05
3 *83:8 0.000293145
4 *1261:A *1261:C 1.95448e-05
5 *1261:A *176:84 5.50106e-05
6 *1261:A *276:6 0.00010359
7 *83:8 *189:44 8.62876e-05
*RES
1 *1256:Y *83:8 39.2014 
2 *83:8 *1261:A 41.5007 
*END

*D_NET *84 0.000866481
*CONN
*I *1261:B I *D sky130_fd_sc_hd__and3_1
*I *1257:X O *D sky130_fd_sc_hd__o22a_1
*CAP
1 *1261:B 4.99221e-05
2 *1257:X 0.000131544
3 *84:10 0.000181466
4 *1261:B *305:16 5.3304e-05
5 *84:10 *87:10 8.4047e-05
6 *84:10 *88:8 0.000133316
7 *84:10 *189:61 0.000135037
8 *84:10 *281:113 2.49733e-05
9 *80:12 *84:10 7.28721e-05
*RES
1 *1257:X *84:10 41.48 
2 *84:10 *1261:B 38.6214 
*END

*D_NET *85 0.000454184
*CONN
*I *1260:B1 I *D sky130_fd_sc_hd__o221a_1
*I *1258:X O *D sky130_fd_sc_hd__and2_1
*CAP
1 *1260:B1 0
2 *1258:X 9.26113e-05
3 *85:10 9.26113e-05
4 *85:10 *1259:A 5.67058e-05
5 *85:10 *86:8 0.000141879
6 *85:10 *188:42 7.03766e-05
*RES
1 *1258:X *85:10 40.5271 
2 *85:10 *1260:B1 38 
*END

*D_NET *86 0.000292717
*CONN
*I *1260:B2 I *D sky130_fd_sc_hd__o221a_1
*I *1259:Y O *D sky130_fd_sc_hd__nor2_1
*CAP
1 *1260:B2 0
2 *1259:Y 7.33113e-05
3 *86:8 7.33113e-05
4 *86:8 *88:8 0
5 *86:8 *281:113 4.21594e-06
6 *85:10 *86:8 0.000141879
*RES
1 *1259:Y *86:8 39.9057 
2 *86:8 *1260:B2 38 
*END

*D_NET *87 0.000708791
*CONN
*I *1261:C I *D sky130_fd_sc_hd__and3_1
*I *1260:X O *D sky130_fd_sc_hd__o221a_1
*CAP
1 *1261:C 8.53237e-06
2 *1260:X 0.000149359
3 *87:10 0.000157891
4 *1261:C *276:6 1.95448e-05
5 *87:10 *176:84 2.68708e-05
6 *87:10 *189:61 5.50049e-05
7 *87:10 *281:113 0.000187996
8 *1261:A *1261:C 1.95448e-05
9 *84:10 *87:10 8.4047e-05
*RES
1 *1260:X *87:10 41.2314 
2 *87:10 *1261:C 38.2279 
*END

*D_NET *88 0.000779948
*CONN
*I *1278:A I *D sky130_fd_sc_hd__nor4_1
*I *1261:X O *D sky130_fd_sc_hd__and3_1
*CAP
1 *1278:A 0
2 *1261:X 0.000156746
3 *88:8 0.000156746
4 *88:8 *176:84 0.000322901
5 *88:8 *188:42 0
6 *88:8 *281:113 1.02387e-05
7 *84:10 *88:8 0.000133316
8 *86:8 *88:8 0
*RES
1 *1261:X *88:8 42.3707 
2 *88:8 *1278:A 38 
*END

*D_NET *89 0.000166969
*CONN
*I *1267:A I *D sky130_fd_sc_hd__and3_1
*I *1262:Y O *D sky130_fd_sc_hd__nand2_1
*CAP
1 *1267:A 5.60353e-05
2 *1262:Y 5.60353e-05
3 *1267:A *1262:A 2.93845e-05
4 *1267:A *1262:B 2.55136e-05
*RES
1 *1262:Y *1267:A 47.0979 
*END

*D_NET *90 0.000701061
*CONN
*I *1266:B1 I *D sky130_fd_sc_hd__o221a_1
*I *1263:X O *D sky130_fd_sc_hd__and2_1
*CAP
1 *1266:B1 0
2 *1263:X 0.000141486
3 *90:10 0.000141486
4 *90:10 *91:10 0.000138718
5 *90:10 *191:40 9.58714e-05
6 *90:10 *192:134 1.47563e-05
7 *90:10 *194:120 0.000168744
*RES
1 *1263:X *90:10 41.3557 
2 *90:10 *1266:B1 38 
*END

*D_NET *91 0.00107414
*CONN
*I *1266:B2 I *D sky130_fd_sc_hd__o221a_1
*I *1264:Y O *D sky130_fd_sc_hd__nor2_1
*CAP
1 *1266:B2 0
2 *1264:Y 0.000202338
3 *91:10 0.000202338
4 *91:10 *1264:B 6.17437e-06
5 *91:10 *184:16 1.21972e-05
6 *91:10 *192:117 0.000135557
7 *91:10 *192:134 0.000206568
8 *91:10 *194:120 3.46954e-05
9 *21:10 *91:10 0.000135557
10 *90:10 *91:10 0.000138718
*RES
1 *1264:Y *91:10 43.3443 
2 *91:10 *1266:B2 38 
*END

*D_NET *92 0.000361687
*CONN
*I *1267:B I *D sky130_fd_sc_hd__and3_1
*I *1265:X O *D sky130_fd_sc_hd__o22a_1
*CAP
1 *1267:B 0.000111621
2 *1265:X 0.000111621
3 *1267:B *1262:B 0.000138444
*RES
1 *1265:X *1267:B 47.5743 
*END

*D_NET *93 0.00129482
*CONN
*I *1267:C I *D sky130_fd_sc_hd__and3_1
*I *1266:X O *D sky130_fd_sc_hd__o221a_1
*CAP
1 *1267:C 2.47032e-05
2 *1266:X 0.000350623
3 *93:10 0.000375326
4 *1267:C *1262:A 2.07744e-05
5 *93:10 *1291:A 4.9662e-05
6 *93:10 *1291:C_N 5.70419e-05
7 *93:10 *118:8 5.67058e-05
8 *93:10 *189:153 0
9 *93:10 *315:39 0.000212217
10 *93:10 *332:33 7.75329e-06
11 *58:8 *93:10 8.93766e-05
12 *68:8 *93:10 5.06321e-05
*RES
1 *1266:X *93:10 45.395 
2 *93:10 *1267:C 38.4557 
*END

*D_NET *94 0.00753541
*CONN
*I *1278:B I *D sky130_fd_sc_hd__nor4_1
*I *1267:X O *D sky130_fd_sc_hd__and3_1
*CAP
1 *1278:B 0.000311831
2 *1267:X 0
3 *94:14 0.00247458
4 *94:4 0.00216275
5 *1278:B *1367:S 0.000215216
6 *1278:B *1422:CLK 6.53382e-05
7 *1278:B *104:14 0.000308033
8 *1278:B *186:8 2.18506e-05
9 *1278:B *187:131 0.000139346
10 *1278:B *190:46 7.60729e-05
11 *1278:B *190:127 0.000205583
12 *1278:B *191:32 0
13 *94:14 *1262:A 1.03955e-05
14 *94:14 *1265:A1 6.18592e-05
15 *94:14 *1316:A2 0.000236021
16 *94:14 *1316:B1 8.29108e-05
17 *94:14 *1416:CLK 1.03836e-05
18 *94:14 *1416:D 0.000187129
19 *94:14 *191:40 5.62407e-05
20 *94:14 *236:22 0.000247629
21 *94:14 *315:39 8.1796e-05
22 *94:14 *316:10 0.00014981
23 *94:14 *316:48 0.000430638
*RES
1 *1267:X *94:4 23 
2 *94:4 *94:14 46.9 
3 *94:14 *1278:B 46.5757 
*END

*D_NET *95 0.0011401
*CONN
*I *1272:B1 I *D sky130_fd_sc_hd__o211a_1
*I *1268:Y O *D sky130_fd_sc_hd__a22oi_1
*CAP
1 *1272:B1 0
2 *1268:Y 0.00016523
3 *95:8 0.00016523
4 *95:8 *1271:A2 0.000188926
5 *95:8 *98:10 8.51225e-05
6 *95:8 *189:73 1.52259e-05
7 *95:8 *299:16 0.000458708
8 *95:8 *300:10 6.16531e-05
*RES
1 *1268:Y *95:8 44.1314 
2 *95:8 *1272:B1 38 
*END

*D_NET *96 0.000546988
*CONN
*I *1271:B1 I *D sky130_fd_sc_hd__o221a_1
*I *1269:X O *D sky130_fd_sc_hd__and2_1
*CAP
1 *1271:B1 0
2 *1269:X 0.000133473
3 *96:10 0.000133473
4 *96:10 *1270:B 0.000166522
5 *96:10 *126:10 2.54046e-05
6 *96:10 *189:73 2.64616e-05
7 *96:10 *263:28 6.16531e-05
*RES
1 *1269:X *96:10 40.8793 
2 *96:10 *1271:B1 38 
*END

*D_NET *97 0.000440552
*CONN
*I *1271:B2 I *D sky130_fd_sc_hd__o221a_1
*I *1270:Y O *D sky130_fd_sc_hd__nor2_1
*CAP
1 *1271:B2 0.000101947
2 *1270:Y 0.000101947
3 *1271:B2 *1270:B 9.47033e-05
4 *1271:B2 *263:28 0.000141954
*RES
1 *1270:Y *1271:B2 48.5271 
*END

*D_NET *98 0.000497355
*CONN
*I *1272:C1 I *D sky130_fd_sc_hd__o211a_1
*I *1271:X O *D sky130_fd_sc_hd__o221a_1
*CAP
1 *1272:C1 0
2 *1271:X 0.00012048
3 *98:10 0.00012048
4 *98:10 *1271:A2 2.93845e-05
5 *98:10 *189:73 0.000141888
6 *95:8 *98:10 8.51225e-05
*RES
1 *1271:X *98:10 40.8793 
2 *98:10 *1272:C1 38 
*END

*D_NET *99 0.0033468
*CONN
*I *1278:C I *D sky130_fd_sc_hd__nor4_1
*I *1272:X O *D sky130_fd_sc_hd__o211a_1
*CAP
1 *1278:C 0
2 *1272:X 0.00117804
3 *99:12 5.43334e-05
4 *99:6 0.00123237
5 *99:6 *1303:B1 2.43944e-05
6 *99:6 *1303:B2 9.84794e-05
7 *99:6 *1305:B1 0.000138444
8 *99:6 *190:58 0.000140259
9 *99:6 *190:96 3.7122e-06
10 *99:6 *249:14 0.000119477
11 *99:6 *304:25 0.000215416
12 *99:6 *304:42 5.3304e-05
13 *99:12 *105:12 4.08641e-05
14 *99:12 *176:84 2.5415e-05
15 *1303:A1_N *99:6 1.66782e-05
16 *70:65 *99:6 5.61255e-06
*RES
1 *1272:X *99:6 39.3436 
2 *99:6 *99:12 31.2014 
3 *99:12 *1278:C 23 
*END

*D_NET *100 0.000395295
*CONN
*I *1277:B1 I *D sky130_fd_sc_hd__o211a_1
*I *1273:X O *D sky130_fd_sc_hd__o2bb2a_1
*CAP
1 *1277:B1 0.000163868
2 *1273:X 0.000163868
3 *1277:B1 *195:44 2.02517e-05
4 *1277:B1 *195:52 1.92007e-05
5 *1277:B1 *291:31 2.81066e-05
*RES
1 *1273:X *1277:B1 48.4236 
*END

*D_NET *101 0.000336021
*CONN
*I *1276:B1 I *D sky130_fd_sc_hd__o221a_1
*I *1274:X O *D sky130_fd_sc_hd__and2_1
*CAP
1 *1276:B1 4.3076e-05
2 *1274:X 4.3076e-05
3 *1276:B1 *1276:C1 0.000200361
4 *1276:B1 *176:60 4.95081e-05
*RES
1 *1274:X *1276:B1 48.0714 
*END

*D_NET *102 0.00104307
*CONN
*I *1276:B2 I *D sky130_fd_sc_hd__o221a_1
*I *1275:Y O *D sky130_fd_sc_hd__nor2_1
*CAP
1 *1276:B2 0
2 *1275:Y 0.000417886
3 *102:10 0.000417886
4 *102:10 *1276:A1 0
5 *102:10 *103:10 2.54046e-05
6 *102:10 *232:8 0
7 *102:10 *292:33 2.02872e-05
8 *102:10 *292:45 0.000161605
*RES
1 *1275:Y *102:10 43.8621 
2 *102:10 *1276:B2 38 
*END

*D_NET *103 0.00102244
*CONN
*I *1277:C1 I *D sky130_fd_sc_hd__o211a_1
*I *1276:X O *D sky130_fd_sc_hd__o221a_1
*CAP
1 *1277:C1 0
2 *1276:X 0.000323308
3 *103:10 0.000323308
4 *103:10 *1276:A1 0.000134279
5 *103:10 *176:60 9.84794e-05
6 *103:10 *190:46 0
7 *103:10 *192:61 0
8 *103:10 *291:12 0
9 *103:10 *291:31 3.55458e-05
10 *103:10 *292:45 0
11 *67:35 *103:10 8.21123e-05
12 *102:10 *103:10 2.54046e-05
*RES
1 *1276:X *103:10 44.1729 
2 *103:10 *1277:C1 38 
*END

*D_NET *104 0.00372887
*CONN
*I *1278:D I *D sky130_fd_sc_hd__nor4_1
*I *1277:X O *D sky130_fd_sc_hd__o211a_1
*CAP
1 *1278:D 0
2 *1277:X 0
3 *104:14 0.000811048
4 *104:6 0.000811048
5 *104:14 *1258:B 2.02517e-05
6 *104:14 *1422:CLK 9.41704e-05
7 *104:14 *114:10 3.97502e-05
8 *104:14 *118:20 0.000110913
9 *104:14 *190:46 0.000431541
10 *104:14 *190:127 8.04208e-05
11 *104:14 *192:53 0.000285342
12 *104:14 *204:86 0.000625443
13 *1278:B *104:14 0.000308033
14 *30:10 *104:14 0.000110913
*RES
1 *1277:X *104:6 38 
2 *104:6 *104:14 36.3979 
3 *104:14 *1278:D 23 
*END

*D_NET *105 0.00215377
*CONN
*I *1325:B I *D sky130_fd_sc_hd__and4_1
*I *1318:A I *D sky130_fd_sc_hd__and3_1
*I *1278:Y O *D sky130_fd_sc_hd__nor4_1
*CAP
1 *1325:B 0
2 *1318:A 0.000231546
3 *1278:Y 0.000419306
4 *105:12 0.000650852
5 *1318:A *1318:B 6.58373e-05
6 *1318:A *1318:C 3.39231e-05
7 *1318:A *1325:C 4.2633e-05
8 *1318:A *204:63 7.38091e-05
9 *105:12 *1325:C 2.46922e-05
10 *105:12 *132:8 0.00014411
11 *105:12 *138:10 8.85189e-05
12 *105:12 *144:8 5.92463e-05
13 *105:12 *176:84 0
14 *105:12 *188:21 0
15 *105:12 *249:14 0.000111415
16 *105:12 *307:10 2.3529e-05
17 *105:12 *307:23 7.20018e-05
18 *70:31 *105:12 4.00514e-05
19 *70:65 *105:12 3.14377e-05
20 *99:12 *105:12 4.08641e-05
*RES
1 *1278:Y *105:12 48.4193 
2 *105:12 *1318:A 42.3707 
3 *105:12 *1325:B 38 
*END

*D_NET *106 0.00250353
*CONN
*I *1282:A I *D sky130_fd_sc_hd__or3b_1
*I *1279:X O *D sky130_fd_sc_hd__xor2_1
*CAP
1 *1282:A 0
2 *1279:X 0.000504175
3 *106:16 0.000216983
4 *106:8 0.000721158
5 *106:8 *193:55 0.000203155
6 *106:8 *240:23 7.88828e-05
7 *106:8 *240:27 0.000209569
8 *106:8 *261:14 2.64616e-05
9 *106:8 *262:36 0.000363379
10 *106:8 *279:10 6.82514e-05
11 *106:16 *1381:S 0
12 *106:16 *108:10 1.14452e-05
13 *3:21 *106:16 0.000100069
*RES
1 *1279:X *106:8 36.5057 
2 *106:8 *106:16 33.7079 
3 *106:16 *1282:A 23 
*END

*D_NET *107 0.000165683
*CONN
*I *1282:B I *D sky130_fd_sc_hd__or3b_1
*I *1280:X O *D sky130_fd_sc_hd__a22o_1
*CAP
1 *1282:B 0
2 *1280:X 6.24146e-05
3 *107:8 6.24146e-05
4 *107:8 *108:10 4.08537e-05
*RES
1 *1280:X *107:8 39.2014 
2 *107:8 *1282:B 38 
*END

*D_NET *108 0.00084013
*CONN
*I *1282:C_N I *D sky130_fd_sc_hd__or3b_1
*I *1281:X O *D sky130_fd_sc_hd__o221a_1
*CAP
1 *1282:C_N 0
2 *1281:X 0.000308657
3 *108:10 0.000308657
4 *108:10 *1281:B2 0.000101377
5 *108:10 *1381:S 0
6 *108:10 *189:77 6.91397e-05
7 *106:16 *108:10 1.14452e-05
8 *107:8 *108:10 4.08537e-05
*RES
1 *1281:X *108:10 42.785 
2 *108:10 *1282:C_N 38 
*END

*D_NET *109 0.00639439
*CONN
*I *1296:A I *D sky130_fd_sc_hd__and4_1
*I *1282:X O *D sky130_fd_sc_hd__or3b_1
*CAP
1 *1296:A 0
2 *1282:X 0.0010457
3 *109:20 0.000658785
4 *109:12 0.00170448
5 *109:12 *1370:A1 0.000107858
6 *109:12 *124:10 0.000271476
7 *109:12 *246:10 0.00010018
8 *109:12 *262:14 4.9662e-05
9 *109:12 *262:28 0.000210488
10 *109:12 *298:29 0.000398503
11 *109:20 *1370:A1 0.000359332
12 *109:20 *138:10 0.000264559
13 *109:20 *176:10 0.000116314
14 *109:20 *176:84 0.000117244
15 *109:20 *188:29 0.000133531
16 *109:20 *204:86 0.000209985
17 *109:20 *249:14 0.000231256
18 *1534:A *109:12 6.81213e-05
19 *3:21 *109:12 0.000246727
20 *33:10 *109:20 0.00010018
*RES
1 *1282:X *109:12 44.2943 
2 *109:12 *109:20 45.9707 
3 *109:20 *1296:A 23 
*END

*D_NET *110 0.00160351
*CONN
*I *1286:B1 I *D sky130_fd_sc_hd__a221o_1
*I *1283:X O *D sky130_fd_sc_hd__or2_1
*CAP
1 *1286:B1 0
2 *1283:X 0.000306171
3 *110:10 0.000306171
4 *110:10 *1283:A 0.000148688
5 *110:10 *1286:A1 0
6 *110:10 *1286:B2 2.84288e-05
7 *110:10 *1327:A0 9.58714e-05
8 *110:10 *190:26 8.65191e-05
9 *110:10 *197:51 0.000193748
10 *110:10 *262:119 9.58714e-05
11 *110:10 *262:132 6.44139e-05
12 *110:10 *280:10 0.000277627
*RES
1 *1283:X *110:10 32.3629 
2 *110:10 *1286:B1 23 
*END

*D_NET *111 0.00196215
*CONN
*I *1286:B2 I *D sky130_fd_sc_hd__a221o_1
*I *1284:Y O *D sky130_fd_sc_hd__nand2_1
*CAP
1 *1286:B2 1.24107e-05
2 *1284:Y 0.000492671
3 *111:10 0.000505082
4 *1286:B2 *190:26 2.84288e-05
5 *111:10 *1284:A 5.41288e-05
6 *111:10 *1328:A0 0.000148698
7 *111:10 *204:63 0.000364537
8 *111:10 *293:10 5.50049e-05
9 *111:10 *295:8 0.000137788
10 *15:10 *111:10 2.31797e-05
11 *73:12 *111:10 0.000111792
12 *110:10 *1286:B2 2.84288e-05
*RES
1 *1284:Y *111:10 48.9371 
2 *111:10 *1286:B2 38.3314 
*END

*D_NET *112 0.00173932
*CONN
*I *1287:B1 I *D sky130_fd_sc_hd__a211o_1
*I *1285:Y O *D sky130_fd_sc_hd__o22ai_1
*CAP
1 *1287:B1 0
2 *1285:Y 0.000366902
3 *112:10 0.000366902
4 *112:10 *113:10 0.000166532
5 *112:10 *192:53 2.60152e-05
6 *112:10 *195:14 0.000215003
7 *112:10 *195:44 0.000396689
8 *112:10 *291:12 0.000114092
9 *112:10 *294:34 8.71819e-05
*RES
1 *1285:Y *112:10 46.9589 
2 *112:10 *1287:B1 38 
*END

*D_NET *113 0.00159463
*CONN
*I *1287:C1 I *D sky130_fd_sc_hd__a211o_1
*I *1286:X O *D sky130_fd_sc_hd__a221o_1
*CAP
1 *1287:C1 0
2 *1286:X 0.000369093
3 *113:10 0.000369093
4 *113:10 *1520:A 0.000266265
5 *113:10 *176:10 0.000338693
6 *113:10 *192:61 1.01436e-05
7 *113:10 *291:12 7.48076e-05
8 *112:10 *113:10 0.000166532
*RES
1 *1286:X *113:10 45.7264 
2 *113:10 *1287:C1 38 
*END

*D_NET *114 0.000855098
*CONN
*I *1296:B I *D sky130_fd_sc_hd__and4_1
*I *1287:X O *D sky130_fd_sc_hd__a211o_1
*CAP
1 *1296:B 0
2 *1287:X 0.000251616
3 *114:10 0.000251616
4 *114:10 *1287:A2 4.9662e-05
5 *114:10 *192:53 8.4047e-05
6 *114:10 *204:27 0.000110913
7 *114:10 *204:86 5.94125e-05
8 *114:10 *291:12 8.08139e-06
9 *104:14 *114:10 3.97502e-05
*RES
1 *1287:X *114:10 42.3086 
2 *114:10 *1296:B 38 
*END

*D_NET *115 0.00264617
*CONN
*I *1291:A I *D sky130_fd_sc_hd__or3b_1
*I *1288:X O *D sky130_fd_sc_hd__xor2_1
*CAP
1 *1291:A 0.000183958
2 *1288:X 0.000254643
3 *115:8 0.000438601
4 *1291:A *187:88 0.000213551
5 *1291:A *192:134 0
6 *115:8 *1356:A1 0.000523716
7 *115:8 *184:8 0.000226306
8 *115:8 *192:134 0.000260457
9 *115:8 *311:18 0.000401106
10 *68:8 *1291:A 9.41704e-05
11 *93:10 *1291:A 4.9662e-05
*RES
1 *1288:X *115:8 48.15 
2 *115:8 *1291:A 42.06 
*END

*D_NET *116 0.00278963
*CONN
*I *1291:B I *D sky130_fd_sc_hd__or3b_1
*I *1289:X O *D sky130_fd_sc_hd__a22o_1
*CAP
1 *1291:B 0.000170425
2 *1289:X 0.000639722
3 *116:8 0.000810148
4 *1291:B *187:88 0.000295096
5 *1291:B *187:101 9.8474e-05
6 *1291:B *314:14 0.000453325
7 *116:8 *1481:A 0.000244791
8 *116:8 *190:155 1.57571e-05
9 *116:8 *314:6 6.18929e-05
*RES
1 *1289:X *116:8 49.5793 
2 *116:8 *1291:B 44.1314 
*END

*D_NET *117 0.00363199
*CONN
*I *1291:C_N I *D sky130_fd_sc_hd__or3b_1
*I *1290:X O *D sky130_fd_sc_hd__o221a_1
*CAP
1 *1291:C_N 0.000278548
2 *1290:X 0.000652983
3 *117:8 0.000931531
4 *1291:C_N *314:14 0.000487434
5 *1291:C_N *315:39 2.76611e-06
6 *1291:C_N *332:16 0.000165643
7 *117:8 *202:24 0.000957554
8 *68:8 *1291:C_N 9.84851e-05
9 *93:10 *1291:C_N 5.70419e-05
*RES
1 *1290:X *117:8 48.6264 
2 *117:8 *1291:C_N 46.6379 
*END

*D_NET *118 0.00633441
*CONN
*I *1296:C I *D sky130_fd_sc_hd__and4_1
*I *1291:X O *D sky130_fd_sc_hd__or3b_1
*CAP
1 *1296:C 0
2 *1291:X 0.000384476
3 *118:20 5.62221e-05
4 *118:14 0.00127141
5 *118:8 0.00159967
6 *118:8 *1266:A2 2.66596e-05
7 *118:8 *1266:C1 1.23374e-05
8 *118:14 *138:10 0.00060446
9 *118:14 *184:10 0.000138727
10 *118:14 *184:16 0.000241365
11 *118:14 *188:29 0.0012141
12 *118:14 *194:120 0.000287956
13 *118:14 *242:10 9.84851e-05
14 *118:14 *273:126 0.000149742
15 *118:20 *204:86 5.45887e-05
16 *68:8 *118:8 2.65879e-05
17 *93:10 *118:8 5.67058e-05
18 *104:14 *118:20 0.000110913
*RES
1 *1291:X *118:8 42.9093 
2 *118:8 *118:14 48.1636 
3 *118:14 *118:20 31.5536 
4 *118:20 *1296:C 23 
*END

*D_NET *119 0.00036863
*CONN
*I *1295:A I *D sky130_fd_sc_hd__or3b_1
*I *1292:X O *D sky130_fd_sc_hd__xor2_1
*CAP
1 *1295:A 9.42059e-05
2 *1292:X 9.42059e-05
3 *1295:A *192:81 0.000180218
*RES
1 *1292:X *1295:A 48.0507 
*END

*D_NET *120 0.000306694
*CONN
*I *1295:B I *D sky130_fd_sc_hd__or3b_1
*I *1293:X O *D sky130_fd_sc_hd__a22o_1
*CAP
1 *1295:B 0
2 *1293:X 4.67636e-05
3 *120:8 4.67636e-05
4 *120:8 *1294:C1 0.000113153
5 *120:8 *121:10 8.62783e-05
6 *120:8 *182:26 1.37349e-05
*RES
1 *1293:X *120:8 39.5536 
2 *120:8 *1295:B 38 
*END

*D_NET *121 0.00136205
*CONN
*I *1295:C_N I *D sky130_fd_sc_hd__or3b_1
*I *1294:X O *D sky130_fd_sc_hd__o221a_1
*CAP
1 *1295:C_N 0
2 *1294:X 0.000424372
3 *121:10 0.000424372
4 *121:10 *1294:B1 0.000100966
5 *121:10 *1294:C1 3.72639e-05
6 *121:10 *182:26 0.000163352
7 *121:10 *189:18 0.000116201
8 *1294:A2 *121:10 9.24795e-06
9 *120:8 *121:10 8.62783e-05
*RES
1 *1294:X *121:10 45.1671 
2 *121:10 *1295:C_N 38 
*END

*D_NET *122 0.00400116
*CONN
*I *1296:D I *D sky130_fd_sc_hd__and4_1
*I *1295:X O *D sky130_fd_sc_hd__or3b_1
*CAP
1 *1296:D 0
2 *1295:X 0.000129961
3 *122:14 0.000961218
4 *122:8 0.00109118
5 *122:8 *1239:A 5.41385e-05
6 *122:8 *192:81 2.65879e-05
7 *122:14 *1239:A 9.64524e-05
8 *122:14 *1294:C1 0
9 *122:14 *1418:CLK 0
10 *122:14 *187:8 1.84329e-05
11 *122:14 *187:20 0.000181125
12 *122:14 *188:35 3.70094e-05
13 *122:14 *189:12 0
14 *122:14 *193:127 0.000657021
15 *122:14 *195:52 0.000498578
16 *122:14 *271:10 4.08641e-05
17 *122:14 *273:10 0.000138143
18 *122:14 *281:154 1.7152e-05
19 *67:35 *122:14 5.3304e-05
*RES
1 *1295:X *122:8 40.0507 
2 *122:8 *122:14 37.5371 
3 *122:14 *1296:D 23 
*END

*D_NET *123 0.00183814
*CONN
*I *1325:C I *D sky130_fd_sc_hd__and4_1
*I *1318:B I *D sky130_fd_sc_hd__and3_1
*I *1296:X O *D sky130_fd_sc_hd__and4_1
*CAP
1 *1325:C 9.13908e-05
2 *1318:B 7.16724e-05
3 *1296:X 0.000202662
4 *123:8 0.000365725
5 *1318:B *1318:C 0.000135547
6 *1325:C *1318:C 8.4047e-05
7 *1325:C *144:8 1.23172e-05
8 *123:8 *192:53 4.05745e-05
9 *123:8 *193:127 0.000438179
10 *123:8 *204:35 0.000262864
11 *1318:A *1318:B 6.58373e-05
12 *1318:A *1325:C 4.2633e-05
13 *105:12 *1325:C 2.46922e-05
*RES
1 *1296:X *123:8 43.3857 
2 *123:8 *1318:B 39.9057 
3 *123:8 *1325:C 40.32 
*END

*D_NET *124 0.00107921
*CONN
*I *1300:C I *D sky130_fd_sc_hd__and3b_1
*I *1297:Y O *D sky130_fd_sc_hd__xnor2_1
*CAP
1 *1300:C 0
2 *1297:Y 0.000291113
3 *124:10 0.000291113
4 *124:10 *126:10 0.000111852
5 *124:10 *189:73 1.86268e-05
6 *124:10 *193:74 3.47879e-05
7 *124:10 *281:49 2.31209e-05
8 *124:10 *301:16 3.71198e-05
9 *109:12 *124:10 0.000271476
*RES
1 *1297:Y *124:10 43.6136 
2 *124:10 *1300:C 38 
*END

*D_NET *125 0.000486355
*CONN
*I *1300:A_N I *D sky130_fd_sc_hd__and3b_1
*I *1298:X O *D sky130_fd_sc_hd__a22o_1
*CAP
1 *1300:A_N 1.60348e-05
2 *1298:X 9.31324e-05
3 *125:8 0.000109167
4 *1300:A_N *189:77 0.00010018
5 *1300:A_N *281:49 9.84851e-05
6 *125:8 *176:32 6.93553e-05
7 *125:8 *193:74 0
*RES
1 *1298:X *125:8 39.9057 
2 *125:8 *1300:A_N 39.0979 
*END

*D_NET *126 0.00167918
*CONN
*I *1300:B I *D sky130_fd_sc_hd__and3b_1
*I *1299:X O *D sky130_fd_sc_hd__o221a_1
*CAP
1 *1300:B 5.10932e-05
2 *1299:X 0.000390487
3 *126:10 0.00044158
4 *1300:B *189:77 2.64616e-05
5 *126:10 *1270:A 7.80251e-05
6 *126:10 *1270:B 0
7 *126:10 *189:73 5.65824e-05
8 *126:10 *193:74 0.000271392
9 *126:10 *263:28 0.0002263
10 *96:10 *126:10 2.54046e-05
11 *124:10 *126:10 0.000111852
*RES
1 *1299:X *126:10 46.3064 
2 *126:10 *1300:B 38.6214 
*END

*D_NET *127 0.00372612
*CONN
*I *1317:A I *D sky130_fd_sc_hd__nor4_1
*I *1300:X O *D sky130_fd_sc_hd__and3b_1
*CAP
1 *1317:A 0
2 *1300:X 0.000666309
3 *127:32 0.000897327
4 *127:18 0.00156364
5 *127:18 *1432:CLK 0.000102368
6 *127:18 *189:77 6.17437e-06
7 *127:18 *200:26 0.000189081
8 *127:18 *281:49 4.00259e-06
9 *127:32 *1428:RESET_B 7.07084e-05
10 *127:32 *1432:CLK 2.93845e-05
11 *127:32 *180:20 2.71291e-05
12 *127:32 *200:10 1.6374e-05
13 *127:32 *200:26 2.31797e-05
14 *127:32 *262:87 9.52104e-05
15 *127:32 *307:10 3.52383e-05
*RES
1 *1300:X *127:18 48.9786 
2 *127:18 *127:32 28.9407 
3 *127:32 *1317:A 23 
*END

*D_NET *128 0.000321254
*CONN
*I *1304:B1 I *D sky130_fd_sc_hd__o221a_1
*I *1301:X O *D sky130_fd_sc_hd__and2_1
*CAP
1 *1304:B1 5.46771e-05
2 *1301:X 5.46771e-05
3 *1304:B1 *1304:C1 3.81946e-05
4 *1304:B1 *194:74 0.000141954
5 *1304:B1 *199:28 3.17516e-05
6 *1304:B1 *281:98 0
*RES
1 *1301:X *1304:B1 48.0714 
*END

*D_NET *129 0.000573326
*CONN
*I *1304:B2 I *D sky130_fd_sc_hd__o221a_1
*I *1302:Y O *D sky130_fd_sc_hd__nor2_1
*CAP
1 *1304:B2 0
2 *1302:Y 0.000169373
3 *129:10 0.000169373
4 *129:10 *1372:A0 9.58714e-05
5 *129:10 *180:64 0
6 *129:10 *194:74 0.000138708
*RES
1 *1302:Y *129:10 41.0036 
2 *129:10 *1304:B2 38 
*END

*D_NET *130 0.000405402
*CONN
*I *1305:B1 I *D sky130_fd_sc_hd__o211a_1
*I *1303:X O *D sky130_fd_sc_hd__o2bb2a_1
*CAP
1 *1305:B1 7.44816e-05
2 *1303:X 7.44816e-05
3 *1305:B1 *304:42 6.51005e-05
4 *1303:A1_N *1305:B1 5.2894e-05
5 *99:6 *1305:B1 0.000138444
*RES
1 *1303:X *1305:B1 48.4236 
*END

*D_NET *131 0.00277858
*CONN
*I *1305:C1 I *D sky130_fd_sc_hd__o211a_1
*I *1304:X O *D sky130_fd_sc_hd__o221a_1
*CAP
1 *1305:C1 0
2 *1304:X 0.000243912
3 *131:12 0.000561947
4 *131:8 0.000805859
5 *131:8 *277:10 5.3304e-05
6 *131:8 *281:107 0.000240334
7 *131:12 *180:10 0
8 *131:12 *188:42 0.000125454
9 *131:12 *188:59 0.000192937
10 *131:12 *190:58 8.21456e-06
11 *131:12 *190:81 0
12 *131:12 *192:29 0.000244626
13 *131:12 *329:12 0.000301997
*RES
1 *1304:X *131:8 42.9093 
2 *131:8 *131:12 28.8786 
3 *131:12 *1305:C1 23 
*END

*D_NET *132 0.000352017
*CONN
*I *1317:B I *D sky130_fd_sc_hd__nor4_1
*I *1305:X O *D sky130_fd_sc_hd__o211a_1
*CAP
1 *1317:B 0
2 *1305:X 4.65692e-05
3 *132:8 4.65692e-05
4 *132:8 *249:14 2.84809e-05
5 *132:8 *307:10 8.62876e-05
6 *105:12 *132:8 0.00014411
*RES
1 *1305:X *132:8 39.9057 
2 *132:8 *1317:B 38 
*END

*D_NET *133 0.00325089
*CONN
*I *1311:C I *D sky130_fd_sc_hd__and3b_1
*I *1306:X O *D sky130_fd_sc_hd__or2_1
*CAP
1 *1311:C 0
2 *1306:X 0.000984452
3 *133:10 0.000984452
4 *133:10 *1391:A0 0.000401899
5 *133:10 *191:59 2.13054e-05
6 *133:10 *214:19 0.000139578
7 *133:10 *215:10 0.000182826
8 *133:10 *273:126 0.000536381
*RES
1 *1306:X *133:10 41.8914 
2 *133:10 *1311:C 23 
*END

*D_NET *134 0.00258602
*CONN
*I *1310:B1 I *D sky130_fd_sc_hd__o221a_1
*I *1307:Y O *D sky130_fd_sc_hd__nor2_1
*CAP
1 *1310:B1 0.00025747
2 *1307:Y 0.000440819
3 *134:8 0.000698289
4 *1310:B1 *1404:A1 0.000220618
5 *1310:B1 *1451:CLK 1.7387e-05
6 *1310:B1 *182:68 4.02103e-05
7 *1310:B1 *189:153 0.000297968
8 *1310:B1 *192:106 0
9 *1310:B1 *321:44 0
10 *134:8 *182:8 8.7843e-05
11 *134:8 *321:14 0.000525411
*RES
1 *1307:Y *134:8 47.1971 
2 *134:8 *1310:B1 44.4836 
*END

*D_NET *135 0.000445595
*CONN
*I *1310:B2 I *D sky130_fd_sc_hd__o221a_1
*I *1308:X O *D sky130_fd_sc_hd__and2_1
*CAP
1 *1310:B2 0.000213063
2 *1308:X 0.000213063
3 *1310:B2 *1310:A2 1.94693e-05
*RES
1 *1308:X *1310:B2 49.5007 
*END

*D_NET *136 0.00117602
*CONN
*I *1311:A_N I *D sky130_fd_sc_hd__and3b_1
*I *1309:X O *D sky130_fd_sc_hd__a22o_1
*CAP
1 *1311:A_N 0
2 *1309:X 0.000334773
3 *136:10 0.000334773
4 *136:10 *137:8 3.70094e-05
5 *136:10 *184:16 1.56665e-05
6 *136:10 *187:52 0.000139352
7 *136:10 *192:106 2.01531e-05
8 *136:10 *318:18 0.000180218
9 *1309:B2 *136:10 0.000114074
*RES
1 *1309:X *136:10 43.51 
2 *136:10 *1311:A_N 38 
*END

*D_NET *137 0.000723227
*CONN
*I *1311:B I *D sky130_fd_sc_hd__and3b_1
*I *1310:X O *D sky130_fd_sc_hd__o221a_1
*CAP
1 *1311:B 0.000119788
2 *1310:X 0.000100191
3 *137:8 0.000219979
4 *1311:B *273:126 4.93341e-05
5 *137:8 *192:106 0.000107641
6 *1309:B2 *137:8 8.92841e-05
7 *136:10 *137:8 3.70094e-05
*RES
1 *1310:X *137:8 40.9621 
2 *137:8 *1311:B 39.5743 
*END

*D_NET *138 0.00525298
*CONN
*I *1317:C I *D sky130_fd_sc_hd__nor4_1
*I *1311:X O *D sky130_fd_sc_hd__and3b_1
*CAP
1 *1317:C 0
2 *1311:X 0
3 *138:10 0.00208873
4 *138:4 0.00208873
5 *138:10 *144:8 4.08641e-05
6 *138:10 *188:29 1.0119e-05
7 *138:10 *273:126 6.70017e-05
8 *105:12 *138:10 8.85189e-05
9 *109:20 *138:10 0.000264559
10 *118:14 *138:10 0.00060446
*RES
1 *1311:X *138:4 23 
2 *138:4 *138:10 45.885 
3 *138:10 *1317:C 38 
*END

*D_NET *139 0.00147243
*CONN
*I *1316:B1 I *D sky130_fd_sc_hd__o211a_1
*I *1312:X O *D sky130_fd_sc_hd__o2bb2a_1
*CAP
1 *1316:B1 0.000105338
2 *1312:X 0.000277324
3 *139:10 0.000382662
4 *1316:B1 *1316:A2 4.2023e-05
5 *1316:B1 *236:22 0.00022109
6 *139:10 *1312:B2 7.48331e-05
7 *139:10 *1367:S 0
8 *139:10 *1422:CLK 0.0002246
9 *139:10 *191:32 6.16531e-05
10 *94:14 *1316:B1 8.29108e-05
*RES
1 *1312:X *139:10 42.4329 
2 *139:10 *1316:B1 41.0398 
*END

*D_NET *140 0.00197753
*CONN
*I *1315:B1 I *D sky130_fd_sc_hd__o221a_1
*I *1313:Y O *D sky130_fd_sc_hd__nor2_1
*CAP
1 *1315:B1 2.36803e-05
2 *1313:Y 0.000492426
3 *140:10 0.000516107
4 *1315:B1 *1315:A1 3.22879e-05
5 *1315:B1 *1315:B2 1.32314e-05
6 *140:10 *141:8 8.62783e-05
7 *140:10 *183:16 2.70469e-05
8 *140:10 *183:51 1.12487e-05
9 *140:10 *194:89 0.000180899
10 *140:10 *194:102 0.000317553
11 *140:10 *309:28 0
12 *140:10 *330:18 0.000276775
*RES
1 *1313:Y *140:10 47.5286 
2 *140:10 *1315:B1 38.6214 
*END

*D_NET *141 0.0004518
*CONN
*I *1315:B2 I *D sky130_fd_sc_hd__o221a_1
*I *1314:X O *D sky130_fd_sc_hd__and2_1
*CAP
1 *1315:B2 7.20461e-05
2 *1314:X 4.45717e-05
3 *141:8 0.000116618
4 *1315:B2 *1315:A1 1.80984e-05
5 *1315:B2 *183:8 1.24376e-05
6 *141:8 *183:16 1.14452e-05
7 *141:8 *183:51 7.70737e-05
8 *1315:B1 *1315:B2 1.32314e-05
9 *140:10 *141:8 8.62783e-05
*RES
1 *1314:X *141:8 39.2014 
2 *141:8 *1315:B2 39.6157 
*END

*D_NET *142 0.00236009
*CONN
*I *1316:C1 I *D sky130_fd_sc_hd__o211a_1
*I *1315:X O *D sky130_fd_sc_hd__o221a_1
*CAP
1 *1316:C1 0
2 *1315:X 0.000185042
3 *142:12 0.00056448
4 *142:8 0.000749522
5 *142:8 *183:8 2.58572e-05
6 *142:12 *1254:A 0
7 *142:12 *1312:A2_N 6.77978e-05
8 *142:12 *1425:RESET_B 5.76076e-05
9 *142:12 *183:16 0
10 *142:12 *189:24 0.000453316
11 *142:12 *195:52 0
12 *142:12 *202:61 6.79006e-05
13 *142:12 *202:69 2.22079e-05
14 *142:12 *308:12 0
15 *142:12 *308:22 8.57661e-05
16 *142:12 *310:21 8.05936e-05
17 *27:8 *142:12 0
*RES
1 *1315:X *142:8 40.5271 
2 *142:8 *142:12 28.5264 
3 *142:12 *1316:C1 23 
*END

*D_NET *143 0.00144868
*CONN
*I *1317:D I *D sky130_fd_sc_hd__nor4_1
*I *1316:X O *D sky130_fd_sc_hd__o211a_1
*CAP
1 *1317:D 0.000418693
2 *1316:X 0.000101734
3 *143:8 0.000520427
4 *143:8 *190:46 0
5 *143:8 *191:32 0.000166522
6 *70:39 *1317:D 0.000241303
*RES
1 *1316:X *143:8 40.2579 
2 *143:8 *1317:D 46.265 
*END

*D_NET *144 0.00177866
*CONN
*I *1325:D I *D sky130_fd_sc_hd__and4_1
*I *1318:C I *D sky130_fd_sc_hd__and3_1
*I *1317:Y O *D sky130_fd_sc_hd__nor4_1
*CAP
1 *1325:D 4.99221e-05
2 *1318:C 0.000180795
3 *1317:Y 0.00013553
4 *144:8 0.000366247
5 *1318:C *176:10 6.7177e-06
6 *1325:D *149:6 5.3304e-05
7 *1318:A *1318:C 3.39231e-05
8 *1318:B *1318:C 0.000135547
9 *1325:C *1318:C 8.4047e-05
10 *1325:C *144:8 1.23172e-05
11 *70:27 *1318:C 3.98834e-05
12 *70:31 *1318:C 0.000287454
13 *70:31 *144:8 0.000292865
14 *105:12 *144:8 5.92463e-05
15 *138:10 *144:8 4.08641e-05
*RES
1 *1317:Y *144:8 42.0186 
2 *144:8 *1318:C 42.8264 
3 *144:8 *1325:D 38.6214 
*END

*D_NET *145 0.00322187
*CONN
*I *1320:A_N I *D sky130_fd_sc_hd__and2b_1
*I *1318:X O *D sky130_fd_sc_hd__and3_1
*CAP
1 *1320:A_N 0
2 *1318:X 0
3 *145:12 0.00101932
4 *145:6 0.00101932
5 *145:12 *1406:RESET_B 0.000143401
6 *145:12 *1454:RESET_B 0.00028435
7 *145:12 *146:8 3.70094e-05
8 *145:12 *176:10 0.000253867
9 *145:12 *181:37 0
10 *145:12 *192:61 0
11 *145:12 *204:63 0
12 *145:12 *213:10 0
13 *145:12 *226:10 0
14 *145:12 *232:8 0
15 *145:12 *281:139 0.000464593
*RES
1 *1318:X *145:6 38 
2 *145:6 *145:12 37.2471 
3 *145:12 *1320:A_N 23 
*END

*D_NET *146 0.0132451
*CONN
*I *1399:C I *D sky130_fd_sc_hd__and3_1
*I *1347:C1 I *D sky130_fd_sc_hd__o311a_1
*I *1348:B1 I *D sky130_fd_sc_hd__o2bb2a_1
*I *1354:B1 I *D sky130_fd_sc_hd__o31a_1
*I *1355:B1 I *D sky130_fd_sc_hd__o2bb2a_1
*I *1398:B I *D sky130_fd_sc_hd__xnor2_1
*I *1340:A I *D sky130_fd_sc_hd__nand2_1
*I *1341:B1 I *D sky130_fd_sc_hd__o32a_1
*I *1400:A2 I *D sky130_fd_sc_hd__a21oi_1
*I *1320:B I *D sky130_fd_sc_hd__and2b_1
*I *1319:X O *D sky130_fd_sc_hd__or2_2
*CAP
1 *1399:C 0
2 *1347:C1 3.40974e-05
3 *1348:B1 0
4 *1354:B1 0
5 *1355:B1 0.000132355
6 *1398:B 0
7 *1340:A 0
8 *1341:B1 6.30869e-05
9 *1400:A2 0.000340229
10 *1320:B 0
11 *1319:X 0.000153959
12 *146:127 0.000157681
13 *146:125 0.000369664
14 *146:108 0.000714553
15 *146:94 0.00122628
16 *146:88 0.000651624
17 *146:78 0.00127636
18 *146:56 0.000124761
19 *146:52 0.00101277
20 *146:46 0.000458654
21 *146:23 0.00138468
22 *146:12 0.000819734
23 *146:8 0.000194825
24 *1341:B1 *1341:A3 5.25848e-05
25 *1341:B1 *281:14 0.000161304
26 *1347:C1 *1347:A3 1.37232e-05
27 *1355:B1 *1347:A3 5.09577e-05
28 *1355:B1 *1353:B 1.8788e-05
29 *1355:B1 *1354:A1 1.57571e-05
30 *1355:B1 *1354:A3 5.50049e-05
31 *1355:B1 *1355:A1_N 5.67058e-05
32 *1355:B1 *1355:B2 9.84794e-05
33 *1400:A2 *174:12 0.00010018
34 *1400:A2 *175:10 4.6318e-06
35 *1400:A2 *198:44 8.02348e-05
36 *1400:A2 *198:50 1.01436e-05
37 *1400:A2 *287:12 0.000111298
38 *1400:A2 *287:20 1.37232e-05
39 *146:8 *1460:CLK 0
40 *146:8 *181:37 0
41 *146:8 *284:10 0
42 *146:23 *1461:RESET_B 3.44502e-05
43 *146:23 *284:10 5.27215e-06
44 *146:46 *1401:A 5.67058e-05
45 *146:46 *175:10 7.69935e-05
46 *146:46 *198:44 0.000192077
47 *146:52 *1399:B 1.73399e-05
48 *146:52 *160:10 0
49 *146:52 *198:44 0
50 *146:56 *281:14 7.1349e-05
51 *146:78 *1409:CLK 1.94812e-05
52 *146:78 *178:26 4.94073e-05
53 *146:78 *198:44 0
54 *146:78 *233:10 0
55 *146:88 *1347:A3 0.000403153
56 *146:88 *1348:A1_N 0.000114051
57 *146:88 *1348:B2 9.84794e-05
58 *146:88 *150:48 9.84851e-05
59 *146:88 *163:10 2.47304e-05
60 *146:88 *178:26 1.94812e-05
61 *146:94 *1347:A3 0.000177592
62 *146:94 *286:85 5.46706e-05
63 *146:108 *148:29 6.07349e-05
64 *146:108 *155:10 0.000106865
65 *146:108 *155:19 1.37246e-05
66 *146:108 *286:85 0.000324742
67 *146:108 *287:26 0.000217218
68 *146:108 *287:34 1.24376e-05
69 *146:125 *1347:A3 5.61255e-06
70 *146:125 *1353:B 9.2752e-05
71 *146:125 *1354:A1 8.50366e-05
72 *146:125 *1354:A3 5.53064e-05
73 *146:125 *286:85 1.21972e-05
74 *146:127 *1347:A3 5.3304e-05
75 *146:127 *1354:A3 2.02872e-05
76 *1334:B *146:108 0.000166513
77 *1402:A *1400:A2 0.000158559
78 *16:10 *146:78 0
79 *17:10 *146:88 4.6318e-06
80 *62:10 *146:46 2.38288e-05
81 *63:14 *1400:A2 0.000191132
82 *63:14 *146:23 6.77695e-05
83 *74:30 *146:108 6.28499e-05
84 *145:12 *146:8 3.70094e-05
*RES
1 *1319:X *146:8 40.9621 
2 *146:8 *146:12 15.6214 
3 *146:12 *1320:B 23 
4 *146:12 *146:23 25.6471 
5 *146:23 *1400:A2 47.1557 
6 *146:23 *146:46 20.9243 
7 *146:46 *146:52 18.045 
8 *146:52 *146:56 16.5743 
9 *146:56 *1341:B1 25.5686 
10 *146:56 *1340:A 23 
11 *146:52 *146:78 26.31 
12 *146:78 *146:88 39.5907 
13 *146:88 *146:94 19.3293 
14 *146:94 *146:108 44.1479 
15 *146:108 *1398:B 38 
16 *146:94 *146:125 49.6814 
17 *146:125 *146:127 0.621429 
18 *146:127 *1355:B1 26.5007 
19 *146:127 *1354:B1 23 
20 *146:88 *1348:B1 23 
21 *146:78 *1347:C1 23.8493 
22 *146:46 *1399:C 23 
*END

*D_NET *147 0.00629358
*CONN
*I *1338:B1 I *D sky130_fd_sc_hd__a21o_1
*I *1345:B1 I *D sky130_fd_sc_hd__a211o_1
*I *1324:A I *D sky130_fd_sc_hd__nand2_1
*I *1322:X O *D sky130_fd_sc_hd__or2_1
*CAP
1 *1338:B1 0
2 *1345:B1 2.14194e-05
3 *1324:A 0.000156189
4 *1322:X 0
5 *147:44 0.000256183
6 *147:29 0.00044032
7 *147:27 0.00114569
8 *147:4 0.00113916
9 *1324:A *1324:B 0.000123568
10 *1345:B1 *1331:A 0
11 *1345:B1 *1331:B 0
12 *1345:B1 *1345:A1 5.90675e-06
13 *147:27 *1324:B 5.50049e-05
14 *147:27 *1337:B1 0.000703368
15 *147:27 *1413:RESET_B 2.52027e-05
16 *147:27 *287:26 9.03964e-06
17 *147:27 *287:34 2.94414e-05
18 *147:29 *1331:A 2.93747e-05
19 *147:29 *1331:B 5.57621e-05
20 *147:29 *148:29 0.000142173
21 *147:29 *158:10 0.000100069
22 *147:29 *285:35 0.000103647
23 *147:29 *287:24 1.22822e-05
24 *147:29 *287:26 8.69618e-05
25 *147:44 *1338:A1 0.000155764
26 *147:44 *285:33 0.000195103
27 *147:44 *285:35 4.6595e-05
28 *147:44 *285:64 9.47911e-06
29 *147:44 *287:16 6.16531e-05
30 *147:44 *287:20 5.29672e-05
31 *1345:A2 *147:44 9.84794e-05
32 *12:8 *147:27 2.54046e-05
33 *75:10 *147:29 0.000441076
34 *75:10 *147:44 0.000566289
*RES
1 *1322:X *147:4 23 
2 *147:4 *1324:A 25.9207 
3 *147:4 *147:27 44.7279 
4 *147:27 *147:29 6.815 
5 *147:29 *1345:B1 23.4971 
6 *147:29 *147:44 39.3007 
7 *147:44 *1338:B1 23 
*END

*D_NET *148 0.00429987
*CONN
*I *1332:A I *D sky130_fd_sc_hd__or3_1
*I *1342:A I *D sky130_fd_sc_hd__or2_1
*I *1324:B I *D sky130_fd_sc_hd__nand2_1
*I *1323:Y O *D sky130_fd_sc_hd__nand2_1
*CAP
1 *1332:A 0.000160426
2 *1342:A 0
3 *1324:B 0.000186817
4 *1323:Y 0
5 *148:29 0.000155461
6 *148:21 0.000942486
7 *148:4 0.000813417
8 *1324:B *1322:A 3.53115e-05
9 *1332:A *1339:B1 0.000276659
10 *1332:A *152:20 0.000276614
11 *1332:A *163:10 1.03955e-05
12 *1332:A *286:58 1.32314e-05
13 *148:21 *1349:B1 1.59071e-05
14 *148:21 *1350:D 3.22051e-05
15 *148:21 *152:20 0.000171509
16 *148:21 *152:28 9.82009e-05
17 *148:21 *169:10 0.000225399
18 *148:21 *289:34 7.22251e-05
19 *148:21 *289:77 5.92572e-05
20 *148:29 *158:10 1.13013e-05
21 *148:29 *162:8 0.000112294
22 *148:29 *287:26 0.000146195
23 *1322:B *1324:B 2.32004e-05
24 *1324:A *1324:B 0.000123568
25 *1334:B *148:29 1.08978e-05
26 *11:29 *1324:B 5.3304e-05
27 *11:29 *148:21 1.56762e-05
28 *146:108 *148:29 6.07349e-05
29 *147:27 *1324:B 5.50049e-05
30 *147:29 *148:29 0.000142173
*RES
1 *1323:Y *148:4 23 
2 *148:4 *1324:B 27.3293 
3 *148:4 *148:21 11.2893 
4 *148:21 *148:29 34.1843 
5 *148:29 *1342:A 23 
6 *148:21 *1332:A 27.5986 
*END

*D_NET *149 0.0015076
*CONN
*I *1484:A I *D sky130_fd_sc_hd__clkbuf_2
*I *1325:X O *D sky130_fd_sc_hd__and4_1
*CAP
1 *1484:A 0
2 *1325:X 0.00023814
3 *149:6 0.00023814
4 *149:6 *188:21 0.000313255
5 *149:6 *193:102 0.00014196
6 *149:6 *193:127 0.000522803
7 *1325:D *149:6 5.3304e-05
*RES
1 *1325:X *149:6 30.2914 
2 *149:6 *1484:A 23 
*END

*D_NET *150 0.00448696
*CONN
*I *1333:A2 I *D sky130_fd_sc_hd__a21oi_1
*I *1347:A1 I *D sky130_fd_sc_hd__o311a_1
*I *1342:B I *D sky130_fd_sc_hd__or2_1
*I *1350:C I *D sky130_fd_sc_hd__or4_1
*I *1329:Y O *D sky130_fd_sc_hd__nor2_1
*CAP
1 *1333:A2 0
2 *1347:A1 0
3 *1342:B 0
4 *1350:C 0
5 *1329:Y 0
6 *150:48 0.000275339
7 *150:38 0.000413143
8 *150:29 0.000300562
9 *150:21 0.000501614
10 *150:14 0.000705307
11 *150:4 0.000768555
12 *150:14 *1335:A2 0.000229804
13 *150:14 *152:28 0
14 *150:14 *155:23 8.29713e-05
15 *150:14 *157:10 2.47547e-05
16 *150:14 *288:41 0.000140958
17 *150:14 *289:77 0
18 *150:21 *157:10 1.14762e-05
19 *150:21 *286:58 5.3304e-05
20 *150:29 *152:10 0.000161121
21 *150:29 *164:14 0
22 *150:29 *286:58 6.6869e-05
23 *150:29 *286:66 0.000139657
24 *150:38 *151:8 0
25 *150:38 *157:10 1.95556e-05
26 *150:38 *286:58 9.67842e-05
27 *150:48 *1347:A2 0
28 *150:48 *1347:A3 4.12182e-05
29 *150:48 *1348:A1_N 4.95081e-05
30 *150:48 *163:10 0.00019654
31 *150:48 *164:14 2.82105e-05
32 *1329:A *150:29 9.20311e-06
33 *1334:B *150:29 1.62015e-05
34 *75:31 *150:29 5.58171e-05
35 *146:88 *150:48 9.84851e-05
*RES
1 *1329:Y *150:4 23 
2 *150:4 *150:14 40.1707 
3 *150:14 *1350:C 23 
4 *150:4 *150:21 1.09786 
5 *150:21 *150:29 36.0486 
6 *150:29 *1342:B 23 
7 *150:21 *150:38 2.54786 
8 *150:38 *150:48 36.4629 
9 *150:48 *1347:A1 23 
10 *150:38 *1333:A2 23 
*END

*D_NET *151 0.00220821
*CONN
*I *1344:B I *D sky130_fd_sc_hd__nor2_1
*I *1347:A2 I *D sky130_fd_sc_hd__o311a_1
*I *1332:B I *D sky130_fd_sc_hd__or3_1
*I *1330:Y O *D sky130_fd_sc_hd__nor2_1
*CAP
1 *1344:B 0
2 *1347:A2 0.00012359
3 *1332:B 0
4 *1330:Y 6.64393e-05
5 *151:22 0.000506261
6 *151:10 0.000629851
7 *151:8 6.64393e-05
8 *1347:A2 *164:14 2.15048e-05
9 *1347:A2 *165:10 8.57661e-05
10 *151:8 *1333:A1 0.000107894
11 *151:8 *154:10 4.67488e-05
12 *151:22 *152:10 2.15048e-05
13 *151:22 *159:12 4.36457e-05
14 *151:22 *164:14 1.23486e-05
15 *151:22 *286:46 0.00016096
16 *151:22 *287:63 8.51833e-05
17 *1330:B *1347:A2 1.14452e-05
18 *1330:B *151:22 0.000125413
19 *76:10 *151:22 9.3211e-05
20 *150:38 *151:8 0
21 *150:48 *1347:A2 0
*RES
1 *1330:Y *151:8 24.595 
2 *151:8 *151:10 15 
3 *151:10 *151:22 35.5544 
4 *151:22 *1332:B 23 
5 *151:10 *1347:A2 40.61 
6 *151:8 *1344:B 23 
*END

*D_NET *152 0.00413403
*CONN
*I *1332:C I *D sky130_fd_sc_hd__or3_1
*I *1349:A1 I *D sky130_fd_sc_hd__o21a_1
*I *1354:A1 I *D sky130_fd_sc_hd__o31a_1
*I *1335:A1 I *D sky130_fd_sc_hd__o21ai_1
*I *1336:A1 I *D sky130_fd_sc_hd__o211a_1
*I *1331:Y O *D sky130_fd_sc_hd__nor2_1
*CAP
1 *1332:C 0
2 *1349:A1 0
3 *1354:A1 0.000315904
4 *1335:A1 5.85549e-05
5 *1336:A1 0
6 *1331:Y 0.000193424
7 *152:39 0.000544817
8 *152:28 0.000346465
9 *152:20 0.000369805
10 *152:12 0.000193698
11 *152:10 0.000193424
12 *1335:A1 *288:41 1.83564e-05
13 *1335:A1 *289:77 3.36312e-06
14 *1354:A1 *1347:A3 0.000137618
15 *1354:A1 *1355:B2 0
16 *1354:A1 *166:10 8.16356e-05
17 *152:20 *1343:A2 1.08859e-05
18 *152:20 *1343:B2 5.56279e-05
19 *152:20 *1349:B1 7.53384e-06
20 *152:20 *163:10 2.5961e-05
21 *152:20 *286:58 1.14154e-05
22 *152:20 *286:66 3.03714e-05
23 *152:20 *286:68 0.000150661
24 *152:28 *1349:B1 4.96717e-05
25 *152:28 *1353:B 2.64253e-05
26 *152:28 *155:10 3.64337e-05
27 *152:28 *155:19 0.00014962
28 *152:28 *288:41 0
29 *152:28 *289:77 7.19844e-05
30 *152:39 *1335:A2 2.812e-05
31 *152:39 *1336:A2 1.12349e-05
32 *152:39 *1336:C1 0.000107934
33 *152:39 *155:23 1.83327e-05
34 *1332:A *152:20 0.000276614
35 *1355:B1 *1354:A1 1.57571e-05
36 *75:10 *152:10 5.50106e-05
37 *146:125 *1354:A1 8.50366e-05
38 *148:21 *152:20 0.000171509
39 *148:21 *152:28 9.82009e-05
40 *150:14 *152:28 0
41 *150:29 *152:10 0.000161121
42 *151:22 *152:10 2.15048e-05
*RES
1 *1331:Y *152:10 40.8793 
2 *152:10 *152:12 15 
3 *152:12 *152:20 6.17286 
4 *152:20 *152:28 34.06 
5 *152:28 *1336:A1 23 
6 *152:28 *152:39 18.3764 
7 *152:39 *1335:A1 38.8493 
8 *152:39 *1354:A1 43.7379 
9 *152:20 *1349:A1 23 
10 *152:12 *1332:C 23 
*END

*D_NET *153 0.000499931
*CONN
*I *1333:B1 I *D sky130_fd_sc_hd__a21oi_1
*I *1332:X O *D sky130_fd_sc_hd__or3_1
*CAP
1 *1333:B1 0
2 *1332:X 0.000142156
3 *153:10 0.000142156
4 *153:10 *164:14 0.000110922
5 *153:10 *286:58 5.25848e-05
6 *153:10 *287:63 5.21127e-05
*RES
1 *1332:X *153:10 40.6514 
2 *153:10 *1333:B1 38 
*END

*D_NET *154 0.00122433
*CONN
*I *1341:A1 I *D sky130_fd_sc_hd__o32a_1
*I *1333:Y O *D sky130_fd_sc_hd__a21oi_1
*CAP
1 *1341:A1 0
2 *1333:Y 0.000223164
3 *154:10 0.000223164
4 *154:10 *1333:A1 6.82147e-05
5 *154:10 *157:10 0.000518775
6 *154:10 *281:14 4.00259e-06
7 *154:10 *285:83 0.000140259
8 *151:8 *154:10 4.67488e-05
*RES
1 *1333:Y *154:10 29.8564 
2 *154:10 *1341:A1 23 
*END

*D_NET *155 0.00332577
*CONN
*I *1353:B I *D sky130_fd_sc_hd__nor2_1
*I *1336:A2 I *D sky130_fd_sc_hd__o211a_1
*I *1335:A2 I *D sky130_fd_sc_hd__o21ai_1
*I *1349:A2 I *D sky130_fd_sc_hd__o21a_1
*I *1334:Y O *D sky130_fd_sc_hd__nor2_1
*CAP
1 *1353:B 0.000223087
2 *1336:A2 1.10586e-05
3 *1335:A2 7.92143e-05
4 *1349:A2 0
5 *1334:Y 0.000429438
6 *155:23 0.000137802
7 *155:19 0.000343313
8 *155:10 0.000502134
9 *1335:A2 *1336:C1 0.000115099
10 *1335:A2 *1352:A1 0
11 *1335:A2 *1352:B1 0
12 *1336:A2 *1336:C1 6.06695e-06
13 *1353:B *1347:A3 4.93812e-05
14 *1353:B *1354:A3 1.3523e-05
15 *1353:B *286:85 0.000347738
16 *155:10 *288:10 0
17 *155:10 *288:30 0
18 *155:10 *288:41 0
19 *155:19 *286:85 0.000136486
20 *1334:A *155:10 3.22465e-05
21 *1355:B1 *1353:B 1.8788e-05
22 *74:30 *155:10 8.41115e-05
23 *146:108 *155:10 0.000106865
24 *146:108 *155:19 1.37246e-05
25 *146:125 *1353:B 9.2752e-05
26 *150:14 *1335:A2 0.000229804
27 *150:14 *155:23 8.29713e-05
28 *152:28 *1353:B 2.64253e-05
29 *152:28 *155:10 3.64337e-05
30 *152:28 *155:19 0.00014962
31 *152:39 *1335:A2 2.812e-05
32 *152:39 *1336:A2 1.12349e-05
33 *152:39 *155:23 1.83327e-05
*RES
1 *1334:Y *155:10 45.2293 
2 *155:10 *1349:A2 38 
3 *155:10 *155:19 2.25786 
4 *155:19 *155:23 16.0979 
5 *155:23 *1335:A2 26.0243 
6 *155:23 *1336:A2 23.4971 
7 *155:19 *1353:B 43.8621 
*END

*D_NET *156 0.00047852
*CONN
*I *1352:A1 I *D sky130_fd_sc_hd__a32o_1
*I *1335:Y O *D sky130_fd_sc_hd__o21ai_1
*CAP
1 *1352:A1 0.000190204
2 *1335:Y 0.000190204
3 *1352:A1 *1346:B 3.18571e-05
4 *1352:A1 *1352:B2 2.93747e-05
5 *1352:A1 *288:45 3.68791e-05
6 *1335:A2 *1352:A1 0
*RES
1 *1335:Y *1352:A1 49.0243 
*END

*D_NET *157 0.00257584
*CONN
*I *1341:A2 I *D sky130_fd_sc_hd__o32a_1
*I *1336:X O *D sky130_fd_sc_hd__o211a_1
*CAP
1 *1341:A2 0
2 *1336:X 0.000851149
3 *157:10 0.000851149
4 *157:10 *1333:A1 7.30497e-06
5 *157:10 *164:14 9.67842e-05
6 *157:10 *286:58 5.12328e-05
7 *16:10 *157:10 0.000143655
8 *150:14 *157:10 2.47547e-05
9 *150:21 *157:10 1.14762e-05
10 *150:38 *157:10 1.95556e-05
11 *154:10 *157:10 0.000518775
*RES
1 *1336:X *157:10 37.6036 
2 *157:10 *1341:A2 23 
*END

*D_NET *158 0.00262094
*CONN
*I *1343:B1 I *D sky130_fd_sc_hd__a22o_1
*I *1339:B1 I *D sky130_fd_sc_hd__a22o_1
*I *1337:X O *D sky130_fd_sc_hd__a211o_1
*CAP
1 *1343:B1 4.1047e-05
2 *1339:B1 0.000558867
3 *1337:X 0.00010919
4 *158:10 0.000709104
5 *1339:B1 *1339:A1 1.15144e-05
6 *1339:B1 *1339:B2 6.42752e-05
7 *1339:B1 *159:12 2.32004e-05
8 *1339:B1 *286:58 0.000243668
9 *1343:B1 *162:8 7.37503e-05
10 *158:10 *162:8 8.71559e-05
11 *1332:A *1339:B1 0.000276659
12 *1334:B *158:10 1.00084e-05
13 *75:31 *1343:B1 8.50457e-05
14 *75:31 *158:10 0.000100176
15 *76:8 *1339:B1 2.17429e-05
16 *76:33 *1339:B1 9.41704e-05
17 *147:29 *158:10 0.000100069
18 *148:29 *158:10 1.13013e-05
*RES
1 *1337:X *158:10 40.6514 
2 *158:10 *1339:B1 49.2686 
3 *158:10 *1343:B1 39.2014 
*END

*D_NET *159 0.00121388
*CONN
*I *1339:B2 I *D sky130_fd_sc_hd__a22o_1
*I *1338:X O *D sky130_fd_sc_hd__a21o_1
*CAP
1 *1339:B2 4.25941e-05
2 *1338:X 0.000343694
3 *159:12 0.000386289
4 *159:12 *285:27 2.93845e-05
5 *159:12 *287:63 8.57004e-05
6 *1339:B1 *1339:B2 6.42752e-05
7 *1339:B1 *159:12 2.32004e-05
8 *1345:A2 *159:12 1.85961e-05
9 *76:8 *1339:B2 3.4126e-05
10 *76:10 *159:12 1.02249e-06
11 *76:33 *159:12 0.000141349
12 *151:22 *159:12 4.36457e-05
*RES
1 *1338:X *159:12 43.3029 
2 *159:12 *1339:B2 39.2636 
*END

*D_NET *160 0.0010138
*CONN
*I *1340:B I *D sky130_fd_sc_hd__nand2_1
*I *1339:X O *D sky130_fd_sc_hd__a22o_1
*CAP
1 *1340:B 0
2 *1339:X 0.00043914
3 *160:10 0.00043914
4 *160:10 *1338:A1 2.93845e-05
5 *160:10 *1399:A 6.17437e-06
6 *160:10 *285:27 9.99662e-05
7 *160:10 *285:83 0
8 *146:52 *160:10 0
*RES
1 *1339:X *160:10 43.8621 
2 *160:10 *1340:B 38 
*END

*D_NET *161 0.00031632
*CONN
*I *1341:A3 I *D sky130_fd_sc_hd__o32a_1
*I *1340:Y O *D sky130_fd_sc_hd__nand2_1
*CAP
1 *1341:A3 9.80678e-05
2 *1340:Y 9.80678e-05
3 *1341:A3 *281:14 3.53115e-05
4 *1341:B1 *1341:A3 5.25848e-05
5 *16:10 *1341:A3 3.22879e-05
*RES
1 *1340:Y *1341:A3 48.5271 
*END

*D_NET *162 0.000582575
*CONN
*I *1343:B2 I *D sky130_fd_sc_hd__a22o_1
*I *1342:X O *D sky130_fd_sc_hd__or2_1
*CAP
1 *1343:B2 1.56031e-05
2 *1342:X 8.34562e-05
3 *162:8 9.90593e-05
4 *1343:B2 *286:68 5.56279e-05
5 *1343:B1 *162:8 7.37503e-05
6 *148:29 *162:8 0.000112294
7 *152:20 *1343:B2 5.56279e-05
8 *158:10 *162:8 8.71559e-05
*RES
1 *1342:X *162:8 40.2579 
2 *162:8 *1343:B2 38.6214 
*END

*D_NET *163 0.00123602
*CONN
*I *1348:A2_N I *D sky130_fd_sc_hd__o2bb2a_1
*I *1343:X O *D sky130_fd_sc_hd__a22o_1
*CAP
1 *1348:A2_N 0
2 *1343:X 0.000352186
3 *163:10 0.000352186
4 *163:10 *1348:B2 5.56306e-05
5 *163:10 *164:14 3.81658e-05
6 *163:10 *165:10 0
7 *163:10 *286:58 0.000168774
8 *1332:A *163:10 1.03955e-05
9 *17:10 *163:10 1.14452e-05
10 *146:88 *163:10 2.47304e-05
11 *150:48 *163:10 0.00019654
12 *152:20 *163:10 2.5961e-05
*RES
1 *1343:X *163:10 45.3536 
2 *163:10 *1348:A2_N 38 
*END

*D_NET *164 0.00153291
*CONN
*I *1345:C1 I *D sky130_fd_sc_hd__a211o_1
*I *1344:Y O *D sky130_fd_sc_hd__nor2_1
*CAP
1 *1345:C1 0
2 *1344:Y 0.000563061
3 *164:14 0.000563061
4 *164:14 *286:46 1.09886e-05
5 *164:14 *286:58 0
6 *164:14 *287:63 8.78585e-05
7 *1347:A2 *164:14 2.15048e-05
8 *150:29 *164:14 0
9 *150:48 *164:14 2.82105e-05
10 *151:22 *164:14 1.23486e-05
11 *153:10 *164:14 0.000110922
12 *157:10 *164:14 9.67842e-05
13 *163:10 *164:14 3.81658e-05
*RES
1 *1344:Y *164:14 47.6529 
2 *164:14 *1345:C1 38 
*END

*D_NET *165 0.0017461
*CONN
*I *1347:B1 I *D sky130_fd_sc_hd__o311a_1
*I *1345:X O *D sky130_fd_sc_hd__a211o_1
*CAP
1 *1347:B1 0
2 *1345:X 0.000353043
3 *165:10 0.000353043
4 *165:10 *178:14 0
5 *165:10 *178:26 0.000544358
6 *1330:B *165:10 0.000135557
7 *1345:A2 *165:10 0.000108681
8 *1347:A2 *165:10 8.57661e-05
9 *75:10 *165:10 5.50106e-05
10 *76:10 *165:10 0.000110642
11 *163:10 *165:10 0
*RES
1 *1345:X *165:10 46.5136 
2 *165:10 *1347:B1 38 
*END

*D_NET *166 0.00419822
*CONN
*I *1347:A3 I *D sky130_fd_sc_hd__o311a_1
*I *1354:A2 I *D sky130_fd_sc_hd__o31a_1
*I *1346:Y O *D sky130_fd_sc_hd__nand2_1
*CAP
1 *1347:A3 0.000634422
2 *1354:A2 0
3 *1346:Y 0.000487806
4 *166:12 0.000634422
5 *166:10 0.000487806
6 *1347:A3 *1348:A1_N 0.000200098
7 *1347:A3 *1354:A3 9.78729e-06
8 *1347:A3 *286:85 0.000143535
9 *166:10 *1336:C1 6.17437e-06
10 *166:10 *1346:A 0.000441065
11 *166:10 *1355:B2 2.96154e-05
12 *166:10 *197:93 0
13 *166:10 *288:43 2.93747e-05
14 *166:10 *288:45 2.32101e-05
15 *1347:C1 *1347:A3 1.37232e-05
16 *1353:B *1347:A3 4.93812e-05
17 *1354:A1 *1347:A3 0.000137618
18 *1354:A1 *166:10 8.16356e-05
19 *1355:B1 *1347:A3 5.09577e-05
20 *17:10 *1347:A3 5.67058e-05
21 *146:88 *1347:A3 0.000403153
22 *146:94 *1347:A3 0.000177592
23 *146:125 *1347:A3 5.61255e-06
24 *146:127 *1347:A3 5.3304e-05
25 *150:48 *1347:A3 4.12182e-05
*RES
1 *1346:Y *166:10 46.12 
2 *166:10 *166:12 15 
3 *166:12 *1354:A2 23 
4 *166:12 *1347:A3 38.9086 
*END

*D_NET *167 0.000438022
*CONN
*I *1348:A1_N I *D sky130_fd_sc_hd__o2bb2a_1
*I *1347:X O *D sky130_fd_sc_hd__o311a_1
*CAP
1 *1348:A1_N 3.71823e-05
2 *1347:X 3.71823e-05
3 *1347:A3 *1348:A1_N 0.000200098
4 *146:88 *1348:A1_N 0.000114051
5 *150:48 *1348:A1_N 4.95081e-05
*RES
1 *1347:X *1348:A1_N 48.2216 
*END

*D_NET *168 0.000109898
*CONN
*I *1350:D I *D sky130_fd_sc_hd__or4_1
*I *1349:X O *D sky130_fd_sc_hd__o21a_1
*CAP
1 *1350:D 9.86826e-06
2 *1349:X 9.86826e-06
3 *1350:D *289:77 5.79559e-05
4 *148:21 *1350:D 3.22051e-05
*RES
1 *1349:X *1350:D 46.6214 
*END

*D_NET *169 0.00110583
*CONN
*I *1352:A2 I *D sky130_fd_sc_hd__a32o_1
*I *1350:X O *D sky130_fd_sc_hd__or4_1
*CAP
1 *1352:A2 0
2 *1350:X 0.000224957
3 *169:10 0.000224957
4 *169:10 *170:10 0.000114083
5 *169:10 *197:93 1.89075e-05
6 *169:10 *288:41 0
7 *169:10 *289:10 5.94125e-05
8 *169:10 *289:28 1.56665e-05
9 *169:10 *289:34 0.000139357
10 *169:10 *289:47 0
11 *11:29 *169:10 8.30958e-05
12 *148:21 *169:10 0.000225399
*RES
1 *1350:X *169:10 43.4893 
2 *169:10 *1352:A2 38 
*END

*D_NET *170 0.000751951
*CONN
*I *1352:A3 I *D sky130_fd_sc_hd__a32o_1
*I *1351:Y O *D sky130_fd_sc_hd__nand2_1
*CAP
1 *1352:A3 0
2 *1351:Y 0.000194222
3 *170:10 0.000194222
4 *170:10 *1322:A 1.32314e-05
5 *170:10 *197:93 0.00014411
6 *170:10 *289:21 2.02872e-05
7 *170:10 *289:28 5.41385e-05
8 *170:10 *289:34 1.76557e-05
9 *170:10 *289:47 0
10 *169:10 *170:10 0.000114083
*RES
1 *1351:Y *170:10 41.9564 
2 *170:10 *1352:A3 38 
*END

*D_NET *171 0.000784192
*CONN
*I *1355:A2_N I *D sky130_fd_sc_hd__o2bb2a_1
*I *1352:X O *D sky130_fd_sc_hd__a32o_1
*CAP
1 *1355:A2_N 6.05769e-05
2 *1352:X 0.000172794
3 *171:8 0.000233371
4 *1355:A2_N *1355:A1_N 6.83591e-06
5 *171:8 *197:93 0.000299169
6 *18:8 *171:8 1.14452e-05
*RES
1 *1352:X *171:8 42.0186 
2 *171:8 *1355:A2_N 38.6214 
*END

*D_NET *172 0.000307232
*CONN
*I *1354:A3 I *D sky130_fd_sc_hd__o31a_1
*I *1353:Y O *D sky130_fd_sc_hd__nor2_1
*CAP
1 *1354:A3 7.66613e-05
2 *1353:Y 7.66613e-05
3 *1347:A3 *1354:A3 9.78729e-06
4 *1353:B *1354:A3 1.3523e-05
5 *1355:B1 *1354:A3 5.50049e-05
6 *146:125 *1354:A3 5.53064e-05
7 *146:127 *1354:A3 2.02872e-05
*RES
1 *1353:Y *1354:A3 47.5743 
*END

*D_NET *173 0.000385533
*CONN
*I *1355:A1_N I *D sky130_fd_sc_hd__o2bb2a_1
*I *1354:X O *D sky130_fd_sc_hd__o31a_1
*CAP
1 *1355:A1_N 0.000148618
2 *1354:X 0.000148618
3 *1355:A1_N *1355:B2 2.4754e-05
4 *1355:A2_N *1355:A1_N 6.83591e-06
5 *1355:B1 *1355:A1_N 5.67058e-05
*RES
1 *1354:X *1355:A1_N 49.0191 
*END

*D_NET *174 0.000742512
*CONN
*I *1401:A I *D sky130_fd_sc_hd__nor2_1
*I *1402:B I *D sky130_fd_sc_hd__xnor2_1
*I *1399:X O *D sky130_fd_sc_hd__and3_1
*CAP
1 *1401:A 8.05319e-05
2 *1402:B 0
3 *1399:X 0
4 *174:12 0.000150334
5 *174:4 0.000230866
6 *1401:A *1399:A 0
7 *174:12 *175:10 2.5415e-05
8 *174:12 *287:12 9.84794e-05
9 *1400:A2 *174:12 0.00010018
10 *146:46 *1401:A 5.67058e-05
*RES
1 *1399:X *174:4 23 
2 *174:4 *174:12 33.0036 
3 *174:12 *1402:B 23 
4 *174:4 *1401:A 24.8229 
*END

*D_NET *175 0.00126376
*CONN
*I *1401:B I *D sky130_fd_sc_hd__nor2_1
*I *1400:Y O *D sky130_fd_sc_hd__a21oi_1
*CAP
1 *1401:B 0
2 *1400:Y 0.000378257
3 *175:10 0.000378257
4 *175:10 *287:12 0.000400204
5 *1400:A2 *175:10 4.6318e-06
6 *146:46 *175:10 7.69935e-05
7 *174:12 *175:10 2.5415e-05
*RES
1 *1400:Y *175:10 44.6907 
2 *175:10 *1401:B 38 
*END

*D_NET *176 0.0269506
*CONN
*I *1473:A I *D sky130_fd_sc_hd__clkbuf_16
*I *1474:A I *D sky130_fd_sc_hd__clkbuf_16
*I *1472:A I *D sky130_fd_sc_hd__clkbuf_16
*I *1471:A I *D sky130_fd_sc_hd__clkbuf_16
*I *1468:A I *D sky130_fd_sc_hd__clkbuf_16
*I *1467:A I *D sky130_fd_sc_hd__clkbuf_16
*I *1470:A I *D sky130_fd_sc_hd__clkbuf_16
*I *1469:A I *D sky130_fd_sc_hd__clkbuf_16
*I *1466:X O *D sky130_fd_sc_hd__clkbuf_16
*CAP
1 *1473:A 0.000249646
2 *1474:A 0.000470961
3 *1472:A 0
4 *1471:A 0
5 *1468:A 0
6 *1467:A 0
7 *1470:A 0.000506281
8 *1469:A 0.000515627
9 *1466:X 0
10 *176:86 0.000720607
11 *176:84 0.00139418
12 *176:73 0.000831838
13 *176:60 0.00149061
14 *176:34 0.00102191
15 *176:32 0.0010241
16 *176:28 0.00104758
17 *176:26 0.00129564
18 *176:18 0.00235969
19 *176:10 0.00223131
20 *176:6 0.0018792
21 *1469:A *251:29 0.000110951
22 *1470:A *251:29 0.000132087
23 *1470:A *257:14 0.000609758
24 *1473:A *1254:A 0
25 *1473:A *308:12 0
26 *1474:A *1364:A0 0.000185434
27 *1474:A *1364:A1 0.000141954
28 *1474:A *1364:S 2.4754e-05
29 *1474:A *186:40 0
30 *1474:A *186:59 0
31 *1474:A *192:134 1.79651e-05
32 *1474:A *195:52 0
33 *1474:A *195:66 6.7177e-06
34 *1474:A *308:12 0
35 *1474:A *311:18 0.000141052
36 *1474:A *313:14 0
37 *176:10 *192:61 0.000118797
38 *176:10 *204:27 7.3525e-05
39 *176:10 *204:63 0
40 *176:10 *204:86 3.01561e-05
41 *176:18 *1408:CLK 2.30292e-05
42 *176:18 *281:33 3.5301e-05
43 *176:18 *281:139 2.93868e-05
44 *176:18 *292:57 0.000324996
45 *176:26 *1284:B 0
46 *176:26 *1407:CLK 3.44502e-05
47 *176:26 *1458:CLK 6.04287e-05
48 *176:26 *1458:RESET_B 8.92557e-05
49 *176:26 *178:84 1.91479e-05
50 *176:26 *198:20 0.000270846
51 *176:26 *206:12 1.94693e-05
52 *176:26 *281:33 0.000157082
53 *176:26 *294:10 0
54 *176:32 *1298:A2 0.000111158
55 *176:32 *1551:A 0.000290895
56 *176:32 *190:115 0.000272331
57 *176:32 *193:61 0.000243605
58 *176:32 *193:74 0
59 *176:32 *194:21 0.000114494
60 *176:32 *194:32 0.000133218
61 *176:32 *194:43 7.76364e-06
62 *176:32 *252:8 0
63 *176:32 *296:18 8.16149e-05
64 *176:32 *327:36 0
65 *176:60 *1276:A1 9.84794e-05
66 *176:60 *1276:C1 0.000156389
67 *176:60 *181:8 0.000315852
68 *176:60 *226:10 7.43025e-06
69 *176:60 *290:28 9.88574e-06
70 *176:60 *292:29 0.000748
71 *176:60 *292:57 7.42621e-05
72 *176:73 *1307:B 3.41998e-06
73 *176:73 *1359:S 9.91895e-05
74 *176:73 *1464:RESET_B 0.000139657
75 *176:73 *273:42 0
76 *176:73 *292:29 4.17736e-05
77 *176:73 *320:20 0.000161985
78 *176:73 *321:10 0
79 *176:73 *321:44 0
80 *176:73 *322:8 5.0135e-05
81 *176:73 *334:8 3.22118e-05
82 *176:84 *1365:A0 0.000355822
83 *176:84 *1365:A1 0.000136052
84 *176:84 *1425:CLK 0.000120437
85 *176:84 *1562:A 5.41385e-05
86 *176:84 *183:22 6.59536e-05
87 *176:84 *186:40 4.56951e-05
88 *176:84 *188:42 0
89 *176:84 *189:44 4.60263e-05
90 *176:84 *195:56 0.000227208
91 *176:84 *204:86 0
92 *176:84 *276:6 5.50106e-05
93 *176:84 *302:40 0.000130667
94 *176:84 *306:28 0.000178849
95 *176:84 *307:23 0
96 *176:84 *308:22 9.6103e-05
97 *1261:A *176:84 5.50106e-05
98 *1276:B1 *176:60 4.95081e-05
99 *1289:B1 *1473:A 9.64022e-05
100 *1289:B1 *1474:A 4.6318e-06
101 *1318:C *176:10 6.7177e-06
102 *1506:A *176:73 9.62764e-05
103 *14:10 *176:26 0.000138718
104 *28:10 *176:84 0.00010018
105 *66:10 *176:73 3.17634e-05
106 *70:31 *176:10 0.000175143
107 *70:31 *176:84 0.000168341
108 *70:65 *176:84 5.31444e-05
109 *71:10 *176:73 0.00010018
110 *82:8 *1473:A 0.00010404
111 *87:10 *176:84 2.68708e-05
112 *88:8 *176:84 0.000322901
113 *99:12 *176:84 2.5415e-05
114 *103:10 *176:60 9.84794e-05
115 *105:12 *176:84 0
116 *109:20 *176:10 0.000116314
117 *109:20 *176:84 0.000117244
118 *113:10 *176:10 0.000338693
119 *125:8 *176:32 6.93553e-05
120 *145:12 *176:10 0.000253867
*RES
1 *1466:X *176:6 38 
2 *176:6 *176:10 27.8221 
3 *176:10 *176:18 16.0536 
4 *176:18 *176:26 49.6164 
5 *176:26 *176:28 0.497143 
6 *176:28 *176:32 37.6821 
7 *176:32 *176:34 15 
8 *176:34 *1469:A 31.2443 
9 *176:34 *1470:A 33.6264 
10 *176:28 *1467:A 23 
11 *176:18 *1468:A 23 
12 *176:10 *176:60 16.3436 
13 *176:60 *1471:A 23 
14 *176:60 *176:73 46.53 
15 *176:73 *1472:A 23 
16 *176:6 *176:84 47.4593 
17 *176:84 *176:86 15 
18 *176:86 *1474:A 47.4043 
19 *176:86 *1473:A 43.4271 
*END

*D_NET *177 0.00986696
*CONN
*I *1441:CLK I *D sky130_fd_sc_hd__dfrtp_1
*I *1435:CLK I *D sky130_fd_sc_hd__dfrtp_1
*I *1438:CLK I *D sky130_fd_sc_hd__dfrtp_1
*I *1439:CLK I *D sky130_fd_sc_hd__dfrtp_1
*I *1429:CLK I *D sky130_fd_sc_hd__dfrtp_1
*I *1442:CLK I *D sky130_fd_sc_hd__dfrtp_1
*I *1411:CLK I *D sky130_fd_sc_hd__dfrtp_1
*I *1413:CLK I *D sky130_fd_sc_hd__dfrtp_2
*I *1412:CLK I *D sky130_fd_sc_hd__dfrtp_2
*I *1475:A I *D sky130_fd_sc_hd__clkbuf_4
*I *1467:X O *D sky130_fd_sc_hd__clkbuf_16
*CAP
1 *1441:CLK 0.000245813
2 *1435:CLK 0.000721308
3 *1438:CLK 0
4 *1439:CLK 0
5 *1429:CLK 0
6 *1442:CLK 0.000349055
7 *1411:CLK 0.000145008
8 *1413:CLK 0
9 *1412:CLK 0.000179414
10 *1475:A 0.0003153
11 *1467:X 0.000152148
12 *177:89 0.000746313
13 *177:85 0.000378516
14 *177:35 0.000767268
15 *177:33 0.00104248
16 *177:31 0.00065867
17 *177:29 0.000644864
18 *177:25 0.000644864
19 *177:12 0.000387104
20 *177:10 0.000331649
21 *1435:CLK *1438:RESET_B 2.56078e-05
22 *1435:CLK *1442:RESET_B 4.21281e-05
23 *1441:CLK *1381:S 7.20415e-05
24 *1441:CLK *193:55 0.00015822
25 *1441:CLK *229:25 0
26 *1441:CLK *240:23 0
27 *1441:CLK *262:42 0.000137163
28 *1442:CLK *193:35 0
29 *1475:A *1429:RESET_B 1.09886e-05
30 *1475:A *193:21 0.000194318
31 *1475:A *197:61 1.28726e-05
32 *1475:A *197:79 4.06512e-05
33 *1475:A *205:10 5.79559e-05
34 *177:10 *1379:A0 6.97002e-05
35 *177:10 *262:42 9.84851e-05
36 *177:12 *1442:RESET_B 5.08899e-05
37 *177:12 *193:21 0.000157309
38 *177:12 *193:55 1.01436e-05
39 *177:12 *197:61 2.76611e-06
40 *177:29 *1429:D 1.10317e-05
41 *177:29 *1429:RESET_B 0.000243927
42 *177:85 *1442:RESET_B 6.7177e-06
43 *177:85 *193:55 0.000233453
44 *177:85 *262:42 0.000105165
45 *177:89 *1442:RESET_B 5.50106e-05
46 *1441:D *1441:CLK 5.41288e-05
47 *3:19 *1441:CLK 9.84794e-05
48 *9:13 *1442:CLK 0.000208037
49 *45:10 *1442:CLK 0
*RES
1 *1467:X *177:10 41.0243 
2 *177:10 *177:12 2.25786 
3 *177:12 *1475:A 44.09 
4 *177:12 *177:25 15 
5 *177:25 *177:29 13.0293 
6 *177:29 *177:31 15 
7 *177:31 *177:33 5.77929 
8 *177:33 *177:35 11.4136 
9 *177:35 *1412:CLK 41.2314 
10 *177:35 *1413:CLK 38 
11 *177:33 *1411:CLK 40.5271 
12 *177:31 *1442:CLK 44.4007 
13 *177:29 *1429:CLK 23 
14 *177:25 *1439:CLK 23 
15 *177:10 *177:85 3.31429 
16 *177:85 *177:89 15.6214 
17 *177:89 *1438:CLK 23 
18 *177:89 *1435:CLK 34.6 
19 *177:85 *1441:CLK 44.8771 
*END

*D_NET *178 0.00899843
*CONN
*I *1407:CLK I *D sky130_fd_sc_hd__dfrtp_1
*I *1465:CLK I *D sky130_fd_sc_hd__dfrtp_1
*I *1458:CLK I *D sky130_fd_sc_hd__dfrtp_1
*I *1408:CLK I *D sky130_fd_sc_hd__dfrtp_1
*I *1410:CLK I *D sky130_fd_sc_hd__dfrtp_1
*I *1476:A I *D sky130_fd_sc_hd__clkbuf_8
*I *1409:CLK I *D sky130_fd_sc_hd__dfrtp_4
*I *1459:CLK I *D sky130_fd_sc_hd__dfrtp_4
*I *1468:X O *D sky130_fd_sc_hd__clkbuf_16
*CAP
1 *1407:CLK 9.14175e-05
2 *1465:CLK 0
3 *1458:CLK 0.000383109
4 *1408:CLK 0.000348453
5 *1410:CLK 0.000464114
6 *1476:A 0
7 *1409:CLK 2.58203e-05
8 *1459:CLK 0
9 *1468:X 0
10 *178:90 0.000241945
11 *178:84 0.000514795
12 *178:69 0.000897321
13 *178:56 0.000725571
14 *178:26 0.000843062
15 *178:14 0.00102339
16 *178:10 0.000208955
17 *178:8 0.000639446
18 *178:6 0.000165222
19 *1407:CLK *1458:RESET_B 4.58951e-05
20 *1407:CLK *198:20 4.79641e-05
21 *1407:CLK *282:37 0.000223698
22 *1408:CLK *1490:A 0.000227208
23 *1408:CLK *281:33 7.88926e-05
24 *1410:CLK *1410:RESET_B 0.000222287
25 *1410:CLK *282:10 2.93747e-05
26 *1458:CLK *206:12 2.93747e-05
27 *178:8 *198:32 0
28 *178:8 *282:10 0
29 *178:26 *285:33 6.08043e-05
30 *178:26 *285:64 1.2741e-05
31 *178:26 *285:83 3.81554e-05
32 *178:26 *287:63 0
33 *178:56 *282:10 0
34 *178:69 *282:37 0
35 *178:84 *282:37 0
36 *178:90 *250:10 0.000138727
37 *178:90 *301:10 0.000165593
38 *1345:A2 *178:26 3.3746e-05
39 *1410:D *1410:CLK 7.59794e-05
40 *10:10 *178:90 8.58486e-05
41 *16:10 *178:26 0
42 *61:8 *178:26 8.1796e-05
43 *76:33 *178:26 5.79427e-05
44 *146:78 *1409:CLK 1.94812e-05
45 *146:78 *178:26 4.94073e-05
46 *146:88 *178:26 1.94812e-05
47 *165:10 *178:14 0
48 *165:10 *178:26 0.000544358
49 *176:18 *1408:CLK 2.30292e-05
50 *176:26 *1407:CLK 3.44502e-05
51 *176:26 *1458:CLK 6.04287e-05
52 *176:26 *178:84 1.91479e-05
*RES
1 *1468:X *178:6 38 
2 *178:6 *178:8 1.90571 
3 *178:8 *178:10 0.849286 
4 *178:10 *178:14 17.61 
5 *178:14 *178:26 46.2607 
6 *178:26 *1459:CLK 23 
7 *178:14 *1409:CLK 23.6214 
8 *178:10 *1476:A 38 
9 *178:8 *1410:CLK 47.6736 
10 *178:6 *178:56 0.849286 
11 *178:56 *1408:CLK 45.2914 
12 *178:56 *178:69 20.075 
13 *178:69 *1458:CLK 28.9036 
14 *178:69 *178:84 2.9 
15 *178:84 *178:90 35.7793 
16 *178:90 *1465:CLK 23 
17 *178:84 *1407:CLK 26.0036 
*END

*D_NET *179 0.00976638
*CONN
*I *1446:CLK I *D sky130_fd_sc_hd__dfrtp_1
*I *1434:CLK I *D sky130_fd_sc_hd__dfrtp_1
*I *1443:CLK I *D sky130_fd_sc_hd__dfrtp_1
*I *1444:CLK I *D sky130_fd_sc_hd__dfrtp_1
*I *1436:CLK I *D sky130_fd_sc_hd__dfrtp_1
*I *1437:CLK I *D sky130_fd_sc_hd__dfrtp_1
*I *1440:CLK I *D sky130_fd_sc_hd__dfrtp_1
*I *1445:CLK I *D sky130_fd_sc_hd__dfrtp_1
*I *1433:CLK I *D sky130_fd_sc_hd__dfrtp_1
*I *1469:X O *D sky130_fd_sc_hd__clkbuf_16
*CAP
1 *1446:CLK 0.000286433
2 *1434:CLK 0
3 *1443:CLK 0
4 *1444:CLK 0.000264497
5 *1436:CLK 0.000145008
6 *1437:CLK 0.000420013
7 *1440:CLK 0.00018394
8 *1445:CLK 0
9 *1433:CLK 8.24468e-05
10 *1469:X 6.93947e-05
11 *179:46 0.000737288
12 *179:44 0.000586121
13 *179:42 0.000663095
14 *179:38 0.000773803
15 *179:29 0.000235031
16 *179:23 0.00125642
17 *179:19 0.000800594
18 *179:8 0.000327593
19 *1433:CLK *251:31 6.68793e-05
20 *1433:CLK *251:41 4.6318e-06
21 *1437:CLK *1575:A 0.00020997
22 *1437:CLK *263:28 0.000343251
23 *1437:CLK *272:12 0.000311549
24 *1437:CLK *326:18 0
25 *1444:CLK *1383:A 5.83407e-05
26 *1446:CLK *199:96 8.4047e-05
27 *1446:CLK *230:10 0.000139647
28 *1446:CLK *251:87 6.17634e-05
29 *1446:CLK *251:96 0.000224336
30 *1446:CLK *327:6 3.22879e-05
31 *179:8 *251:29 9.84851e-05
32 *179:19 *1551:A 0
33 *179:19 *251:31 1.22803e-05
34 *179:19 *251:87 0.000138195
35 *179:23 *1434:RESET_B 9.97529e-05
36 *179:23 *199:96 0.000296715
37 *179:29 *1507:A 9.21347e-06
38 *179:29 *199:100 0
39 *179:29 *219:27 0.000139657
40 *179:29 *326:18 7.4564e-05
41 *179:38 *1443:RESET_B 9.18637e-05
42 *179:38 *199:62 5.21059e-05
43 *1434:D *179:23 1.59071e-05
44 *4:14 *1437:CLK 1.39431e-05
45 *37:10 *1433:CLK 4.2361e-05
46 *37:10 *179:19 2.76611e-06
47 *40:10 *1437:CLK 0.000143655
48 *40:10 *179:46 0
49 *46:10 *1444:CLK 0.000128391
50 *46:10 *179:44 0
51 *48:10 *179:29 3.81391e-05
*RES
1 *1469:X *179:8 39.0979 
2 *179:8 *1433:CLK 39.9057 
3 *179:8 *179:19 4.01857 
4 *179:19 *179:23 23.2443 
5 *179:23 *179:29 35.4271 
6 *179:29 *1445:CLK 23 
7 *179:23 *179:38 12.5529 
8 *179:38 *179:42 16.5743 
9 *179:42 *179:44 5.77929 
10 *179:44 *179:46 2.25786 
11 *179:46 *1440:CLK 41.3143 
12 *179:46 *1437:CLK 49.6 
13 *179:44 *1436:CLK 40.5271 
14 *179:42 *1444:CLK 43.9657 
15 *179:38 *1443:CLK 23 
16 *179:23 *1434:CLK 23 
17 *179:19 *1446:CLK 45.0014 
*END

*D_NET *180 0.0121249
*CONN
*I *1426:CLK I *D sky130_fd_sc_hd__dfrtp_1
*I *1447:CLK I *D sky130_fd_sc_hd__dfrtp_1
*I *1448:CLK I *D sky130_fd_sc_hd__dfrtp_1
*I *1431:CLK I *D sky130_fd_sc_hd__dfrtp_1
*I *1427:CLK I *D sky130_fd_sc_hd__dfrtp_1
*I *1477:A I *D sky130_fd_sc_hd__clkbuf_4
*I *1430:CLK I *D sky130_fd_sc_hd__dfrtp_1
*I *1428:CLK I *D sky130_fd_sc_hd__dfrtp_1
*I *1432:CLK I *D sky130_fd_sc_hd__dfrtp_1
*I *1470:X O *D sky130_fd_sc_hd__clkbuf_16
*CAP
1 *1426:CLK 6.18859e-05
2 *1447:CLK 0.000530268
3 *1448:CLK 0.000129222
4 *1431:CLK 0
5 *1427:CLK 0
6 *1477:A 0.000255104
7 *1430:CLK 0
8 *1428:CLK 0
9 *1432:CLK 0.000742451
10 *1470:X 0
11 *180:90 0.000755008
12 *180:83 0.00105741
13 *180:73 0.00118953
14 *180:64 0.000428768
15 *180:49 0.000757609
16 *180:47 0.000337486
17 *180:20 0.00128053
18 *180:10 0.000836712
19 *180:6 0.000463896
20 *1432:CLK *200:26 0.000230028
21 *1447:CLK *1447:RESET_B 3.6485e-05
22 *1447:CLK *262:95 3.70187e-05
23 *1447:CLK *329:12 0
24 *1448:CLK *1387:A1 9.5877e-05
25 *1448:CLK *228:14 0.000148524
26 *1448:CLK *262:95 9.84851e-05
27 *1477:A *251:10 0.000394988
28 *1477:A *262:87 0.000250749
29 *180:10 *190:81 2.86553e-05
30 *180:10 *258:8 5.31444e-05
31 *180:10 *262:87 0
32 *180:10 *329:12 0
33 *180:20 *1430:D 4.39278e-05
34 *180:20 *190:81 0
35 *180:20 *200:10 3.0647e-05
36 *180:20 *262:87 6.72204e-05
37 *180:20 *304:8 0.000166513
38 *180:47 *262:87 0
39 *180:47 *329:12 0
40 *180:49 *262:87 2.93845e-05
41 *180:64 *1426:RESET_B 0
42 *180:64 *194:74 0
43 *180:64 *237:8 0.000246748
44 *180:64 *262:95 0.00064159
45 *180:64 *281:98 0
46 *180:64 *329:12 0
47 *180:73 *262:95 9.26005e-05
48 *180:83 *1431:RESET_B 4.83893e-05
49 *180:83 *1526:A 2.30292e-05
50 *180:83 *303:10 3.70553e-06
51 *180:90 *262:95 0.000136486
52 *1431:D *180:83 3.98085e-05
53 *1447:D *1447:CLK 0.000128391
54 *50:8 *1447:CLK 2.54046e-05
55 *79:10 *180:64 4.23714e-05
56 *127:18 *1432:CLK 0.000102368
57 *127:32 *1432:CLK 2.93845e-05
58 *127:32 *180:20 2.71291e-05
59 *129:10 *180:64 0
60 *131:12 *180:10 0
*RES
1 *1470:X *180:6 38 
2 *180:6 *180:10 20.075 
3 *180:10 *180:20 39.4043 
4 *180:20 *1432:CLK 34.5171 
5 *180:20 *1428:CLK 23 
6 *180:10 *1430:CLK 23 
7 *180:6 *180:47 17.9621 
8 *180:47 *180:49 1.57429 
9 *180:49 *1477:A 29.5043 
10 *180:49 *180:64 24.3007 
11 *180:64 *1427:CLK 38 
12 *180:64 *180:73 1.20143 
13 *180:73 *180:83 29.6243 
14 *180:83 *1431:CLK 23 
15 *180:73 *180:90 1.90571 
16 *180:90 *1448:CLK 41.9564 
17 *180:90 *1447:CLK 46.4929 
18 *180:47 *1426:CLK 24.4707 
*END

*D_NET *181 0.00838624
*CONN
*I *1418:CLK I *D sky130_fd_sc_hd__dfrtp_1
*I *1453:CLK I *D sky130_fd_sc_hd__dfrtp_1
*I *1478:A I *D sky130_fd_sc_hd__clkinv_2
*I *1406:CLK I *D sky130_fd_sc_hd__dfrtp_1
*I *1461:CLK I *D sky130_fd_sc_hd__dfrtp_2
*I *1460:CLK I *D sky130_fd_sc_hd__dfrtp_4
*I *1454:CLK I *D sky130_fd_sc_hd__dfrtp_1
*I *1471:X O *D sky130_fd_sc_hd__clkbuf_16
*CAP
1 *1418:CLK 0.000426925
2 *1453:CLK 0.000236953
3 *1478:A 5.93467e-05
4 *1406:CLK 7.28993e-05
5 *1461:CLK 0
6 *1460:CLK 0.000166084
7 *1454:CLK 0.000218948
8 *1471:X 0.000203964
9 *181:37 0.000465055
10 *181:24 0.00120757
11 *181:18 0.000951726
12 *181:14 0.000702783
13 *181:12 0.000989575
14 *181:8 0.000929249
15 *1406:CLK *1326:A1 6.6869e-05
16 *1406:CLK *226:10 4.06408e-05
17 *1418:CLK *189:24 0
18 *1418:CLK *195:52 7.45374e-05
19 *1418:CLK *292:29 0
20 *1453:CLK *1419:RESET_B 0
21 *1453:CLK *1453:RESET_B 0.000109746
22 *1460:CLK *185:8 0
23 *1460:CLK *284:10 0.000116314
24 *181:12 *1393:S 4.07715e-05
25 *181:12 *217:10 4.06408e-05
26 *181:12 *273:54 4.08641e-05
27 *181:12 *292:29 0
28 *181:12 *325:19 0
29 *181:14 *1453:RESET_B 0.000176527
30 *181:14 *201:54 4.70852e-05
31 *181:18 *1326:A1 1.21972e-05
32 *181:18 *1394:A0 2.64616e-05
33 *181:24 *1326:A1 2.19562e-05
34 *181:24 *1406:RESET_B 0
35 *181:24 *1454:RESET_B 0
36 *181:24 *212:8 0.000159651
37 *181:24 *226:10 4.21594e-06
38 *181:24 *273:62 0.000228909
39 *181:37 *204:63 9.38233e-05
40 *181:37 *213:10 6.48049e-05
41 *13:10 *1478:A 2.93845e-05
42 *13:10 *181:14 2.31797e-05
43 *13:10 *181:18 2.07242e-05
44 *62:10 *1460:CLK 0
45 *62:10 *181:37 0
46 *67:10 *1418:CLK 0
47 *122:14 *1418:CLK 0
48 *145:12 *181:37 0
49 *146:8 *1460:CLK 0
50 *146:8 *181:37 0
51 *176:60 *181:8 0.000315852
*RES
1 *1471:X *181:8 41.48 
2 *181:8 *181:12 20.7793 
3 *181:12 *181:14 6.815 
4 *181:14 *181:18 17.5271 
5 *181:18 *181:24 25.2536 
6 *181:24 *1454:CLK 25.9 
7 *181:24 *181:37 21.4836 
8 *181:37 *1460:CLK 41.5836 
9 *181:37 *1461:CLK 38 
10 *181:18 *1406:CLK 39.9057 
11 *181:14 *1478:A 24.4707 
12 *181:12 *1453:CLK 27.1429 
13 *181:8 *1418:CLK 45.54 
*END

*D_NET *182 0.0116155
*CONN
*I *1451:CLK I *D sky130_fd_sc_hd__dfrtp_1
*I *1463:CLK I *D sky130_fd_sc_hd__dfrtp_1
*I *1452:CLK I *D sky130_fd_sc_hd__dfrtp_1
*I *1462:CLK I *D sky130_fd_sc_hd__dfrtp_1
*I *1417:CLK I *D sky130_fd_sc_hd__dfrtp_1
*I *1479:A I *D sky130_fd_sc_hd__clkbuf_4
*I *1457:CLK I *D sky130_fd_sc_hd__dfrtp_1
*I *1464:CLK I *D sky130_fd_sc_hd__dfrtp_1
*I *1419:CLK I *D sky130_fd_sc_hd__dfrtp_1
*I *1472:X O *D sky130_fd_sc_hd__clkbuf_16
*CAP
1 *1451:CLK 0.000200912
2 *1463:CLK 0.000132467
3 *1452:CLK 1.80182e-05
4 *1462:CLK 0
5 *1417:CLK 0
6 *1479:A 0
7 *1457:CLK 0.000155532
8 *1464:CLK 0
9 *1419:CLK 0.000617004
10 *1472:X 0
11 *182:89 0.000207609
12 *182:76 0.000503544
13 *182:70 0.00046503
14 *182:68 0.00040923
15 *182:66 0.000326597
16 *182:26 0.00131474
17 *182:20 0.000893582
18 *182:16 0.000548539
19 *182:8 0.00123256
20 *182:4 0.000724335
21 *1419:CLK *1393:A1 4.6318e-06
22 *1419:CLK *201:44 7.24365e-05
23 *1419:CLK *292:29 0
24 *1451:CLK *1310:C1 1.59094e-05
25 *1451:CLK *187:64 0.000345015
26 *1451:CLK *189:153 0.000130826
27 *1452:CLK *267:22 2.93845e-05
28 *1457:CLK *1457:RESET_B 0.000137123
29 *1457:CLK *193:127 0.000287419
30 *1457:CLK *316:24 0.000105799
31 *1463:CLK *1463:D 7.20102e-05
32 *1463:CLK *203:22 9.17365e-05
33 *182:8 *1307:B 9.4713e-05
34 *182:8 *321:14 9.69279e-05
35 *182:16 *1457:RESET_B 0.000198196
36 *182:16 *189:142 0
37 *182:16 *241:17 0.000134009
38 *182:16 *273:42 2.04302e-05
39 *182:16 *273:126 5.59613e-05
40 *182:20 *316:24 0
41 *182:26 *1294:C1 0.000138631
42 *182:26 *1393:A1 5.97612e-05
43 *182:26 *189:12 0
44 *182:26 *189:142 0
45 *182:26 *244:10 0
46 *182:26 *244:16 0
47 *182:26 *273:31 7.57281e-06
48 *182:26 *316:24 0.000112619
49 *182:68 *187:64 9.26005e-05
50 *182:68 *267:22 6.46393e-05
51 *182:68 *321:10 0
52 *182:70 *201:32 0
53 *182:70 *267:22 5.26101e-05
54 *182:76 *1417:D 7.49233e-05
55 *182:76 *201:32 0.000128401
56 *182:76 *290:63 0
57 *182:76 *320:20 0
58 *182:76 *320:37 0.000166686
59 *182:89 *1417:D 2.4754e-05
60 *182:89 *267:10 9.84794e-05
61 *182:89 *320:37 0.000128723
62 *1310:B1 *1451:CLK 1.7387e-05
63 *1310:B1 *182:68 4.02103e-05
64 *22:8 *1452:CLK 5.50106e-05
65 *55:10 *182:70 0
66 *60:10 *1457:CLK 0
67 *60:10 *182:26 0
68 *64:8 *182:76 0
69 *64:8 *182:89 0
70 *66:10 *1419:CLK 4.21594e-06
71 *66:10 *182:26 5.15848e-05
72 *69:18 *182:16 6.81645e-05
73 *69:18 *182:26 6.12496e-06
74 *71:10 *182:26 0.000315236
75 *120:8 *182:26 1.37349e-05
76 *121:10 *182:26 0.000163352
77 *134:8 *182:8 8.7843e-05
*RES
1 *1472:X *182:4 23 
2 *182:4 *182:8 10.1707 
3 *182:8 *182:16 38.3271 
4 *182:16 *182:20 15.6214 
5 *182:20 *182:26 13.9407 
6 *182:26 *1419:CLK 46.9693 
7 *182:26 *1464:CLK 38 
8 *182:20 *1457:CLK 43.0543 
9 *182:8 *1479:A 23 
10 *182:4 *182:66 15 
11 *182:66 *182:68 3.66643 
12 *182:68 *182:70 2.96214 
13 *182:70 *182:76 22.395 
14 *182:76 *1417:CLK 23 
15 *182:76 *182:89 34.5364 
16 *182:89 *1462:CLK 23 
17 *182:70 *1452:CLK 38.6214 
18 *182:68 *1463:CLK 41.1486 
19 *182:66 *1451:CLK 43.3443 
*END

*D_NET *183 0.0109307
*CONN
*I *1449:CLK I *D sky130_fd_sc_hd__dfrtp_1
*I *1420:CLK I *D sky130_fd_sc_hd__dfrtp_1
*I *1480:A I *D sky130_fd_sc_hd__clkinv_2
*I *1424:CLK I *D sky130_fd_sc_hd__dfrtp_1
*I *1423:CLK I *D sky130_fd_sc_hd__dfrtp_1
*I *1422:CLK I *D sky130_fd_sc_hd__dfrtp_1
*I *1425:CLK I *D sky130_fd_sc_hd__dfrtp_1
*I *1473:X O *D sky130_fd_sc_hd__clkbuf_16
*CAP
1 *1449:CLK 0
2 *1420:CLK 0.000207358
3 *1480:A 9.13777e-05
4 *1424:CLK 0
5 *1423:CLK 0
6 *1422:CLK 0.000400225
7 *1425:CLK 0.000216539
8 *1473:X 0
9 *183:96 0.000454922
10 *183:79 0.000959291
11 *183:63 0.00051099
12 *183:51 0.000657188
13 *183:22 0.00111602
14 *183:16 0.000858096
15 *183:8 0.000805015
16 *183:4 0.000688362
17 *1420:CLK *202:61 9.1889e-05
18 *1422:CLK *187:131 3.61128e-05
19 *1422:CLK *308:22 4.34973e-05
20 *1425:CLK *204:86 0.000371908
21 *1480:A *1313:B 4.00259e-06
22 *1480:A *194:89 3.81176e-05
23 *1480:A *194:102 1.22822e-05
24 *1480:A *194:110 0
25 *1480:A *309:28 0.000138502
26 *183:8 *1315:A1 3.80755e-05
27 *183:16 *1256:B 0
28 *183:16 *189:44 0
29 *183:16 *202:69 0
30 *183:16 *306:14 0
31 *183:16 *306:28 0
32 *183:22 *1256:B 9.41704e-05
33 *183:22 *189:44 0.000289704
34 *183:22 *204:86 0.000648179
35 *183:22 *281:113 0
36 *183:22 *306:28 5.36486e-05
37 *183:63 *1369:A0 2.64616e-05
38 *183:63 *186:114 8.82627e-05
39 *183:63 *194:89 8.95752e-05
40 *183:63 *306:12 0.000237534
41 *183:63 *306:14 6.25829e-05
42 *183:63 *330:8 0.000114092
43 *183:79 *202:61 3.23768e-05
44 *183:96 *1254:A 0
45 *183:96 *221:10 1.44546e-05
46 *183:96 *309:8 0
47 *183:96 *309:14 0
48 *183:96 *312:12 0
49 *1278:B *1422:CLK 6.53382e-05
50 *1312:A1_N *1422:CLK 0.000273795
51 *1315:B2 *183:8 1.24376e-05
52 *28:10 *183:16 1.01436e-05
53 *52:8 *183:96 0
54 *81:10 *1480:A 0.000272383
55 *81:10 *183:16 6.16439e-05
56 *81:10 *183:51 8.62876e-05
57 *82:8 *183:96 0
58 *104:14 *1422:CLK 9.41704e-05
59 *139:10 *1422:CLK 0.0002246
60 *140:10 *183:16 2.70469e-05
61 *140:10 *183:51 1.12487e-05
62 *141:8 *183:16 1.14452e-05
63 *141:8 *183:51 7.70737e-05
64 *142:8 *183:8 2.58572e-05
65 *142:12 *183:16 0
66 *176:84 *1425:CLK 0.000120437
67 *176:84 *183:22 6.59536e-05
*RES
1 *1473:X *183:4 23 
2 *183:4 *183:8 20.3857 
3 *183:8 *183:16 20.9657 
4 *183:16 *183:22 26.4757 
5 *183:22 *1425:CLK 43.075 
6 *183:22 *1422:CLK 46.265 
7 *183:16 *1423:CLK 23 
8 *183:8 *183:51 16.5536 
9 *183:51 *183:63 40.1293 
10 *183:63 *1424:CLK 23 
11 *183:51 *1480:A 26.9771 
12 *183:4 *183:79 3.95643 
13 *183:79 *1420:CLK 27.4743 
14 *183:79 *183:96 37.54 
15 *183:96 *1449:CLK 23 
*END

*D_NET *184 0.011497
*CONN
*I *1421:CLK I *D sky130_fd_sc_hd__dfrtp_1
*I *1415:CLK I *D sky130_fd_sc_hd__dfrtp_1
*I *1456:CLK I *D sky130_fd_sc_hd__dfrtp_1
*I *1414:CLK I *D sky130_fd_sc_hd__dfrtp_1
*I *1450:CLK I *D sky130_fd_sc_hd__dfrtp_1
*I *1481:A I *D sky130_fd_sc_hd__clkbuf_8
*I *1416:CLK I *D sky130_fd_sc_hd__dfrtp_1
*I *1455:CLK I *D sky130_fd_sc_hd__dfrtp_1
*I *1474:X O *D sky130_fd_sc_hd__clkbuf_16
*CAP
1 *1421:CLK 0.000335741
2 *1415:CLK 0
3 *1456:CLK 2.00578e-05
4 *1414:CLK 0
5 *1450:CLK 4.01156e-05
6 *1481:A 0.00019957
7 *1416:CLK 4.03238e-05
8 *1455:CLK 0
9 *1474:X 4.83085e-05
10 *184:88 0.000604473
11 *184:74 0.000569065
12 *184:62 0.00133299
13 *184:49 0.000783987
14 *184:47 0.000536312
15 *184:32 0.000562592
16 *184:16 0.000417708
17 *184:10 0.000738669
18 *184:8 0.000424388
19 *1416:CLK *1416:D 3.22879e-05
20 *1416:CLK *191:40 0.000141954
21 *1416:CLK *316:48 2.64616e-05
22 *1421:CLK *1357:A1 0
23 *1421:CLK *1421:D 7.69528e-05
24 *1421:CLK *1421:RESET_B 0.000201799
25 *1421:CLK *1449:RESET_B 0
26 *1421:CLK *202:95 0
27 *1421:CLK *220:29 0
28 *1421:CLK *253:10 0
29 *1421:CLK *312:29 0.000174996
30 *1450:CLK *1420:RESET_B 0
31 *1481:A *190:155 5.50106e-05
32 *184:8 *192:134 0.000226306
33 *184:10 *1416:RESET_B 0
34 *184:10 *194:110 6.53505e-05
35 *184:10 *194:120 4.09548e-05
36 *184:10 *202:28 0
37 *184:10 *311:12 6.16531e-05
38 *184:16 *1264:A 7.15126e-05
39 *184:16 *1264:B 5.50106e-05
40 *184:16 *1309:A2 0.000182832
41 *184:16 *1416:RESET_B 0
42 *184:16 *187:52 0.000283746
43 *184:16 *187:64 2.43944e-05
44 *184:16 *316:48 0.000136486
45 *184:16 *318:18 0.000245202
46 *184:32 *194:110 5.68527e-05
47 *184:32 *311:12 0.000179712
48 *184:47 *194:110 0.000158972
49 *184:47 *311:12 0.000281183
50 *184:62 *1450:RESET_B 0.000111182
51 *184:74 *1414:RESET_B 9.67842e-05
52 *184:74 *1450:RESET_B 8.44348e-05
53 *184:74 *186:84 8.68903e-05
54 *184:74 *203:81 0.00012863
55 *184:74 *315:23 0
56 *184:88 *1357:A1 0
57 *184:88 *1357:S 0
58 *184:88 *1553:A 4.23817e-05
59 *184:88 *194:110 0.000250839
60 *184:88 *202:95 0
61 *184:88 *311:12 4.87081e-05
62 *1309:B2 *184:16 5.50106e-05
63 *20:8 *184:88 8.85189e-05
64 *21:10 *184:16 0.000180218
65 *91:10 *184:16 1.21972e-05
66 *94:14 *1416:CLK 1.03836e-05
67 *115:8 *184:8 0.000226306
68 *116:8 *1481:A 0.000244791
69 *118:14 *184:10 0.000138727
70 *118:14 *184:16 0.000241365
71 *136:10 *184:16 1.56665e-05
*RES
1 *1474:X *184:8 40.5271 
2 *184:8 *184:10 6.13143 
3 *184:10 *184:16 27.035 
4 *184:16 *1455:CLK 23 
5 *184:10 *1416:CLK 39.5743 
6 *184:8 *184:32 2.61 
7 *184:32 *1481:A 42.9093 
8 *184:32 *184:47 5.96571 
9 *184:47 *184:49 15 
10 *184:49 *1450:CLK 23.8493 
11 *184:49 *184:62 10.3157 
12 *184:62 *184:74 39.7979 
13 *184:74 *1414:CLK 23 
14 *184:62 *1456:CLK 23.4971 
15 *184:47 *184:88 6.48357 
16 *184:88 *1415:CLK 38 
17 *184:88 *1421:CLK 46.7 
*END

*D_NET *185 0.000333197
*CONN
*I *1319:A I *D sky130_fd_sc_hd__or2_2
*I *1572:X O *D sky130_fd_sc_hd__clkbuf_1
*CAP
1 *1319:A 4.24511e-05
2 *1572:X 0.000124148
3 *185:8 0.000166599
4 *1460:CLK *185:8 0
*RES
1 *1572:X *185:8 40.2579 
2 *185:8 *1319:A 38.6214 
*END

*D_NET *186 0.0167027
*CONN
*I *1363:S I *D sky130_fd_sc_hd__mux2_1
*I *1389:S I *D sky130_fd_sc_hd__mux2_1
*I *1366:S I *D sky130_fd_sc_hd__mux2_1
*I *1388:S I *D sky130_fd_sc_hd__mux2_1
*I *1396:S I *D sky130_fd_sc_hd__mux2_1
*I *1395:S I *D sky130_fd_sc_hd__mux2_1
*I *1362:S I *D sky130_fd_sc_hd__mux2_1
*I *1364:S I *D sky130_fd_sc_hd__mux2_1
*I *1365:S I *D sky130_fd_sc_hd__mux2_1
*I *1367:S I *D sky130_fd_sc_hd__mux2_1
*I *1482:X O *D sky130_fd_sc_hd__clkbuf_4
*CAP
1 *1363:S 5.23898e-05
2 *1389:S 2.34823e-05
3 *1366:S 0
4 *1388:S 0
5 *1396:S 0
6 *1395:S 0
7 *1362:S 0.000236951
8 *1364:S 0.00013597
9 *1365:S 2.34823e-05
10 *1367:S 0.000217123
11 *1482:X 0.00017153
12 *186:114 0.000280767
13 *186:104 0.000765595
14 *186:100 0.000864107
15 *186:98 0.000675592
16 *186:84 0.000571693
17 *186:74 0.00127881
18 *186:61 0.000944071
19 *186:59 0.000539473
20 *186:40 0.000742338
21 *186:25 0.000660246
22 *186:8 0.000691116
23 *1362:S *1362:A0 4.5051e-05
24 *1362:S *1362:A1 1.73399e-05
25 *1363:S *1363:A1 2.93845e-05
26 *1364:S *1364:A0 0.000174777
27 *1364:S *311:18 2.16955e-05
28 *1364:S *313:14 4.6318e-06
29 *1367:S *1425:RESET_B 0
30 *1367:S *190:127 2.24973e-05
31 *1367:S *236:22 5.67058e-05
32 *186:8 *187:131 0.000182826
33 *186:25 *1365:A0 4.95081e-05
34 *186:25 *1365:A1 0.000228909
35 *186:25 *1425:RESET_B 0
36 *186:25 *190:127 6.22372e-05
37 *186:25 *190:142 0.000393975
38 *186:25 *305:22 7.75329e-06
39 *186:40 *1365:A0 4.34876e-05
40 *186:40 *1562:A 8.6949e-05
41 *186:40 *190:142 0.00103037
42 *186:40 *195:56 0.000198206
43 *186:40 *308:22 0.000313255
44 *186:40 *331:16 0
45 *186:59 *1290:A2 0.000178782
46 *186:59 *195:66 0
47 *186:59 *202:28 9.21347e-06
48 *186:59 *202:53 4.39444e-06
49 *186:59 *311:18 0.000167443
50 *186:59 *331:16 5.94125e-05
51 *186:74 *1390:A0 4.5051e-05
52 *186:74 *1390:S 0.000525411
53 *186:74 *195:66 8.06804e-06
54 *186:74 *202:24 0.00027056
55 *186:74 *220:29 7.13587e-05
56 *186:84 *1395:A1 0.000111852
57 *186:84 *1396:A1 9.84794e-05
58 *186:84 *202:24 5.3304e-05
59 *186:84 *247:8 0.000184174
60 *186:84 *248:10 4.58924e-05
61 *186:84 *259:21 3.70094e-05
62 *186:84 *275:6 0.000173442
63 *186:84 *315:29 0
64 *186:84 *332:33 0
65 *186:98 *220:29 0
66 *186:98 *331:16 0.000548962
67 *186:100 *1363:A1 0.00036255
68 *186:104 *1363:A1 0.000103647
69 *186:104 *1366:A0 0.000205566
70 *186:104 *1366:A1 4.07902e-05
71 *186:104 *1389:A1 0.000116318
72 *186:104 *330:25 1.03955e-05
73 *186:114 *256:10 0.00014411
74 *186:114 *306:12 3.70094e-05
75 *186:114 *330:18 6.16439e-05
76 *186:114 *330:35 0
77 *1278:B *1367:S 0.000215216
78 *1278:B *186:8 2.18506e-05
79 *1289:B1 *186:40 3.53115e-05
80 *1289:B1 *186:59 0
81 *1290:B1 *1362:S 0.000200325
82 *1312:A1_N *1367:S 0
83 *1474:A *1364:S 2.4754e-05
84 *1474:A *186:40 0
85 *1474:A *186:59 0
86 *25:10 *1362:S 0.000135037
87 *25:10 *186:74 0.000140259
88 *25:10 *186:98 0.000110207
89 *51:8 *186:114 0
90 *53:10 *186:74 5.67058e-05
91 *59:10 *186:84 2.30292e-05
92 *139:10 *1367:S 0
93 *176:84 *186:40 4.56951e-05
94 *183:63 *186:114 8.82627e-05
95 *184:74 *186:84 8.68903e-05
*RES
1 *1482:X *186:8 40.5271 
2 *186:8 *1367:S 42.2879 
3 *186:8 *186:25 22.8507 
4 *186:25 *1365:S 23.4971 
5 *186:25 *186:40 28.7543 
6 *186:40 *1364:S 41.6664 
7 *186:40 *186:59 6.04857 
8 *186:59 *186:61 15 
9 *186:61 *1362:S 27.93 
10 *186:61 *186:74 15.4114 
11 *186:74 *186:84 43.5264 
12 *186:84 *1395:S 23 
13 *186:74 *1396:S 23 
14 *186:59 *186:98 22.54 
15 *186:98 *186:100 7.29143 
16 *186:100 *186:104 10.6471 
17 *186:104 *186:114 36.5457 
18 *186:114 *1388:S 23 
19 *186:104 *1366:S 23 
20 *186:100 *1389:S 23.4971 
21 *186:98 *1363:S 24.1186 
*END

*D_NET *187 0.0167191
*CONN
*I *1482:A I *D sky130_fd_sc_hd__clkbuf_4
*I *1357:S I *D sky130_fd_sc_hd__mux2_1
*I *1390:S I *D sky130_fd_sc_hd__mux2_1
*I *1356:S I *D sky130_fd_sc_hd__mux2_1
*I *1392:S I *D sky130_fd_sc_hd__mux2_1
*I *1403:S I *D sky130_fd_sc_hd__mux2_1
*I *1358:S I *D sky130_fd_sc_hd__mux2_1
*I *1502:A I *D sky130_fd_sc_hd__clkbuf_4
*I *1483:X O *D sky130_fd_sc_hd__buf_2
*CAP
1 *1482:A 0
2 *1357:S 0.000266538
3 *1390:S 0.000112222
4 *1356:S 0
5 *1392:S 0
6 *1403:S 0
7 *1358:S 0
8 *1502:A 0
9 *1483:X 0.000122635
10 *187:131 0.00101176
11 *187:101 0.000771272
12 *187:88 0.000736482
13 *187:81 0.000317718
14 *187:68 0.000608027
15 *187:64 0.00113491
16 *187:52 0.00200307
17 *187:31 0.000985155
18 *187:27 0.0014483
19 *187:20 0.000291399
20 *187:8 0.000679921
21 *1357:S *1357:A1 6.07611e-06
22 *1357:S *1421:RESET_B 0
23 *1357:S *194:110 0
24 *1357:S *222:8 0.000174417
25 *1357:S *315:14 0
26 *1390:S *1390:A0 0.000441978
27 *1390:S *202:24 1.41129e-05
28 *1390:S *220:29 5.50049e-05
29 *187:8 *188:35 3.31127e-05
30 *187:8 *242:10 0
31 *187:8 *273:10 4.6318e-06
32 *187:20 *189:24 0
33 *187:20 *193:127 3.34247e-05
34 *187:20 *195:52 1.86869e-05
35 *187:27 *188:35 3.3746e-05
36 *187:27 *195:52 0
37 *187:27 *242:10 0
38 *187:27 *316:24 0
39 *187:52 *1309:B1 5.15096e-05
40 *187:52 *191:51 8.68016e-06
41 *187:52 *191:59 1.47563e-05
42 *187:52 *192:117 0
43 *187:52 *316:38 8.81405e-05
44 *187:52 *318:22 1.01436e-05
45 *187:64 *1309:A2 0.000140259
46 *187:64 *189:153 0.00013958
47 *187:64 *215:10 3.21223e-05
48 *187:64 *259:21 0
49 *187:64 *267:22 1.83667e-05
50 *187:64 *270:8 0
51 *187:68 *259:21 1.5769e-05
52 *187:68 *267:22 0.000311549
53 *187:81 *203:10 0
54 *187:81 *214:19 0.00019747
55 *187:88 *191:51 0.000188926
56 *187:88 *192:117 0
57 *187:88 *192:134 0
58 *187:88 *314:14 4.49227e-05
59 *187:101 *192:134 0
60 *187:101 *194:110 0
61 *187:101 *222:8 1.58805e-05
62 *187:101 *314:14 0
63 *187:131 *1312:A2_N 0.000522798
64 *187:131 *1358:A1 0
65 *187:131 *1364:A1 0
66 *187:131 *195:52 0
67 *187:131 *236:22 0
68 *187:131 *308:22 0.000139346
69 *187:131 *310:31 2.08557e-05
70 *187:131 *316:10 0
71 *187:131 *316:24 0
72 *1278:B *187:131 0.000139346
73 *1291:A *187:88 0.000213551
74 *1291:B *187:88 0.000295096
75 *1291:B *187:101 9.8474e-05
76 *1309:B2 *187:52 2.71291e-05
77 *1312:A1_N *187:131 0.000124577
78 *1422:CLK *187:131 3.61128e-05
79 *1422:D *187:131 0.000153054
80 *1451:CLK *187:64 0.000345015
81 *21:10 *187:52 0.000573195
82 *53:10 *1357:S 0
83 *122:14 *187:8 1.84329e-05
84 *122:14 *187:20 0.000181125
85 *136:10 *187:52 0.000139352
86 *182:68 *187:64 9.26005e-05
87 *184:16 *187:52 0.000283746
88 *184:16 *187:64 2.43944e-05
89 *184:88 *1357:S 0
90 *186:8 *187:131 0.000182826
91 *186:74 *1390:S 0.000525411
*RES
1 *1483:X *187:8 39.9057 
2 *187:8 *187:20 49.4743 
3 *187:20 *1502:A 23 
4 *187:8 *187:27 4.72286 
5 *187:27 *187:31 18.0036 
6 *187:31 *1358:S 23 
7 *187:31 *187:52 31.3436 
8 *187:52 *187:64 45.2871 
9 *187:64 *187:68 20.8621 
10 *187:68 *1403:S 23 
11 *187:68 *187:81 36.09 
12 *187:81 *1392:S 23 
13 *187:52 *187:88 7.89214 
14 *187:88 *1356:S 38 
15 *187:88 *187:101 7.02214 
16 *187:101 *1390:S 43.8621 
17 *187:101 *1357:S 43.7793 
18 *187:27 *187:131 36.5843 
19 *187:131 *1482:A 23 
*END

*D_NET *188 0.0116502
*CONN
*I *1369:S I *D sky130_fd_sc_hd__mux2_1
*I *1372:S I *D sky130_fd_sc_hd__mux2_1
*I *1368:S I *D sky130_fd_sc_hd__mux2_1
*I *1483:A I *D sky130_fd_sc_hd__buf_2
*I *1501:A I *D sky130_fd_sc_hd__clkbuf_4
*I *1484:X O *D sky130_fd_sc_hd__clkbuf_2
*CAP
1 *1369:S 0
2 *1372:S 0.000308226
3 *1368:S 0
4 *1483:A 0
5 *1501:A 0
6 *1484:X 0
7 *188:59 0.000800142
8 *188:42 0.00111949
9 *188:35 7.80399e-05
10 *188:29 0.0013647
11 *188:21 0.00225398
12 *188:10 0.000191885
13 *188:4 0.000531623
14 *1372:S *1302:B 0.00014196
15 *1372:S *1372:A0 6.3621e-05
16 *1372:S *194:89 0.000438462
17 *1372:S *238:10 5.70419e-05
18 *188:10 *1370:S 0.000231221
19 *188:10 *1493:A 0
20 *188:10 *1495:A 0
21 *188:10 *262:119 6.16439e-05
22 *188:21 *192:29 5.56203e-05
23 *188:21 *193:102 2.02872e-05
24 *188:29 *249:14 9.84851e-05
25 *188:35 *195:52 4.49946e-05
26 *188:42 *192:29 0.000332
27 *188:42 *249:14 0.000182076
28 *188:42 *281:113 0
29 *188:42 *304:42 0.00011127
30 *188:42 *305:16 0
31 *188:42 *307:23 5.58629e-05
32 *188:59 *1427:RESET_B 0
33 *188:59 *194:89 0.000343493
34 *188:59 *238:10 0.000144067
35 *188:59 *305:16 0
36 *188:59 *329:12 0
37 *1527:A *188:59 9.84794e-05
38 *31:10 *188:59 0.00035793
39 *85:10 *188:42 7.03766e-05
40 *88:8 *188:42 0
41 *105:12 *188:21 0
42 *109:20 *188:29 0.000133531
43 *118:14 *188:29 0.0012141
44 *122:14 *188:35 3.70094e-05
45 *131:12 *188:42 0.000125454
46 *131:12 *188:59 0.000192937
47 *138:10 *188:29 1.0119e-05
48 *149:6 *188:21 0.000313255
49 *176:84 *188:42 0
50 *187:8 *188:35 3.31127e-05
51 *187:27 *188:35 3.3746e-05
*RES
1 *1484:X *188:4 23 
2 *188:4 *188:10 34.0186 
3 *188:10 *1501:A 23 
4 *188:4 *188:21 20.51 
5 *188:21 *188:29 35.7971 
6 *188:29 *188:35 31.9057 
7 *188:35 *1483:A 23 
8 *188:21 *188:42 14.5829 
9 *188:42 *1368:S 38 
10 *188:42 *188:59 28.6714 
11 *188:59 *1372:S 30.7679 
12 *188:59 *1369:S 23 
*END

*D_NET *189 0.0222593
*CONN
*I *1265:B2 I *D sky130_fd_sc_hd__o22a_1
*I *1293:B2 I *D sky130_fd_sc_hd__a22o_1
*I *1294:B2 I *D sky130_fd_sc_hd__o221a_1
*I *1273:B2 I *D sky130_fd_sc_hd__o2bb2a_1
*I *1257:B2 I *D sky130_fd_sc_hd__o22a_1
*I *1268:B2 I *D sky130_fd_sc_hd__a22oi_1
*I *1271:A1 I *D sky130_fd_sc_hd__o221a_1
*I *1280:B2 I *D sky130_fd_sc_hd__a22o_1
*I *1281:B2 I *D sky130_fd_sc_hd__o221a_1
*I *1256:A I *D sky130_fd_sc_hd__nand2_1
*I *1485:X O *D sky130_fd_sc_hd__buf_2
*CAP
1 *1265:B2 0
2 *1293:B2 0
3 *1294:B2 0
4 *1273:B2 0
5 *1257:B2 5.38747e-05
6 *1268:B2 1.49804e-05
7 *1271:A1 0
8 *1280:B2 3.212e-05
9 *1281:B2 0.000130287
10 *1256:A 0
11 *1485:X 0
12 *189:153 0.00123396
13 *189:142 0.000116768
14 *189:136 0.00155863
15 *189:77 0.00071947
16 *189:73 0.000892022
17 *189:63 0.000418776
18 *189:61 0.00172408
19 *189:51 0.00168914
20 *189:44 0.000298648
21 *189:30 0.000870694
22 *189:24 0.00149284
23 *189:18 0.00125284
24 *189:12 0.000566771
25 *189:4 0.000452608
26 *1257:B2 *1253:A 1.56273e-05
27 *1257:B2 *1257:B1 1.24376e-05
28 *1268:B2 *194:58 5.50106e-05
29 *1268:B2 *299:8 5.50106e-05
30 *1280:B2 *281:66 6.25742e-05
31 *1281:B2 *1281:B1 1.76557e-05
32 *1281:B2 *281:66 1.10658e-05
33 *1281:B2 *281:80 0.000141954
34 *189:12 *1294:C1 1.19796e-05
35 *189:12 *1360:A1 0.00014196
36 *189:12 *271:10 2.5415e-05
37 *189:12 *281:154 1.02428e-05
38 *189:18 *1293:A1 5.30821e-05
39 *189:18 *1294:B1 0
40 *189:18 *1560:A 5.67058e-05
41 *189:18 *195:52 0.000215416
42 *189:18 *271:10 0.00010801
43 *189:18 *291:31 5.67058e-05
44 *189:24 *1425:RESET_B 0.000185267
45 *189:24 *1457:RESET_B 6.95342e-05
46 *189:24 *191:32 0
47 *189:24 *201:78 5.86165e-05
48 *189:24 *308:22 0.000216712
49 *189:24 *310:8 3.21223e-05
50 *189:24 *310:21 4.99753e-06
51 *189:30 *1253:A 8.72308e-05
52 *189:44 *1256:B 1.34406e-05
53 *189:44 *281:113 0
54 *189:44 *306:28 8.62783e-05
55 *189:51 *1253:A 4.00259e-06
56 *189:61 *1257:B1 2.02872e-05
57 *189:61 *1260:C1 4.75206e-05
58 *189:61 *1271:A2 4.6318e-06
59 *189:61 *1446:RESET_B 0.000110262
60 *189:61 *1545:A 9.3579e-05
61 *189:61 *257:6 0.000107476
62 *189:61 *299:8 5.79715e-05
63 *189:61 *299:23 2.639e-05
64 *189:61 *300:10 5.20202e-05
65 *189:63 *1270:B 4.98718e-06
66 *189:63 *1271:A2 7.81176e-05
67 *189:63 *1446:RESET_B 1.01436e-05
68 *189:63 *200:41 0.000136486
69 *189:73 *1269:B 5.3304e-05
70 *189:73 *1270:B 9.42216e-05
71 *189:73 *1271:A2 1.83667e-05
72 *189:73 *190:100 7.27182e-05
73 *189:73 *281:49 2.11157e-05
74 *189:73 *301:16 0.000212377
75 *189:77 *281:49 0.00058996
76 *189:77 *281:66 2.56863e-05
77 *189:136 *1360:A1 0.000313249
78 *189:142 *192:87 1.14452e-05
79 *189:142 *192:106 1.38978e-05
80 *189:142 *241:17 0
81 *189:153 *1360:A1 0.000676438
82 *189:153 *1397:A0 0.000226295
83 *189:153 *1404:A1 1.22803e-05
84 *189:153 *191:51 0.000163352
85 *189:153 *191:59 0.000187986
86 *189:153 *269:6 4.08664e-05
87 *189:153 *315:39 0
88 *189:153 *318:22 0.000112834
89 *1294:A2 *189:18 2.93747e-05
90 *1300:A_N *189:77 0.00010018
91 *1300:B *189:77 2.64616e-05
92 *1310:B1 *189:153 0.000297968
93 *1418:CLK *189:24 0
94 *1451:CLK *189:153 0.000130826
95 *34:8 *189:61 0.000701917
96 *58:8 *189:153 0
97 *77:29 *1281:B2 0.000182544
98 *80:12 *1257:B2 2.02872e-05
99 *80:12 *189:30 1.50684e-05
100 *80:12 *189:61 7.41816e-05
101 *83:8 *189:44 8.62876e-05
102 *84:10 *189:61 0.000135037
103 *87:10 *189:61 5.50049e-05
104 *93:10 *189:153 0
105 *95:8 *189:73 1.52259e-05
106 *96:10 *189:73 2.64616e-05
107 *98:10 *189:73 0.000141888
108 *108:10 *1281:B2 0.000101377
109 *108:10 *189:77 6.91397e-05
110 *121:10 *189:18 0.000116201
111 *122:14 *189:12 0
112 *124:10 *189:73 1.86268e-05
113 *126:10 *189:73 5.65824e-05
114 *127:18 *189:77 6.17437e-06
115 *142:12 *189:24 0.000453316
116 *176:84 *189:44 4.60263e-05
117 *182:16 *189:142 0
118 *182:26 *189:12 0
119 *182:26 *189:142 0
120 *183:16 *189:44 0
121 *183:22 *189:44 0.000289704
122 *187:20 *189:24 0
123 *187:64 *189:153 0.00013958
*RES
1 *1485:X *189:4 23 
2 *189:4 *189:12 33.8321 
3 *189:12 *189:18 8.88643 
4 *189:18 *189:24 49.865 
5 *189:24 *189:30 8.76214 
6 *189:30 *189:44 36.7321 
7 *189:44 *1256:A 23 
8 *189:30 *189:51 0.497143 
9 *189:51 *189:61 40.2093 
10 *189:61 *189:63 2.25786 
11 *189:63 *189:73 38.3271 
12 *189:73 *189:77 28.485 
13 *189:77 *1281:B2 27.4743 
14 *189:77 *1280:B2 24.1186 
15 *189:63 *1271:A1 38 
16 *189:61 *1268:B2 38.6214 
17 *189:51 *1257:B2 24.6157 
18 *189:18 *1273:B2 23 
19 *189:12 *1294:B2 23 
20 *189:4 *189:136 3.48 
21 *189:136 *189:142 31.9057 
22 *189:142 *1293:B2 23 
23 *189:136 *189:153 38.2207 
24 *189:153 *1265:B2 38 
*END

*D_NET *190 0.0191089
*CONN
*I *1290:A1 I *D sky130_fd_sc_hd__o221a_1
*I *1289:A1 I *D sky130_fd_sc_hd__a22o_1
*I *1257:A1 I *D sky130_fd_sc_hd__o22a_1
*I *1272:A1 I *D sky130_fd_sc_hd__o211a_1
*I *1299:A1 I *D sky130_fd_sc_hd__o221a_1
*I *1298:A1 I *D sky130_fd_sc_hd__a22o_1
*I *1268:A1 I *D sky130_fd_sc_hd__a22oi_1
*I *1303:B2 I *D sky130_fd_sc_hd__o2bb2a_1
*I *1286:A1 I *D sky130_fd_sc_hd__a221o_1
*I *1285:A1 I *D sky130_fd_sc_hd__o22ai_1
*I *1486:X O *D sky130_fd_sc_hd__buf_2
*CAP
1 *1290:A1 0
2 *1289:A1 0
3 *1257:A1 0
4 *1272:A1 0
5 *1299:A1 0
6 *1298:A1 7.30168e-05
7 *1268:A1 3.87578e-05
8 *1303:B2 2.14126e-05
9 *1286:A1 2.00578e-05
10 *1285:A1 0
11 *1486:X 0
12 *190:155 0.000253386
13 *190:142 0.00143606
14 *190:127 0.00137331
15 *190:115 0.000190812
16 *190:100 0.000785106
17 *190:96 0.000871619
18 *190:81 0.00125362
19 *190:58 0.0017774
20 *190:46 0.00203007
21 *190:26 0.000285004
22 *190:14 0.000723551
23 *190:4 0.00136645
24 *1268:A1 *1545:A 0.000111711
25 *1268:A1 *194:58 0.000183733
26 *1268:A1 *299:8 1.24376e-05
27 *1268:A1 *299:23 5.95848e-05
28 *1298:A1 *1298:A2 2.93747e-05
29 *1303:B2 *304:25 4.20001e-05
30 *190:14 *1285:A2 0.000136486
31 *190:14 *1286:A2 1.46586e-05
32 *190:14 *1520:A 9.58714e-05
33 *190:14 *195:44 0.000121261
34 *190:14 *280:10 3.24912e-05
35 *190:14 *281:139 3.98859e-05
36 *190:26 *1520:A 0.000139357
37 *190:26 *211:8 0.000193388
38 *190:26 *262:132 5.50049e-05
39 *190:26 *280:10 1.5769e-05
40 *190:26 *295:23 0
41 *190:46 *1244:A 2.47097e-05
42 *190:46 *191:32 0
43 *190:46 *192:53 3.56716e-05
44 *190:46 *195:44 2.50819e-05
45 *190:46 *291:31 0
46 *190:58 *304:25 2.65879e-05
47 *190:58 *304:42 8.52546e-06
48 *190:81 *1371:A0 9.58714e-05
49 *190:81 *1545:A 0.000376468
50 *190:81 *194:58 4.08664e-05
51 *190:81 *258:8 0.000114092
52 *190:96 *194:64 3.47781e-05
53 *190:96 *200:35 0.000278634
54 *190:96 *281:98 0
55 *190:96 *299:16 0
56 *190:100 *1269:A 9.58714e-05
57 *190:100 *1269:B 9.58714e-05
58 *190:115 *1270:A 0
59 *190:115 *193:74 0
60 *190:115 *263:28 2.64616e-05
61 *190:127 *204:86 6.33001e-05
62 *190:142 *1365:A1 7.06771e-05
63 *190:142 *204:86 1.27508e-05
64 *190:142 *305:22 0.000113153
65 *190:155 *1289:A2 5.3304e-05
66 *190:155 *202:28 0.000169683
67 *190:155 *220:29 0
68 *190:155 *311:12 0
69 *1278:B *190:46 7.60729e-05
70 *1278:B *190:127 0.000205583
71 *1286:B2 *190:26 2.84288e-05
72 *1303:A1_N *190:58 1.17065e-05
73 *1367:S *190:127 2.24973e-05
74 *1481:A *190:155 5.50106e-05
75 *1486:A *190:46 9.84851e-05
76 *30:10 *190:46 0.000110913
77 *34:8 *190:81 4.45667e-05
78 *70:16 *190:26 1.83667e-05
79 *72:8 *190:46 0.000167059
80 *99:6 *1303:B2 9.84794e-05
81 *99:6 *190:58 0.000140259
82 *99:6 *190:96 3.7122e-06
83 *103:10 *190:46 0
84 *104:14 *190:46 0.000431541
85 *104:14 *190:127 8.04208e-05
86 *110:10 *1286:A1 0
87 *110:10 *190:26 8.65191e-05
88 *116:8 *190:155 1.57571e-05
89 *131:12 *190:58 8.21456e-06
90 *131:12 *190:81 0
91 *143:8 *190:46 0
92 *176:32 *190:115 0.000272331
93 *180:10 *190:81 2.86553e-05
94 *180:20 *190:81 0
95 *186:25 *190:127 6.22372e-05
96 *186:25 *190:142 0.000393975
97 *186:40 *190:142 0.00103037
98 *189:73 *190:100 7.27182e-05
*RES
1 *1486:X *190:4 23 
2 *190:4 *190:14 36.96 
3 *190:14 *190:26 36.7321 
4 *190:26 *1285:A1 23 
5 *190:14 *1286:A1 23.4971 
6 *190:4 *190:46 33.1354 
7 *190:46 *190:58 34.8404 
8 *190:58 *1303:B2 24.0979 
9 *190:58 *190:81 45.2043 
10 *190:81 *1268:A1 25.0507 
11 *190:81 *190:96 37.0014 
12 *190:96 *190:100 9.21786 
13 *190:100 *1298:A1 24.0979 
14 *190:100 *190:115 34.2879 
15 *190:115 *1299:A1 23 
16 *190:96 *1272:A1 23 
17 *190:46 *190:127 5.25107 
18 *190:127 *1257:A1 38 
19 *190:127 *190:142 35.155 
20 *190:142 *1289:A1 23 
21 *190:142 *190:155 34.785 
22 *190:155 *1290:A1 23 
*END

*D_NET *191 0.0138125
*CONN
*I *1312:B2 I *D sky130_fd_sc_hd__o2bb2a_1
*I *1262:B I *D sky130_fd_sc_hd__nand2_1
*I *1309:A1 I *D sky130_fd_sc_hd__a22o_1
*I *1306:A I *D sky130_fd_sc_hd__or2_1
*I *1265:A2 I *D sky130_fd_sc_hd__o22a_1
*I *1273:A1_N I *D sky130_fd_sc_hd__o2bb2a_1
*I *1276:A1 I *D sky130_fd_sc_hd__o221a_1
*I *1487:X O *D sky130_fd_sc_hd__clkbuf_2
*CAP
1 *1312:B2 4.42533e-05
2 *1262:B 0.000348344
3 *1309:A1 0
4 *1306:A 0
5 *1265:A2 0
6 *1273:A1_N 1.93228e-05
7 *1276:A1 0.000250595
8 *1487:X 5.43738e-05
9 *191:59 0.0010218
10 *191:51 0.00115131
11 *191:47 0.000512981
12 *191:40 0.00162922
13 *191:32 0.00215316
14 *191:10 0.000401316
15 *191:8 0.000700584
16 *1262:B *1262:A 0.000395779
17 *1262:B *1265:A1 2.32101e-05
18 *1262:B *314:14 1.73222e-05
19 *1273:A1_N *291:31 2.70962e-05
20 *1276:A1 *1273:A2_N 0.000409631
21 *1276:A1 *1276:C1 6.17437e-06
22 *1276:A1 *290:28 3.34247e-05
23 *191:8 *193:127 2.64616e-05
24 *191:10 *1273:A2_N 6.48142e-05
25 *191:10 *1457:RESET_B 8.7476e-05
26 *191:10 *201:78 5.20202e-05
27 *191:32 *1425:RESET_B 9.20311e-06
28 *191:32 *1457:RESET_B 1.83667e-05
29 *191:40 *1263:B 5.41385e-05
30 *191:40 *1265:A1 2.93747e-05
31 *191:40 *1416:D 4.42436e-05
32 *191:40 *236:22 0.00103499
33 *191:40 *316:10 9.16362e-05
34 *191:40 *316:48 9.25972e-05
35 *191:47 *1265:A1 2.65505e-05
36 *191:51 *314:14 1.01436e-05
37 *191:59 *1309:B1 6.16531e-05
38 *191:59 *1391:A0 0.000118143
39 *191:59 *214:19 9.00922e-05
40 *191:59 *273:126 0.000187516
41 *191:59 *318:22 0.000110913
42 *1267:A *1262:B 2.55136e-05
43 *1267:B *1262:B 0.000138444
44 *1278:B *191:32 0
45 *1312:A1_N *1312:B2 4.08641e-05
46 *1312:A1_N *191:32 3.47776e-05
47 *1416:CLK *191:40 0.000141954
48 *1504:A *191:59 0.000182826
49 *67:35 *1276:A1 8.21123e-05
50 *67:35 *191:10 0.000338944
51 *67:35 *191:32 7.70737e-05
52 *70:39 *191:32 6.68793e-05
53 *90:10 *191:40 9.58714e-05
54 *94:14 *191:40 5.62407e-05
55 *102:10 *1276:A1 0
56 *103:10 *1276:A1 0.000134279
57 *133:10 *191:59 2.13054e-05
58 *139:10 *1312:B2 7.48331e-05
59 *139:10 *191:32 6.16531e-05
60 *143:8 *191:32 0.000166522
61 *176:60 *1276:A1 9.84794e-05
62 *187:52 *191:51 8.68016e-06
63 *187:52 *191:59 1.47563e-05
64 *187:88 *191:51 0.000188926
65 *189:24 *191:32 0
66 *189:153 *191:51 0.000163352
67 *189:153 *191:59 0.000187986
68 *190:46 *191:32 0
*RES
1 *1487:X *191:8 38.6214 
2 *191:8 *191:10 4.72286 
3 *191:10 *1276:A1 44.8771 
4 *191:10 *1273:A1_N 38.3159 
5 *191:8 *191:32 10.3571 
6 *191:32 *191:40 41.0379 
7 *191:40 *1265:A2 23 
8 *191:40 *191:47 0.621429 
9 *191:47 *191:51 17.9621 
10 *191:51 *191:59 31.82 
11 *191:59 *1306:A 23 
12 *191:51 *1309:A1 38 
13 *191:47 *1262:B 30.9957 
14 *191:32 *1312:B2 39.2014 
*END

*D_NET *192 0.0189137
*CONN
*I *1292:A I *D sky130_fd_sc_hd__xor2_1
*I *1288:A I *D sky130_fd_sc_hd__xor2_1
*I *1263:B I *D sky130_fd_sc_hd__and2_1
*I *1264:B I *D sky130_fd_sc_hd__nor2_1
*I *1307:A I *D sky130_fd_sc_hd__nor2_1
*I *1275:A I *D sky130_fd_sc_hd__nor2_1
*I *1274:A I *D sky130_fd_sc_hd__and2_1
*I *1259:A I *D sky130_fd_sc_hd__nor2_1
*I *1258:A I *D sky130_fd_sc_hd__and2_1
*I *1242:A I *D sky130_fd_sc_hd__inv_2
*I *1488:X O *D sky130_fd_sc_hd__clkbuf_4
*CAP
1 *1292:A 0
2 *1288:A 0
3 *1263:B 2.44422e-05
4 *1264:B 3.14662e-05
5 *1307:A 0
6 *1275:A 4.01155e-05
7 *1274:A 0
8 *1259:A 0.000127616
9 *1258:A 0
10 *1242:A 0.000394256
11 *1488:X 0
12 *192:134 0.00109821
13 *192:117 0.00124628
14 *192:106 0.00121574
15 *192:87 0.00132479
16 *192:81 0.00101093
17 *192:70 0.00129619
18 *192:61 0.000196071
19 *192:53 0.00155383
20 *192:29 0.000718156
21 *192:8 0.00102728
22 *192:4 0.000890951
23 *1242:A *1287:A2 1.01436e-05
24 *1242:A *1370:S 0
25 *1242:A *1495:A 5.67058e-05
26 *1242:A *204:63 4.06408e-05
27 *1242:A *262:10 0.000118143
28 *1242:A *262:109 0.000138719
29 *1259:A *1258:B 0.000104172
30 *1263:B *316:48 9.84851e-05
31 *192:8 *338:6 5.50106e-05
32 *192:29 *1370:S 0
33 *192:29 *204:63 1.62015e-05
34 *192:53 *204:27 1.76232e-05
35 *192:53 *204:35 0.000406998
36 *192:53 *291:12 0.000286254
37 *192:53 *338:6 0.000141052
38 *192:61 *1520:A 9.5877e-05
39 *192:61 *291:12 6.16439e-05
40 *192:61 *292:45 0.000168754
41 *192:70 *1520:A 0.000148524
42 *192:70 *292:33 1.59094e-05
43 *192:70 *292:45 8.60108e-05
44 *192:81 *1239:A 5.12254e-05
45 *192:81 *1292:B 3.64385e-05
46 *192:87 *241:17 0
47 *192:106 *1307:B 0
48 *192:106 *194:120 0.000318099
49 *192:106 *204:27 0.000169643
50 *192:106 *321:44 0.000171447
51 *192:134 *194:110 7.02777e-05
52 *192:134 *194:120 7.75329e-06
53 *192:134 *311:18 2.98648e-05
54 *1291:A *192:134 0
55 *1295:A *192:81 0.000180218
56 *1309:B2 *192:106 0
57 *1309:B2 *192:117 2.76611e-06
58 *1310:B1 *192:106 0
59 *1474:A *192:134 1.79651e-05
60 *21:10 *192:106 6.16531e-05
61 *21:10 *192:117 2.24048e-05
62 *67:10 *192:81 0.000487153
63 *69:29 *192:106 0
64 *70:10 *1242:A 0.000566018
65 *70:27 *1242:A 2.93845e-05
66 *71:10 *192:87 0
67 *85:10 *1259:A 5.67058e-05
68 *90:10 *192:134 1.47563e-05
69 *91:10 *1264:B 6.17437e-06
70 *91:10 *192:117 0.000135557
71 *91:10 *192:134 0.000206568
72 *103:10 *192:61 0
73 *104:14 *192:53 0.000285342
74 *112:10 *192:53 2.60152e-05
75 *113:10 *192:61 1.01436e-05
76 *114:10 *192:53 8.4047e-05
77 *115:8 *192:134 0.000260457
78 *122:8 *192:81 2.65879e-05
79 *123:8 *192:53 4.05745e-05
80 *131:12 *192:29 0.000244626
81 *136:10 *192:106 2.01531e-05
82 *137:8 *192:106 0.000107641
83 *145:12 *192:61 0
84 *176:10 *192:61 0.000118797
85 *184:8 *192:134 0.000226306
86 *184:16 *1264:B 5.50106e-05
87 *187:52 *192:117 0
88 *187:88 *192:117 0
89 *187:88 *192:134 0
90 *187:101 *192:134 0
91 *188:21 *192:29 5.56203e-05
92 *188:42 *192:29 0.000332
93 *189:142 *192:87 1.14452e-05
94 *189:142 *192:106 1.38978e-05
95 *190:46 *192:53 3.56716e-05
96 *191:40 *1263:B 5.41385e-05
*RES
1 *1488:X *192:4 23 
2 *192:4 *192:8 15.6214 
3 *192:8 *1242:A 49.6414 
4 *192:8 *192:29 27.47 
5 *192:29 *1258:A 23 
6 *192:29 *1259:A 26.045 
7 *192:4 *192:53 44.1271 
8 *192:53 *192:61 34.7643 
9 *192:61 *1274:A 23 
10 *192:53 *192:70 7.31214 
11 *192:70 *1275:A 23.8493 
12 *192:70 *192:81 14.3343 
13 *192:81 *192:87 18.9357 
14 *192:87 *1307:A 38 
15 *192:87 *192:106 29.3523 
16 *192:106 *1264:B 38.6214 
17 *192:106 *192:117 2.61 
18 *192:117 *1263:B 39.0979 
19 *192:117 *192:134 32.7107 
20 *192:134 *1288:A 23 
21 *192:81 *1292:A 23 
*END

*D_NET *193 0.0203086
*CONN
*I *1308:A I *D sky130_fd_sc_hd__and2_1
*I *1488:A I *D sky130_fd_sc_hd__clkbuf_4
*I *1270:A I *D sky130_fd_sc_hd__nor2_1
*I *1269:A I *D sky130_fd_sc_hd__and2_1
*I *1297:A I *D sky130_fd_sc_hd__xnor2_1
*I *1382:A1 I *D sky130_fd_sc_hd__mux2_1
*I *1279:A I *D sky130_fd_sc_hd__xor2_1
*I *1355:B2 I *D sky130_fd_sc_hd__o2bb2a_1
*I *1489:X O *D sky130_fd_sc_hd__buf_2
*CAP
1 *1308:A 0
2 *1488:A 0
3 *1270:A 0.000154809
4 *1269:A 6.07197e-05
5 *1297:A 0
6 *1382:A1 0
7 *1279:A 0
8 *1355:B2 0.000361704
9 *1489:X 0.000106812
10 *193:127 0.00160513
11 *193:102 0.00258812
12 *193:74 0.000679227
13 *193:68 0.00161248
14 *193:61 0.000114753
15 *193:55 0.00117993
16 *193:35 0.000443774
17 *193:27 0.00073699
18 *193:21 0.00149439
19 *193:8 0.000770304
20 *1270:A *263:28 0
21 *1270:A *327:36 4.21594e-06
22 *1355:B2 *197:79 0
23 *1355:B2 *197:93 0
24 *193:8 *1489:A 1.94812e-05
25 *193:8 *197:79 2.65879e-05
26 *193:21 *197:79 0
27 *193:21 *335:10 0.000141869
28 *193:27 *1382:S 0.000317553
29 *193:27 *262:42 8.52481e-05
30 *193:35 *1382:A0 0.000143655
31 *193:35 *240:35 1.83667e-05
32 *193:35 *278:8 0
33 *193:55 *1379:A1 0
34 *193:55 *240:23 0
35 *193:55 *261:14 5.3304e-05
36 *193:55 *262:36 0.000402474
37 *193:61 *194:21 9.04083e-05
38 *193:61 *194:32 2.96154e-05
39 *193:68 *262:36 0.000308946
40 *193:74 *252:8 8.93766e-05
41 *193:74 *262:28 0
42 *193:74 *298:29 5.68527e-05
43 *193:102 *1376:A0 2.18409e-05
44 *193:102 *204:39 0.00044107
45 *193:102 *262:28 0.000260847
46 *193:102 *262:36 0.000185434
47 *193:127 *1308:B 4.65917e-05
48 *193:127 *1457:RESET_B 0.000960869
49 *193:127 *204:35 0.000159203
50 *193:127 *204:39 0.000213069
51 *1354:A1 *1355:B2 0
52 *1355:A1_N *1355:B2 2.4754e-05
53 *1355:B1 *1355:B2 9.84794e-05
54 *1441:CLK *193:55 0.00015822
55 *1442:CLK *193:35 0
56 *1457:CLK *193:127 0.000287419
57 *1465:D *193:102 9.04105e-06
58 *1475:A *193:21 0.000194318
59 *18:8 *1355:B2 0
60 *45:10 *193:35 0.000299517
61 *67:35 *193:127 5.3304e-05
62 *106:8 *193:55 0.000203155
63 *122:14 *193:127 0.000657021
64 *123:8 *193:127 0.000438179
65 *124:10 *193:74 3.47879e-05
66 *125:8 *193:74 0
67 *126:10 *1270:A 7.80251e-05
68 *126:10 *193:74 0.000271392
69 *149:6 *193:102 0.00014196
70 *149:6 *193:127 0.000522803
71 *166:10 *1355:B2 2.96154e-05
72 *176:32 *193:61 0.000243605
73 *176:32 *193:74 0
74 *177:12 *193:21 0.000157309
75 *177:12 *193:55 1.01436e-05
76 *177:85 *193:55 0.000233453
77 *187:20 *193:127 3.34247e-05
78 *188:21 *193:102 2.02872e-05
79 *190:100 *1269:A 9.58714e-05
80 *190:115 *1270:A 0
81 *190:115 *193:74 0
82 *191:8 *193:127 2.64616e-05
*RES
1 *1489:X *193:8 39.5743 
2 *193:8 *1355:B2 43.945 
3 *193:8 *193:21 7.18786 
4 *193:21 *193:27 21.5871 
5 *193:27 *193:35 39.86 
6 *193:35 *1279:A 23 
7 *193:27 *1382:A1 23 
8 *193:21 *193:55 32.6486 
9 *193:55 *193:61 33.3143 
10 *193:61 *1297:A 23 
11 *193:55 *193:68 3.48 
12 *193:68 *193:74 24.57 
13 *193:74 *1269:A 39.0979 
14 *193:74 *1270:A 41.3143 
15 *193:68 *193:102 20.01 
16 *193:102 *1488:A 23 
17 *193:102 *193:127 38.0936 
18 *193:127 *1308:A 23 
*END

*D_NET *194 0.0241525
*CONN
*I *1301:A I *D sky130_fd_sc_hd__and2_1
*I *1313:A I *D sky130_fd_sc_hd__nor2_1
*I *1266:A2 I *D sky130_fd_sc_hd__o221a_1
*I *1241:A I *D sky130_fd_sc_hd__inv_2
*I *1314:A I *D sky130_fd_sc_hd__and2_1
*I *1302:A I *D sky130_fd_sc_hd__nor2_1
*I *1299:B2 I *D sky130_fd_sc_hd__o221a_1
*I *1298:B2 I *D sky130_fd_sc_hd__a22o_1
*I *1381:A1 I *D sky130_fd_sc_hd__mux2_1
*I *1348:B2 I *D sky130_fd_sc_hd__o2bb2a_1
*I *1490:X O *D sky130_fd_sc_hd__buf_2
*CAP
1 *1301:A 0
2 *1313:A 0
3 *1266:A2 8.3391e-05
4 *1241:A 0
5 *1314:A 1.17411e-05
6 *1302:A 0
7 *1299:B2 0
8 *1298:B2 2.79296e-05
9 *1381:A1 0.00049375
10 *1348:B2 0.000420639
11 *1490:X 0.000303568
12 *194:120 0.000710774
13 *194:110 0.00243564
14 *194:102 0.00181175
15 *194:89 0.000795483
16 *194:74 0.000944474
17 *194:64 0.00084338
18 *194:58 0.00152384
19 *194:43 0.00116023
20 *194:32 0.000499483
21 *194:21 0.00136464
22 *194:8 0.00127231
23 *1266:A2 *1266:C1 0.000140259
24 *1314:A *1313:B 0
25 *194:21 *1438:RESET_B 0.000118295
26 *194:21 *298:8 0.000191157
27 *194:43 *1298:A2 0.000224345
28 *194:58 *1268:B1 5.3304e-05
29 *194:58 *1298:A2 1.14452e-05
30 *194:58 *1433:RESET_B 9.18637e-05
31 *194:58 *243:14 5.43573e-05
32 *194:58 *251:41 0
33 *194:58 *296:14 5.3304e-05
34 *194:58 *296:18 0.000130424
35 *194:58 *299:8 2.97794e-05
36 *194:64 *1304:C1 5.3304e-05
37 *194:64 *1371:S 0.000194309
38 *194:64 *1446:RESET_B 0
39 *194:64 *1531:A 0
40 *194:64 *199:28 9.03784e-05
41 *194:64 *199:30 1.21972e-05
42 *194:64 *251:10 0.000156379
43 *194:64 *281:98 0
44 *194:64 *299:16 0
45 *194:64 *300:10 0
46 *194:74 *1301:B 0
47 *194:74 *1304:C1 4.5707e-05
48 *194:74 *199:28 0
49 *194:74 *199:30 1.24376e-05
50 *194:74 *281:98 0.00014196
51 *194:89 *1369:A0 0.000931717
52 *194:89 *1369:A1 0.000164354
53 *194:89 *1372:A0 0.000183733
54 *194:89 *309:28 2.93747e-05
55 *194:102 *1313:B 0
56 *194:102 *309:14 0.00019866
57 *194:102 *309:28 0.000272383
58 *194:110 *1313:B 5.90675e-06
59 *194:110 *265:14 0.000308039
60 *194:120 *1360:A1 5.50049e-05
61 *194:120 *1404:S 5.3304e-05
62 *194:120 *273:126 0
63 *194:120 *319:8 3.60507e-05
64 *1268:A1 *194:58 0.000183733
65 *1268:B2 *194:58 5.50106e-05
66 *1298:B1 *1298:B2 5.50049e-05
67 *1299:B1 *194:32 0
68 *1299:B1 *194:43 0
69 *1304:B1 *194:74 0.000141954
70 *1357:S *194:110 0
71 *1372:S *194:89 0.000438462
72 *1480:A *194:89 3.81176e-05
73 *1480:A *194:102 1.22822e-05
74 *1480:A *194:110 0
75 *1527:A *194:89 0.000129185
76 *3:21 *1381:A1 0.000711788
77 *17:10 *1348:B2 3.14377e-05
78 *21:10 *194:120 0.000240435
79 *53:10 *194:110 6.93449e-05
80 *68:8 *1266:A2 2.02517e-05
81 *78:8 *194:32 0
82 *79:10 *194:74 1.58805e-05
83 *81:10 *194:110 0.00010018
84 *90:10 *194:120 0.000168744
85 *91:10 *194:120 3.46954e-05
86 *118:8 *1266:A2 2.66596e-05
87 *118:14 *194:120 0.000287956
88 *129:10 *194:74 0.000138708
89 *140:10 *194:89 0.000180899
90 *140:10 *194:102 0.000317553
91 *146:88 *1348:B2 9.84794e-05
92 *163:10 *1348:B2 5.56306e-05
93 *176:32 *194:21 0.000114494
94 *176:32 *194:32 0.000133218
95 *176:32 *194:43 7.76364e-06
96 *180:64 *194:74 0
97 *183:63 *194:89 8.95752e-05
98 *184:10 *194:110 6.53505e-05
99 *184:10 *194:120 4.09548e-05
100 *184:32 *194:110 5.68527e-05
101 *184:47 *194:110 0.000158972
102 *184:88 *194:110 0.000250839
103 *187:101 *194:110 0
104 *188:59 *194:89 0.000343493
105 *190:81 *194:58 4.08664e-05
106 *190:96 *194:64 3.47781e-05
107 *192:106 *194:120 0.000318099
108 *192:134 *194:110 7.02777e-05
109 *192:134 *194:120 7.75329e-06
110 *193:61 *194:21 9.04083e-05
111 *193:61 *194:32 2.96154e-05
*RES
1 *1490:X *194:8 41.9564 
2 *194:8 *1348:B2 46.2857 
3 *194:8 *194:21 12.47 
4 *194:21 *1381:A1 45.7679 
5 *194:21 *194:32 6.48357 
6 *194:32 *1298:B2 38.6214 
7 *194:32 *194:43 3.31429 
8 *194:43 *1299:B2 38 
9 *194:43 *194:58 44.4379 
10 *194:58 *194:64 25.2743 
11 *194:64 *194:74 37.1671 
12 *194:74 *1302:A 23 
13 *194:74 *194:89 21.4393 
14 *194:89 *1314:A 23.4971 
15 *194:89 *194:102 7.33286 
16 *194:102 *194:110 45.9679 
17 *194:110 *194:120 31.3229 
18 *194:120 *1241:A 23 
19 *194:110 *1266:A2 40.0714 
20 *194:102 *1313:A 23 
21 *194:64 *1301:A 23 
*END

*D_NET *195 0.0112925
*CONN
*I *1277:A1 I *D sky130_fd_sc_hd__o211a_1
*I *1289:B2 I *D sky130_fd_sc_hd__a22o_1
*I *1290:B2 I *D sky130_fd_sc_hd__o221a_1
*I *1283:A I *D sky130_fd_sc_hd__or2_1
*I *1284:A I *D sky130_fd_sc_hd__nand2_1
*I *1491:X O *D sky130_fd_sc_hd__dlymetal6s2s_1
*CAP
1 *1277:A1 0
2 *1289:B2 0
3 *1290:B2 0
4 *1283:A 0.000223337
5 *1284:A 0.000261053
6 *1491:X 0
7 *195:66 0.000320682
8 *195:56 0.000421305
9 *195:52 0.0017482
10 *195:44 0.00198745
11 *195:14 0.00088056
12 *195:4 0.000736044
13 *1284:A *1284:B 0
14 *1284:A *197:24 9.00646e-05
15 *1284:A *197:35 3.20375e-05
16 *1284:A *281:23 5.26101e-05
17 *195:14 *1284:B 0
18 *195:14 *1285:A2 4.39607e-05
19 *195:14 *1407:RESET_B 4.36616e-05
20 *195:14 *197:35 3.83059e-05
21 *195:14 *262:119 0.000191148
22 *195:14 *282:37 0.000363935
23 *195:14 *294:10 1.40533e-05
24 *195:14 *294:34 7.35632e-05
25 *195:52 *1312:A2_N 0
26 *195:52 *1364:A1 0
27 *195:52 *1560:A 4.34745e-05
28 *195:52 *291:31 0.000391467
29 *195:52 *308:12 0
30 *195:52 *310:8 0
31 *195:52 *310:21 0
32 *195:66 *1362:A0 2.93845e-05
33 *195:66 *202:24 0
34 *1277:B1 *195:44 2.02517e-05
35 *1277:B1 *195:52 1.92007e-05
36 *1289:B1 *195:56 5.50049e-05
37 *1289:B1 *195:66 0.000114092
38 *1290:B1 *195:66 7.52992e-05
39 *1418:CLK *195:52 7.45374e-05
40 *1474:A *195:52 0
41 *1474:A *195:66 6.7177e-06
42 *1486:A *195:44 7.00898e-05
43 *1486:A *195:52 0.000237285
44 *15:10 *1284:A 3.22879e-05
45 *27:8 *195:52 0.000166522
46 *67:14 *195:52 0.000262858
47 *110:10 *1283:A 0.000148688
48 *111:10 *1284:A 5.41288e-05
49 *112:10 *195:14 0.000215003
50 *112:10 *195:44 0.000396689
51 *122:14 *195:52 0.000498578
52 *142:12 *195:52 0
53 *176:84 *195:56 0.000227208
54 *186:40 *195:56 0.000198206
55 *186:59 *195:66 0
56 *186:74 *195:66 8.06804e-06
57 *187:20 *195:52 1.86869e-05
58 *187:27 *195:52 0
59 *187:131 *195:52 0
60 *188:35 *195:52 4.49946e-05
61 *189:18 *195:52 0.000215416
62 *190:14 *195:44 0.000121261
63 *190:46 *195:44 2.50819e-05
*RES
1 *1491:X *195:4 23 
2 *195:4 *195:14 25.1707 
3 *195:14 *1284:A 44.1729 
4 *195:14 *1283:A 41.5007 
5 *195:4 *195:44 8.43071 
6 *195:44 *195:52 49.8621 
7 *195:52 *195:56 18.9564 
8 *195:56 *195:66 35.2821 
9 *195:66 *1290:B2 23 
10 *195:56 *1289:B2 23 
11 *195:44 *1277:A1 23 
*END

*D_NET *196 0.00123726
*CONN
*I *1499:A I *D sky130_fd_sc_hd__dlymetal6s2s_1
*I *1573:X O *D sky130_fd_sc_hd__clkbuf_1
*CAP
1 *1499:A 0.000359181
2 *1573:X 0.00025945
3 *196:8 0.000618631
4 *196:8 *334:38 0
*RES
1 *1573:X *196:8 42.7229 
2 *196:8 *1499:A 44.3386 
*END

*D_NET *197 0.0160849
*CONN
*I *1407:RESET_B I *D sky130_fd_sc_hd__dfrtp_1
*I *1438:RESET_B I *D sky130_fd_sc_hd__dfrtp_1
*I *1439:RESET_B I *D sky130_fd_sc_hd__dfrtp_1
*I *1442:RESET_B I *D sky130_fd_sc_hd__dfrtp_1
*I *1413:RESET_B I *D sky130_fd_sc_hd__dfrtp_2
*I *1412:RESET_B I *D sky130_fd_sc_hd__dfrtp_2
*I *1411:RESET_B I *D sky130_fd_sc_hd__dfrtp_1
*I *1429:RESET_B I *D sky130_fd_sc_hd__dfrtp_1
*I *1408:RESET_B I *D sky130_fd_sc_hd__dfrtp_1
*I *1409:RESET_B I *D sky130_fd_sc_hd__dfrtp_4
*I *1492:X O *D sky130_fd_sc_hd__clkbuf_4
*CAP
1 *1407:RESET_B 0.000120002
2 *1438:RESET_B 0.000244552
3 *1439:RESET_B 1.96933e-05
4 *1442:RESET_B 0.000615234
5 *1413:RESET_B 5.70618e-05
6 *1412:RESET_B 0.000145099
7 *1411:RESET_B 1.32187e-05
8 *1429:RESET_B 0.000263712
9 *1408:RESET_B 0
10 *1409:RESET_B 0.000303153
11 *1492:X 0.000276413
12 *197:93 0.000892388
13 *197:79 0.0011795
14 *197:61 0.000772866
15 *197:59 0.00100009
16 *197:55 0.000490448
17 *197:51 0.00161324
18 *197:35 0.00156086
19 *197:24 0.000524612
20 *197:12 0.0006366
21 *197:10 0.000276413
22 *1407:RESET_B *211:8 0.000188926
23 *1407:RESET_B *262:119 0.000178782
24 *1407:RESET_B *294:10 8.92557e-05
25 *1429:RESET_B *335:10 0.000228903
26 *1438:RESET_B *260:8 0
27 *1442:RESET_B *261:14 1.00084e-05
28 *1442:RESET_B *262:42 0.000192087
29 *197:10 *198:44 0
30 *197:10 *204:63 0
31 *197:10 *281:14 0.000107335
32 *197:10 *281:23 1.19692e-05
33 *197:24 *204:63 0
34 *197:24 *262:132 4.42688e-05
35 *197:24 *281:23 0
36 *197:24 *292:57 0.000165593
37 *197:35 *211:8 0.000111852
38 *197:35 *262:119 6.25829e-05
39 *197:35 *262:132 5.37885e-05
40 *197:51 *1321:B 0.000228909
41 *197:51 *1514:A 0.000271476
42 *197:51 *1525:A 5.3304e-05
43 *197:51 *262:119 2.64616e-05
44 *197:59 *1439:D 2.64616e-05
45 *197:79 *1489:A 9.75779e-05
46 *197:79 *205:10 0.000112294
47 *197:93 *1346:A 0
48 *197:93 *289:10 0.000187986
49 *1284:A *197:24 9.00646e-05
50 *1284:A *197:35 3.20375e-05
51 *1355:B2 *197:79 0
52 *1355:B2 *197:93 0
53 *1412:D *1412:RESET_B 2.8521e-05
54 *1435:CLK *1438:RESET_B 2.56078e-05
55 *1435:CLK *1442:RESET_B 4.21281e-05
56 *1475:A *1429:RESET_B 1.09886e-05
57 *1475:A *197:61 1.28726e-05
58 *1475:A *197:79 4.06512e-05
59 *10:10 *197:51 0.000327221
60 *11:29 *1412:RESET_B 0
61 *11:29 *197:93 0
62 *12:8 *197:93 0
63 *14:10 *197:51 0.000442771
64 *15:10 *197:10 0.000129402
65 *15:10 *197:24 0.000111852
66 *18:8 *197:93 3.72639e-05
67 *57:8 *197:24 4.04598e-06
68 *62:10 *197:10 2.72257e-05
69 *73:12 *197:24 0
70 *110:10 *197:51 0.000193748
71 *147:27 *1413:RESET_B 2.52027e-05
72 *166:10 *197:93 0
73 *169:10 *197:93 1.89075e-05
74 *170:10 *197:93 0.00014411
75 *171:8 *197:93 0.000299169
76 *177:12 *1442:RESET_B 5.08899e-05
77 *177:12 *197:61 2.76611e-06
78 *177:29 *1429:RESET_B 0.000243927
79 *177:85 *1442:RESET_B 6.7177e-06
80 *177:89 *1442:RESET_B 5.50106e-05
81 *193:8 *197:79 2.65879e-05
82 *193:21 *197:79 0
83 *194:21 *1438:RESET_B 0.000118295
84 *195:14 *1407:RESET_B 4.36616e-05
85 *195:14 *197:35 3.83059e-05
*RES
1 *1492:X *197:10 44.8771 
2 *197:10 *197:12 15 
3 *197:12 *1409:RESET_B 4.36036 
4 *197:12 *197:24 22.3536 
5 *197:24 *1408:RESET_B 15 
6 *197:24 *197:35 4.08071 
7 *197:35 *197:51 39.94 
8 *197:51 *197:55 2.07143 
9 *197:55 *197:59 20.8621 
10 *197:59 *197:61 0.673214 
11 *197:61 *1429:RESET_B 21.7321 
12 *197:61 *197:79 24.4354 
13 *197:79 *1411:RESET_B 0.548929 
14 *197:79 *197:93 28.6093 
15 *197:93 *1412:RESET_B 17.4546 
16 *197:93 *1413:RESET_B 16.0254 
17 *197:59 *1442:RESET_B 25.8646 
18 *197:55 *1439:RESET_B 0.424643 
19 *197:51 *1438:RESET_B 35.2718 
20 *197:35 *1407:RESET_B 18.6354 
*END

*D_NET *198 0.0091107
*CONN
*I *1465:RESET_B I *D sky130_fd_sc_hd__dfrtp_1
*I *1435:RESET_B I *D sky130_fd_sc_hd__dfrtp_1
*I *1461:RESET_B I *D sky130_fd_sc_hd__dfrtp_2
*I *1460:RESET_B I *D sky130_fd_sc_hd__dfrtp_4
*I *1459:RESET_B I *D sky130_fd_sc_hd__dfrtp_4
*I *1410:RESET_B I *D sky130_fd_sc_hd__dfrtp_1
*I *1458:RESET_B I *D sky130_fd_sc_hd__dfrtp_1
*I *1493:X O *D sky130_fd_sc_hd__buf_2
*CAP
1 *1465:RESET_B 0
2 *1435:RESET_B 0.000270588
3 *1461:RESET_B 2.90172e-05
4 *1460:RESET_B 6.06634e-05
5 *1459:RESET_B 0.000280924
6 *1410:RESET_B 0.000270121
7 *1458:RESET_B 3.83263e-05
8 *1493:X 0.000112276
9 *198:50 0.000585373
10 *198:44 0.00109884
11 *198:32 0.00152701
12 *198:28 0.000701436
13 *198:20 0.000522561
14 *198:10 0.00059651
15 *1410:RESET_B *282:10 8.63919e-05
16 *1435:RESET_B *1539:A 4.93223e-05
17 *1435:RESET_B *250:10 2.13733e-05
18 *1435:RESET_B *281:33 0
19 *1459:RESET_B *285:10 0.000228001
20 *1459:RESET_B *286:10 0.000272383
21 *198:10 *200:10 0.000114074
22 *198:10 *262:10 0
23 *198:20 *1495:A 0
24 *198:20 *200:10 9.27917e-05
25 *198:20 *262:10 7.31082e-05
26 *198:20 *262:119 0
27 *198:20 *281:33 0
28 *198:20 *282:37 7.99353e-05
29 *198:20 *294:10 0
30 *198:32 *233:10 0
31 *198:32 *281:33 0
32 *198:32 *282:10 5.01247e-05
33 *198:32 *282:37 6.78567e-05
34 *198:32 *337:12 4.48671e-05
35 *198:44 *1284:B 1.01436e-05
36 *198:44 *233:10 0.000114774
37 *198:44 *281:14 0.000155417
38 *198:44 *281:23 8.56839e-05
39 *1400:A2 *198:44 8.02348e-05
40 *1400:A2 *198:50 1.01436e-05
41 *1407:CLK *1458:RESET_B 4.58951e-05
42 *1407:CLK *198:20 4.79641e-05
43 *1410:CLK *1410:RESET_B 0.000222287
44 *3:21 *198:10 5.3304e-05
45 *10:10 *1435:RESET_B 0.000126343
46 *10:10 *198:32 0.000241365
47 *62:10 *198:44 0
48 *62:10 *198:50 0
49 *63:14 *1461:RESET_B 5.66348e-05
50 *146:23 *1461:RESET_B 3.44502e-05
51 *146:46 *198:44 0.000192077
52 *146:52 *198:44 0
53 *146:78 *198:44 0
54 *176:26 *1458:RESET_B 8.92557e-05
55 *176:26 *198:20 0.000270846
56 *178:8 *198:32 0
57 *197:10 *198:44 0
*RES
1 *1493:X *198:10 40.175 
2 *198:10 *198:20 25.9786 
3 *198:20 *1458:RESET_B 1.02536 
4 *198:20 *198:28 15 
5 *198:28 *198:32 24.3007 
6 *198:32 *1410:RESET_B 6.26607 
7 *198:32 *198:44 32.7521 
8 *198:44 *198:50 18.2314 
9 *198:50 *1459:RESET_B 7.21893 
10 *198:50 *1460:RESET_B 1.04607 
11 *198:44 *1461:RESET_B 16.0254 
12 *198:28 *1435:RESET_B 19.8368 
13 *198:10 *1465:RESET_B 15 
*END

*D_NET *199 0.0159791
*CONN
*I *1427:RESET_B I *D sky130_fd_sc_hd__dfrtp_1
*I *1434:RESET_B I *D sky130_fd_sc_hd__dfrtp_1
*I *1437:RESET_B I *D sky130_fd_sc_hd__dfrtp_1
*I *1445:RESET_B I *D sky130_fd_sc_hd__dfrtp_1
*I *1436:RESET_B I *D sky130_fd_sc_hd__dfrtp_1
*I *1440:RESET_B I *D sky130_fd_sc_hd__dfrtp_1
*I *1441:RESET_B I *D sky130_fd_sc_hd__dfrtp_1
*I *1443:RESET_B I *D sky130_fd_sc_hd__dfrtp_1
*I *1444:RESET_B I *D sky130_fd_sc_hd__dfrtp_1
*I *1426:RESET_B I *D sky130_fd_sc_hd__dfrtp_1
*I *1494:X O *D sky130_fd_sc_hd__clkbuf_4
*CAP
1 *1427:RESET_B 0.000386712
2 *1434:RESET_B 5.26254e-05
3 *1437:RESET_B 0.000550863
4 *1445:RESET_B 0.00012473
5 *1436:RESET_B 0
6 *1440:RESET_B 0
7 *1441:RESET_B 0.000331654
8 *1443:RESET_B 0.000640509
9 *1444:RESET_B 0.000496016
10 *1426:RESET_B 0.000293225
11 *1494:X 0
12 *199:100 0.000688698
13 *199:96 0.000516575
14 *199:64 0.000576091
15 *199:62 0.00066845
16 *199:36 0.000555244
17 *199:30 0.00168032
18 *199:28 0.00189079
19 *199:6 0.00129294
20 *199:4 0.000593595
21 *1426:RESET_B *262:95 0
22 *1426:RESET_B *277:10 0.000141869
23 *1426:RESET_B *329:12 0.000296947
24 *1427:RESET_B *329:12 0
25 *1437:RESET_B *263:28 2.24444e-05
26 *1437:RESET_B *272:8 2.5415e-05
27 *1437:RESET_B *326:18 9.3307e-05
28 *1441:RESET_B *1380:S 0
29 *1441:RESET_B *229:25 0
30 *1441:RESET_B *272:20 0.000169683
31 *1443:RESET_B *1547:A 0.000111148
32 *1443:RESET_B *210:10 2.56175e-05
33 *1443:RESET_B *326:18 0
34 *1444:RESET_B *1547:A 0.000444576
35 *1444:RESET_B *210:10 0.000186794
36 *1444:RESET_B *219:27 0.000671583
37 *1445:RESET_B *251:96 7.20549e-05
38 *199:6 *281:107 0.000397596
39 *199:28 *1301:B 5.94125e-05
40 *199:28 *1304:C1 0.000182826
41 *199:28 *243:27 1.01436e-05
42 *199:28 *281:98 1.95758e-05
43 *199:28 *281:107 0.000212309
44 *199:30 *1304:C1 7.79459e-05
45 *199:30 *1385:A0 8.20126e-06
46 *199:30 *243:27 3.01632e-05
47 *199:36 *1385:A0 2.92911e-06
48 *199:36 *219:27 8.06804e-06
49 *199:36 *251:87 5.6926e-05
50 *199:36 *251:96 1.12919e-05
51 *199:62 *323:10 0
52 *199:64 *272:20 0.000301419
53 *199:64 *323:10 0
54 *199:96 *251:87 8.4047e-05
55 *199:100 *326:18 0
56 *1304:B1 *199:28 3.17516e-05
57 *1434:D *1434:RESET_B 0.000144494
58 *1446:CLK *199:96 8.4047e-05
59 *40:10 *199:64 0
60 *179:23 *1434:RESET_B 9.97529e-05
61 *179:23 *199:96 0.000296715
62 *179:29 *199:100 0
63 *179:38 *1443:RESET_B 9.18637e-05
64 *179:38 *199:62 5.21059e-05
65 *180:64 *1426:RESET_B 0
66 *188:59 *1427:RESET_B 0
67 *194:64 *199:28 9.03784e-05
68 *194:64 *199:30 1.21972e-05
69 *194:74 *199:28 0
70 *194:74 *199:30 1.24376e-05
*RES
1 *1494:X *199:4 23 
2 *199:4 *199:6 4.43286 
3 *199:6 *1426:RESET_B 35.9968 
4 *199:6 *199:28 41.6 
5 *199:28 *199:30 14.4379 
6 *199:30 *199:36 17.2993 
7 *199:36 *1444:RESET_B 25.0775 
8 *1444:RESET_B *1443:RESET_B 34.8886 
9 *1443:RESET_B *199:62 22.7782 
10 *199:62 *199:64 5.42714 
11 *199:64 *1441:RESET_B 21.1314 
12 *199:64 *1440:RESET_B 15 
13 *199:62 *1436:RESET_B 15 
14 *199:36 *1445:RESET_B 17.2579 
15 *199:30 *199:96 37.0636 
16 *199:96 *199:100 16.5536 
17 *199:100 *1437:RESET_B 25.1396 
18 *199:100 *1434:RESET_B 16.9782 
19 *199:4 *1427:RESET_B 36.3282 
*END

*D_NET *200 0.0090551
*CONN
*I *1428:RESET_B I *D sky130_fd_sc_hd__dfrtp_1
*I *1430:RESET_B I *D sky130_fd_sc_hd__dfrtp_1
*I *1447:RESET_B I *D sky130_fd_sc_hd__dfrtp_1
*I *1431:RESET_B I *D sky130_fd_sc_hd__dfrtp_1
*I *1446:RESET_B I *D sky130_fd_sc_hd__dfrtp_1
*I *1433:RESET_B I *D sky130_fd_sc_hd__dfrtp_1
*I *1432:RESET_B I *D sky130_fd_sc_hd__dfrtp_1
*I *1495:X O *D sky130_fd_sc_hd__buf_2
*CAP
1 *1428:RESET_B 0.000148803
2 *1430:RESET_B 2.6265e-05
3 *1447:RESET_B 0.000570466
4 *1431:RESET_B 2.51449e-05
5 *1446:RESET_B 0.000939893
6 *1433:RESET_B 3.92036e-05
7 *1432:RESET_B 0
8 *1495:X 0.000412782
9 *200:64 0.00105701
10 *200:41 0.000848086
11 *200:35 0.000563923
12 *200:26 0.000544276
13 *200:12 0.000485813
14 *200:10 0.000412782
15 *1430:RESET_B *302:8 4.70852e-05
16 *1446:RESET_B *1304:C1 0
17 *1446:RESET_B *1512:A 0
18 *1446:RESET_B *1531:A 3.96053e-05
19 *1446:RESET_B *243:14 0.000206295
20 *1446:RESET_B *263:28 0
21 *1446:RESET_B *300:10 0.000136718
22 *1446:RESET_B *327:36 0
23 *1447:RESET_B *1512:A 0
24 *200:10 *1370:S 0
25 *200:10 *1493:A 0.000103009
26 *200:10 *1495:A 6.79006e-05
27 *200:10 *262:10 5.67058e-05
28 *200:10 *262:87 0
29 *200:26 *245:8 2.77188e-05
30 *200:26 *246:10 0
31 *200:26 *301:16 0
32 *200:35 *245:8 5.23617e-05
33 *200:35 *281:98 0
34 *200:35 *299:16 9.70859e-05
35 *200:35 *301:16 0
36 *200:41 *1270:B 4.6318e-06
37 *200:41 *1271:A2 7.44257e-05
38 *200:41 *263:28 0
39 *200:41 *302:8 9.84794e-05
40 *200:64 *1301:B 1.14452e-05
41 *200:64 *1372:A0 5.67058e-05
42 *200:64 *1512:A 0
43 *200:64 *237:8 0
44 *200:64 *303:10 0.000157309
45 *1432:CLK *200:26 0.000230028
46 *1447:CLK *1447:RESET_B 3.6485e-05
47 *1447:D *1447:RESET_B 0.000125304
48 *33:10 *200:10 0.000138718
49 *35:8 *200:64 0
50 *50:8 *1447:RESET_B 0
51 *127:18 *200:26 0.000189081
52 *127:32 *1428:RESET_B 7.07084e-05
53 *127:32 *200:10 1.6374e-05
54 *127:32 *200:26 2.31797e-05
55 *180:20 *200:10 3.0647e-05
56 *180:83 *1431:RESET_B 4.83893e-05
57 *189:61 *1446:RESET_B 0.000110262
58 *189:63 *1446:RESET_B 1.01436e-05
59 *189:63 *200:41 0.000136486
60 *190:96 *200:35 0.000278634
61 *194:58 *1433:RESET_B 9.18637e-05
62 *194:64 *1446:RESET_B 0
63 *198:10 *200:10 0.000114074
64 *198:20 *200:10 9.27917e-05
*RES
1 *1495:X *200:10 46.8657 
2 *200:10 *200:12 15 
3 *200:12 *200:26 22.9957 
4 *200:26 *1432:RESET_B 15 
5 *200:26 *200:35 20.7793 
6 *200:35 *200:41 20.8621 
7 *200:41 *1433:RESET_B 16.0254 
8 *200:41 *1446:RESET_B 26.7657 
9 *1446:RESET_B *200:64 24.1246 
10 *200:64 *1431:RESET_B 15.5489 
11 *200:64 *1447:RESET_B 24.6632 
12 *200:35 *1430:RESET_B 0.548929 
13 *200:12 *1428:RESET_B 2.93107 
*END

*D_NET *201 0.0171567
*CONN
*I *1451:RESET_B I *D sky130_fd_sc_hd__dfrtp_1
*I *1452:RESET_B I *D sky130_fd_sc_hd__dfrtp_1
*I *1417:RESET_B I *D sky130_fd_sc_hd__dfrtp_1
*I *1462:RESET_B I *D sky130_fd_sc_hd__dfrtp_1
*I *1419:RESET_B I *D sky130_fd_sc_hd__dfrtp_1
*I *1457:RESET_B I *D sky130_fd_sc_hd__dfrtp_1
*I *1418:RESET_B I *D sky130_fd_sc_hd__dfrtp_1
*I *1406:RESET_B I *D sky130_fd_sc_hd__dfrtp_1
*I *1454:RESET_B I *D sky130_fd_sc_hd__dfrtp_1
*I *1453:RESET_B I *D sky130_fd_sc_hd__dfrtp_1
*I *1496:X O *D sky130_fd_sc_hd__clkbuf_4
*CAP
1 *1451:RESET_B 0.000513535
2 *1452:RESET_B 6.23341e-06
3 *1417:RESET_B 2.00578e-05
4 *1462:RESET_B 0.000233444
5 *1419:RESET_B 2.00578e-05
6 *1457:RESET_B 0.000816424
7 *1418:RESET_B 0
8 *1406:RESET_B 8.99829e-05
9 *1454:RESET_B 0.000167161
10 *1453:RESET_B 0.000515281
11 *1496:X 0.000432779
12 *201:78 0.00130816
13 *201:62 0.0010196
14 *201:54 0.00127945
15 *201:44 0.00116861
16 *201:34 0.000965034
17 *201:32 0.000715617
18 *201:20 0.00101503
19 *201:12 0.00133261
20 *1406:RESET_B *226:10 0
21 *1451:RESET_B *203:10 0
22 *1451:RESET_B *214:19 0
23 *1451:RESET_B *259:21 0
24 *1451:RESET_B *267:10 0
25 *1451:RESET_B *270:8 0
26 *1453:RESET_B *292:8 2.93747e-05
27 *1454:RESET_B *273:62 0
28 *1457:RESET_B *1308:B 0
29 *1457:RESET_B *1457:D 9.04105e-06
30 *1457:RESET_B *273:10 9.41704e-05
31 *1462:RESET_B *1464:RESET_B 0
32 *1462:RESET_B *273:50 0
33 *1462:RESET_B *320:8 7.46212e-05
34 *1462:RESET_B *320:20 9.5053e-05
35 *201:12 *1392:A0 0.000193163
36 *201:12 *1496:A 0.000137625
37 *201:12 *203:22 0.000129801
38 *201:20 *203:10 0
39 *201:20 *267:10 0
40 *201:32 *290:22 0
41 *201:32 *320:37 2.42954e-05
42 *201:44 *244:16 0
43 *201:44 *273:50 0.000134065
44 *201:44 *290:22 0.000430462
45 *201:44 *292:29 0
46 *201:62 *325:19 2.11066e-05
47 *201:78 *1273:A2_N 0.000554019
48 *201:78 *1276:C1 0
49 *201:78 *290:22 8.4047e-05
50 *201:78 *292:29 0.000191157
51 *201:78 *324:19 0
52 *201:78 *325:19 0.000161888
53 *1419:CLK *201:44 7.24365e-05
54 *1453:CLK *1419:RESET_B 0
55 *1453:CLK *1453:RESET_B 0.000109746
56 *1457:CLK *1457:RESET_B 0.000137123
57 *13:10 *201:62 2.33476e-05
58 *13:10 *201:78 0.000153501
59 *22:8 *1452:RESET_B 2.09871e-05
60 *22:8 *201:20 0.000103174
61 *22:8 *201:32 7.44257e-05
62 *55:10 *201:32 1.14452e-05
63 *64:8 *201:32 0.000188926
64 *66:10 *201:44 1.14452e-05
65 *67:10 *201:78 4.2361e-05
66 *145:12 *1406:RESET_B 0.000143401
67 *145:12 *1454:RESET_B 0.00028435
68 *181:14 *1453:RESET_B 0.000176527
69 *181:14 *201:54 4.70852e-05
70 *181:24 *1406:RESET_B 0
71 *181:24 *1454:RESET_B 0
72 *182:16 *1457:RESET_B 0.000198196
73 *182:70 *201:32 0
74 *182:76 *201:32 0.000128401
75 *189:24 *1457:RESET_B 6.95342e-05
76 *189:24 *201:78 5.86165e-05
77 *191:10 *1457:RESET_B 8.7476e-05
78 *191:10 *201:78 5.20202e-05
79 *191:32 *1457:RESET_B 1.83667e-05
80 *193:127 *1457:RESET_B 0.000960869
*RES
1 *1496:X *201:12 48.3157 
2 *201:12 *201:20 20.8829 
3 *201:20 *201:32 40.4193 
4 *201:32 *201:34 1.09786 
5 *201:34 *201:44 45.515 
6 *201:44 *1453:RESET_B 10.9268 
7 *1453:RESET_B *201:54 15.5489 
8 *201:54 *201:62 17.8368 
9 *201:62 *1454:RESET_B 18.8425 
10 *201:62 *1406:RESET_B 17.0818 
11 *201:54 *201:78 13.1743 
12 *201:78 *1418:RESET_B 15 
13 *201:78 *1457:RESET_B 35.8489 
14 *201:44 *1419:RESET_B 0.424643 
15 *201:34 *1462:RESET_B 34.5882 
16 *201:32 *1417:RESET_B 0.424643 
17 *201:20 *1452:RESET_B 0.548929 
18 *201:12 *1451:RESET_B 24.3007 
*END

*D_NET *202 0.0191491
*CONN
*I *1448:RESET_B I *D sky130_fd_sc_hd__dfrtp_1
*I *1424:RESET_B I *D sky130_fd_sc_hd__dfrtp_1
*I *1449:RESET_B I *D sky130_fd_sc_hd__dfrtp_1
*I *1415:RESET_B I *D sky130_fd_sc_hd__dfrtp_1
*I *1420:RESET_B I *D sky130_fd_sc_hd__dfrtp_1
*I *1423:RESET_B I *D sky130_fd_sc_hd__dfrtp_1
*I *1425:RESET_B I *D sky130_fd_sc_hd__dfrtp_1
*I *1422:RESET_B I *D sky130_fd_sc_hd__dfrtp_1
*I *1416:RESET_B I *D sky130_fd_sc_hd__dfrtp_1
*I *1414:RESET_B I *D sky130_fd_sc_hd__dfrtp_1
*I *1497:X O *D sky130_fd_sc_hd__clkbuf_4
*CAP
1 *1448:RESET_B 0.000705632
2 *1424:RESET_B 0.00140599
3 *1449:RESET_B 0.000923489
4 *1415:RESET_B 0.000444951
5 *1420:RESET_B 0.000421231
6 *1423:RESET_B 0
7 *1425:RESET_B 0.000609202
8 *1422:RESET_B 0.000188187
9 *1416:RESET_B 0.000286763
10 *1414:RESET_B 0.000834233
11 *1497:X 0.000375918
12 *202:95 0.000883825
13 *202:69 0.000801739
14 *202:61 0.00117739
15 *202:53 0.00132938
16 *202:28 0.000847269
17 *202:26 0.000511351
18 *202:24 0.000458315
19 *1414:RESET_B *1535:A 0.000546352
20 *1415:RESET_B *1363:A0 0.000528927
21 *1416:RESET_B *1358:A1 0
22 *1416:RESET_B *313:14 9.48381e-06
23 *1416:RESET_B *316:10 2.63269e-05
24 *1416:RESET_B *316:48 0
25 *1420:RESET_B *220:29 0
26 *1422:RESET_B *1522:A 0.000140259
27 *1422:RESET_B *234:8 0.000181125
28 *1422:RESET_B *310:31 4.83818e-05
29 *1422:RESET_B *313:8 0.000181125
30 *1424:RESET_B *312:12 0.000173452
31 *1424:RESET_B *331:16 6.43031e-05
32 *1425:RESET_B *308:22 0.000397725
33 *1449:RESET_B *220:29 0.000102638
34 *1449:RESET_B *312:12 4.4553e-05
35 *1449:RESET_B *312:29 1.61361e-05
36 *1449:RESET_B *331:6 5.50106e-05
37 *1449:RESET_B *331:16 9.18637e-05
38 *202:24 *1390:A0 0.000528025
39 *202:24 *220:29 0.000185428
40 *202:24 *315:29 6.6869e-05
41 *202:24 *332:16 0.000138718
42 *202:28 *1290:A2 9.28842e-05
43 *202:28 *220:29 0
44 *202:28 *311:12 0
45 *202:28 *311:18 0.000123428
46 *202:28 *313:14 4.21174e-05
47 *202:53 *220:29 0
48 *202:61 *1254:A 4.3407e-05
49 *202:95 *1553:A 4.06512e-05
50 *202:95 *220:29 0.000492835
51 *202:95 *311:12 2.46933e-05
52 *1290:B1 *202:24 0
53 *1312:A1_N *1425:RESET_B 0.000212621
54 *1367:S *1425:RESET_B 0
55 *1390:S *202:24 1.41129e-05
56 *1420:CLK *202:61 9.1889e-05
57 *1421:CLK *1449:RESET_B 0
58 *1421:CLK *202:95 0
59 *1448:D *1448:RESET_B 2.8521e-05
60 *1450:CLK *1420:RESET_B 0
61 *25:10 *1420:RESET_B 5.46706e-05
62 *25:10 *202:53 8.4047e-05
63 *28:10 *1425:RESET_B 0
64 *70:39 *1425:RESET_B 0.000135557
65 *117:8 *202:24 0.000957554
66 *142:12 *1425:RESET_B 5.76076e-05
67 *142:12 *202:61 6.79006e-05
68 *142:12 *202:69 2.22079e-05
69 *183:16 *202:69 0
70 *183:79 *202:61 3.23768e-05
71 *184:10 *1416:RESET_B 0
72 *184:10 *202:28 0
73 *184:16 *1416:RESET_B 0
74 *184:74 *1414:RESET_B 9.67842e-05
75 *184:88 *202:95 0
76 *186:25 *1425:RESET_B 0
77 *186:59 *202:28 9.21347e-06
78 *186:59 *202:53 4.39444e-06
79 *186:74 *202:24 0.00027056
80 *186:84 *202:24 5.3304e-05
81 *189:24 *1425:RESET_B 0.000185267
82 *190:155 *202:28 0.000169683
83 *191:32 *1425:RESET_B 9.20311e-06
84 *195:66 *202:24 0
*RES
1 *1497:X *1414:RESET_B 32.6425 
2 *1414:RESET_B *202:24 46.8614 
3 *202:24 *202:26 15 
4 *202:26 *202:28 8.24429 
5 *202:28 *1416:RESET_B 19.785 
6 *202:28 *1422:RESET_B 19.8368 
7 *202:26 *202:53 2.67214 
8 *202:53 *202:61 43.485 
9 *202:61 *202:69 33.3764 
10 *202:69 *1425:RESET_B 28.1743 
11 *202:69 *1423:RESET_B 15 
12 *202:53 *1420:RESET_B 18.8011 
13 *1420:RESET_B *202:95 21.4836 
14 *202:95 *1415:RESET_B 22.3846 
15 *202:95 *1449:RESET_B 19.4846 
16 *1449:RESET_B *1424:RESET_B 13.7336 
17 *1424:RESET_B *1448:RESET_B 10.5436 
*END

*D_NET *203 0.0134142
*CONN
*I *1421:RESET_B I *D sky130_fd_sc_hd__dfrtp_1
*I *1450:RESET_B I *D sky130_fd_sc_hd__dfrtp_1
*I *1456:RESET_B I *D sky130_fd_sc_hd__dfrtp_1
*I *1497:A I *D sky130_fd_sc_hd__clkbuf_4
*I *1455:RESET_B I *D sky130_fd_sc_hd__dfrtp_1
*I *1496:A I *D sky130_fd_sc_hd__clkbuf_4
*I *1463:RESET_B I *D sky130_fd_sc_hd__dfrtp_1
*I *1464:RESET_B I *D sky130_fd_sc_hd__dfrtp_1
*I *1498:X O *D sky130_fd_sc_hd__buf_2
*CAP
1 *1421:RESET_B 0.000563952
2 *1450:RESET_B 0.000896592
3 *1456:RESET_B 0.000332639
4 *1497:A 0
5 *1455:RESET_B 0.000103144
6 *1496:A 0.000277793
7 *1463:RESET_B 1.04469e-05
8 *1464:RESET_B 0.000364732
9 *1498:X 0
10 *203:81 0.00051373
11 *203:60 0.000839997
12 *203:50 0.000958825
13 *203:22 0.00140333
14 *203:10 0.00161258
15 *203:6 0.000836053
16 *1421:RESET_B *1357:A1 0
17 *1421:RESET_B *1510:A 6.67764e-05
18 *1421:RESET_B *222:8 0
19 *1421:RESET_B *253:10 0.000272383
20 *1421:RESET_B *312:29 5.41288e-05
21 *1421:RESET_B *315:14 0.000167443
22 *1421:RESET_B *315:23 0
23 *1421:RESET_B *332:16 3.3123e-05
24 *1450:RESET_B *332:8 5.74886e-05
25 *1455:RESET_B *1309:A2 0.000137039
26 *1455:RESET_B *317:23 4.17736e-05
27 *1455:RESET_B *318:18 7.31639e-05
28 *1463:RESET_B *321:10 1.94432e-05
29 *1463:RESET_B *322:12 1.24376e-05
30 *1464:RESET_B *1292:B 5.3304e-05
31 *1464:RESET_B *273:42 6.28695e-05
32 *1464:RESET_B *273:50 6.25245e-05
33 *1464:RESET_B *290:63 0
34 *1464:RESET_B *320:20 0
35 *1464:RESET_B *322:8 0
36 *1464:RESET_B *322:12 0.000127821
37 *203:10 *204:10 7.03869e-05
38 *203:10 *214:19 0
39 *203:10 *334:38 0
40 *203:22 *1392:A0 0.000230604
41 *203:22 *1463:D 3.80755e-05
42 *203:22 *321:10 2.68674e-06
43 *203:50 *1306:B 0.000137143
44 *203:50 *204:10 2.95125e-05
45 *203:50 *204:27 2.43903e-05
46 *203:50 *214:19 0
47 *203:50 *318:18 0.000118174
48 *203:50 *333:19 0
49 *203:60 *1306:B 1.12487e-05
50 *203:60 *1548:A 0.000181422
51 *203:60 *318:18 0.000845633
52 *203:81 *1563:A 9.84794e-05
53 *203:81 *275:6 7.53384e-06
54 *203:81 *315:23 0
55 *203:81 *318:8 0
56 *203:81 *318:18 0.00019747
57 *1357:S *1421:RESET_B 0
58 *1421:CLK *1421:RESET_B 0.000201799
59 *1451:RESET_B *203:10 0
60 *1462:RESET_B *1464:RESET_B 0
61 *1463:CLK *203:22 9.17365e-05
62 *55:10 *203:22 0.000441076
63 *59:10 *203:81 0
64 *176:73 *1464:RESET_B 0.000139657
65 *184:62 *1450:RESET_B 0.000111182
66 *184:74 *1450:RESET_B 8.44348e-05
67 *184:74 *203:81 0.00012863
68 *187:81 *203:10 0
69 *201:12 *1496:A 0.000137625
70 *201:12 *203:22 0.000129801
71 *201:20 *203:10 0
*RES
1 *1498:X *203:6 38 
2 *203:6 *203:10 20.7793 
3 *203:10 *203:22 18.6014 
4 *203:22 *1464:RESET_B 37.4779 
5 *203:22 *1463:RESET_B 0.548929 
6 *203:10 *1496:A 27.4536 
7 *203:6 *203:50 10.005 
8 *203:50 *1455:RESET_B 17.9311 
9 *203:50 *203:60 11.0614 
10 *203:60 *1497:A 38 
11 *203:60 *203:81 41.4757 
12 *203:81 *1456:RESET_B 15 
13 *1456:RESET_B *1450:RESET_B 6.83571 
14 *1450:RESET_B *1421:RESET_B 43.9718 
*END

*D_NET *204 0.020347
*CONN
*I *1494:A I *D sky130_fd_sc_hd__clkbuf_4
*I *1492:A I *D sky130_fd_sc_hd__clkbuf_4
*I *1493:A I *D sky130_fd_sc_hd__buf_2
*I *1495:A I *D sky130_fd_sc_hd__buf_2
*I *1498:A I *D sky130_fd_sc_hd__buf_2
*I *1499:X O *D sky130_fd_sc_hd__dlymetal6s2s_1
*CAP
1 *1494:A 0
2 *1492:A 0.000123262
3 *1493:A 0.000148835
4 *1495:A 0.000169648
5 *1498:A 0
6 *1499:X 0.000116036
7 *204:86 0.00114577
8 *204:63 0.00111974
9 *204:39 0.000474229
10 *204:35 0.00131915
11 *204:27 0.00487486
12 *204:10 0.00367819
13 *1493:A *1370:S 0
14 *1495:A *262:10 2.93845e-05
15 *204:10 *214:19 6.63698e-05
16 *204:27 *214:19 1.00612e-05
17 *204:27 *273:31 0.000108889
18 *204:27 *281:139 0.000253804
19 *204:35 *338:6 4.2573e-05
20 *204:39 *338:6 0.000568886
21 *204:63 *1285:A2 7.20415e-05
22 *204:63 *1287:A2 5.97509e-05
23 *204:63 *213:10 0.000163343
24 *204:63 *281:139 0
25 *204:63 *293:10 7.8128e-05
26 *204:63 *293:19 8.57765e-05
27 *204:63 *294:34 0.000138727
28 *204:63 *295:8 2.3529e-05
29 *204:63 *295:23 6.68793e-05
30 *204:86 *1315:A1 0.000103637
31 *204:86 *281:113 0
32 *204:86 *305:22 4.74706e-05
33 *204:86 *306:14 5.87582e-05
34 *204:86 *306:28 0.000293795
35 *1242:A *1495:A 5.67058e-05
36 *1242:A *204:63 4.06408e-05
37 *1318:A *204:63 7.38091e-05
38 *1425:CLK *204:86 0.000371908
39 *15:10 *204:63 0
40 *73:12 *204:63 3.39335e-05
41 *104:14 *204:86 0.000625443
42 *109:20 *204:86 0.000209985
43 *111:10 *204:63 0.000364537
44 *114:10 *204:27 0.000110913
45 *114:10 *204:86 5.94125e-05
46 *118:20 *204:86 5.45887e-05
47 *123:8 *204:35 0.000262864
48 *145:12 *204:63 0
49 *176:10 *204:27 7.3525e-05
50 *176:10 *204:63 0
51 *176:10 *204:86 3.01561e-05
52 *176:84 *204:86 0
53 *181:37 *204:63 9.38233e-05
54 *183:22 *204:86 0.000648179
55 *188:10 *1493:A 0
56 *188:10 *1495:A 0
57 *190:127 *204:86 6.33001e-05
58 *190:142 *204:86 1.27508e-05
59 *192:29 *204:63 1.62015e-05
60 *192:53 *204:27 1.76232e-05
61 *192:53 *204:35 0.000406998
62 *192:106 *204:27 0.000169643
63 *193:102 *204:39 0.00044107
64 *193:127 *204:35 0.000159203
65 *193:127 *204:39 0.000213069
66 *197:10 *204:63 0
67 *197:24 *204:63 0
68 *198:20 *1495:A 0
69 *200:10 *1493:A 0.000103009
70 *200:10 *1495:A 6.79006e-05
71 *203:10 *204:10 7.03869e-05
72 *203:50 *204:10 2.95125e-05
73 *203:50 *204:27 2.43903e-05
*RES
1 *1499:X *204:10 41.2314 
2 *204:10 *1498:A 38 
3 *204:10 *204:27 26.6249 
4 *204:27 *204:35 21.0279 
5 *204:35 *204:39 22.2914 
6 *204:39 *1495:A 41.5836 
7 *204:39 *1493:A 40.9621 
8 *204:35 *204:63 36.9779 
9 *204:63 *1492:A 40.0507 
10 *204:27 *204:86 43.3993 
11 *204:86 *1494:A 23 
*END

*D_NET *205 0.000517523
*CONN
*I *1439:D I *D sky130_fd_sc_hd__dfrtp_1
*I *1503:X O *D sky130_fd_sc_hd__dlygate4sd3_1
*CAP
1 *1439:D 4.54044e-05
2 *1503:X 0.000115001
3 *205:10 0.000160406
4 *1475:A *205:10 5.79559e-05
5 *197:59 *1439:D 2.64616e-05
6 *197:79 *205:10 0.000112294
*RES
1 *1503:X *205:10 40.175 
2 *205:10 *1439:D 38.6214 
*END

*D_NET *206 0.000857424
*CONN
*I *1321:B I *D sky130_fd_sc_hd__and2b_1
*I *1458:D I *D sky130_fd_sc_hd__dfrtp_1
*I *1514:X O *D sky130_fd_sc_hd__dlygate4sd3_1
*CAP
1 *1321:B 6.70979e-05
2 *1458:D 0
3 *1514:X 0
4 *206:12 0.000194385
5 *206:4 0.000261483
6 *1458:CLK *206:12 2.93747e-05
7 *10:10 *1321:B 5.67058e-05
8 *176:26 *206:12 1.94693e-05
9 *197:51 *1321:B 0.000228909
*RES
1 *1514:X *206:4 23 
2 *206:4 *206:12 32.8793 
3 *206:12 *1458:D 23 
4 *206:4 *1321:B 25.5271 
*END

*D_NET *207 0.000322756
*CONN
*I *1429:D I *D sky130_fd_sc_hd__dfrtp_1
*I *1574:X O *D sky130_fd_sc_hd__clkbuf_1
*CAP
1 *1429:D 1.47919e-05
2 *1574:X 0.0001194
3 *207:10 0.000134192
4 *9:13 *207:10 4.334e-05
5 *177:29 *1429:D 1.10317e-05
*RES
1 *1574:X *207:10 39.8229 
2 *207:10 *1429:D 38.2123 
*END

*D_NET *208 0.000239314
*CONN
*I *1321:A_N I *D sky130_fd_sc_hd__and2b_1
*I *1525:X O *D sky130_fd_sc_hd__dlygate4sd3_1
*CAP
1 *1321:A_N 8.09875e-05
2 *1525:X 8.09875e-05
3 *10:10 *1321:A_N 7.73389e-05
*RES
1 *1525:X *1321:A_N 47.5743 
*END

*D_NET *209 0.000265394
*CONN
*I *1249:A I *D sky130_fd_sc_hd__inv_2
*I *1536:X O *D sky130_fd_sc_hd__dlygate4sd3_1
*CAP
1 *1249:A 4.4785e-05
2 *1536:X 4.4785e-05
3 *1249:A *1337:B1 7.73389e-05
4 *1249:A *287:34 9.84851e-05
*RES
1 *1536:X *1249:A 47.5743 
*END

*D_NET *210 0.00209243
*CONN
*I *1384:A1 I *D sky130_fd_sc_hd__mux2_1
*I *1383:A I *D sky130_fd_sc_hd__or2_1
*I *1547:X O *D sky130_fd_sc_hd__dlygate4sd3_1
*CAP
1 *1384:A1 0
2 *1383:A 0.000597843
3 *1547:X 0.000229463
4 *210:25 8.35363e-05
5 *210:10 0.000910842
6 *210:25 *1507:A 0
7 *1443:RESET_B *210:10 2.56175e-05
8 *1444:CLK *1383:A 5.83407e-05
9 *1444:RESET_B *210:10 0.000186794
*RES
1 *1547:X *210:10 27.1221 
2 *210:10 *1383:A 31.265 
3 *210:10 *210:25 31.2014 
4 *210:25 *1384:A1 23 
*END

*D_NET *211 0.00128211
*CONN
*I *1327:A0 I *D sky130_fd_sc_hd__mux2_1
*I *1558:X O *D sky130_fd_sc_hd__dlygate4sd3_1
*CAP
1 *1327:A0 4.42744e-05
2 *1558:X 0.000199239
3 *211:8 0.000243514
4 *1327:A0 *280:10 5.3304e-05
5 *211:8 *262:119 8.39709e-05
6 *211:8 *262:132 2.71291e-05
7 *211:8 *295:8 0
8 *1407:RESET_B *211:8 0.000188926
9 *70:16 *211:8 4.06408e-05
10 *110:10 *1327:A0 9.58714e-05
11 *190:26 *211:8 0.000193388
12 *197:35 *211:8 0.000111852
*RES
1 *1558:X *211:8 43.4271 
2 *211:8 *1327:A0 39.0979 
*END

*D_NET *212 0.00152233
*CONN
*I *1394:A0 I *D sky130_fd_sc_hd__mux2_1
*I *1569:X O *D sky130_fd_sc_hd__dlygate4sd3_1
*CAP
1 *1394:A0 0.000291714
2 *1569:X 0.000105673
3 *212:8 0.000397386
4 *1394:A0 *1326:A1 0.000226295
5 *1394:A0 *1394:A1 4.38084e-05
6 *1394:A0 *1394:S 0.0002246
7 *212:8 *1326:A1 3.33082e-05
8 *212:8 *324:19 1.34354e-05
9 *212:8 *325:19 0
10 *181:18 *1394:A0 2.64616e-05
11 *181:24 *212:8 0.000159651
*RES
1 *1569:X *212:8 40.2579 
2 *212:8 *1394:A0 44.815 
*END

*D_NET *213 0.000598022
*CONN
*I *1454:D I *D sky130_fd_sc_hd__dfrtp_1
*I *1570:X O *D sky130_fd_sc_hd__dlygate4sd3_1
*CAP
1 *1454:D 0
2 *1570:X 0.000157435
3 *213:10 0.000157435
4 *57:8 *213:10 5.50049e-05
5 *145:12 *213:10 0
6 *181:37 *213:10 6.48049e-05
7 *204:63 *213:10 0.000163343
*RES
1 *1570:X *213:10 41.3557 
2 *213:10 *1454:D 38 
*END

*D_NET *214 0.00252388
*CONN
*I *1392:A1 I *D sky130_fd_sc_hd__mux2_1
*I *1391:A0 I *D sky130_fd_sc_hd__mux2_1
*I *1571:X O *D sky130_fd_sc_hd__dlygate4sd3_1
*CAP
1 *1392:A1 0
2 *1391:A0 8.12793e-05
3 *1571:X 0
4 *214:19 0.000569241
5 *214:4 0.00065052
6 *1391:A0 *273:126 6.27395e-05
7 *214:19 *259:21 0
8 *214:19 *333:19 0.000136486
9 *1451:RESET_B *214:19 0
10 *133:10 *1391:A0 0.000401899
11 *133:10 *214:19 0.000139578
12 *187:81 *214:19 0.00019747
13 *191:59 *1391:A0 0.000118143
14 *191:59 *214:19 9.00922e-05
15 *203:10 *214:19 0
16 *203:50 *214:19 0
17 *204:10 *214:19 6.63698e-05
18 *204:27 *214:19 1.00612e-05
*RES
1 *1571:X *214:4 23 
2 *214:4 *1391:A0 27.4329 
3 *214:4 *214:19 43.5886 
4 *214:19 *1392:A1 23 
*END

*D_NET *215 0.000666835
*CONN
*I *1451:D I *D sky130_fd_sc_hd__dfrtp_1
*I *1504:X O *D sky130_fd_sc_hd__dlygate4sd3_1
*CAP
1 *1451:D 0
2 *1504:X 0.000225943
3 *215:10 0.000225943
4 *215:10 *259:21 0
5 *133:10 *215:10 0.000182826
6 *187:64 *215:10 3.21223e-05
*RES
1 *1504:X *215:10 41.6043 
2 *215:10 *1451:D 38 
*END

*D_NET *216 0.00051284
*CONN
*I *1393:A0 I *D sky130_fd_sc_hd__mux2_1
*I *1505:X O *D sky130_fd_sc_hd__dlygate4sd3_1
*CAP
1 *1393:A0 0.000114578
2 *1505:X 0.000114578
3 *1393:A0 *1393:A1 3.22879e-05
4 *1393:A0 *1393:S 2.64616e-05
5 *1393:A0 *273:50 0.000182826
6 *1393:A0 *290:22 4.21089e-05
*RES
1 *1505:X *1393:A0 49.0036 
*END

*D_NET *217 0.00113873
*CONN
*I *1453:D I *D sky130_fd_sc_hd__dfrtp_1
*I *1506:X O *D sky130_fd_sc_hd__dlygate4sd3_1
*CAP
1 *1453:D 0
2 *1506:X 0.000406709
3 *217:10 0.000406709
4 *217:10 *1393:S 8.72173e-05
5 *217:10 *273:54 0.000110913
6 *217:10 *292:29 8.65442e-05
7 *181:12 *217:10 4.06408e-05
*RES
1 *1506:X *217:10 44.8979 
2 *217:10 *1453:D 38 
*END

*D_NET *218 0.00370265
*CONN
*I *1561:A I *D sky130_fd_sc_hd__dlygate4sd3_1
*I *1575:A I *D sky130_fd_sc_hd__buf_2
*I *1250:A I *D sky130_fd_sc_hd__inv_2
*I *1440:Q O *D sky130_fd_sc_hd__dfrtp_1
*CAP
1 *1561:A 0.000352565
2 *1575:A 0.000516826
3 *1250:A 5.67488e-05
4 *1440:Q 4.64022e-05
5 *218:19 0.0010904
6 *218:6 0.000324163
7 *1561:A *296:14 0.000358364
8 *1561:A *323:10 0.000230273
9 *1561:A *326:18 7.91493e-05
10 *1575:A *1377:S 0.000141954
11 *1575:A *263:28 0.000134309
12 *218:19 *251:45 4.96717e-05
13 *218:19 *323:10 0.000111852
14 *1437:CLK *1575:A 0.00020997
15 *41:8 *218:19 0
*RES
1 *1440:Q *218:6 23.6214 
2 *218:6 *1250:A 24.2014 
3 *218:6 *218:19 18.1279 
4 *218:19 *1575:A 48.5229 
5 *218:19 *1561:A 45.7471 
*END

*D_NET *219 0.00287186
*CONN
*I *1385:A1 I *D sky130_fd_sc_hd__mux2_1
*I *1384:A0 I *D sky130_fd_sc_hd__mux2_1
*I *1507:X O *D sky130_fd_sc_hd__dlygate4sd3_1
*CAP
1 *1385:A1 0
2 *1384:A0 9.81044e-05
3 *1507:X 0.000124251
4 *219:27 0.000434335
5 *219:10 0.00053244
6 *219:8 0.000124251
7 *1384:A0 *251:100 2.18409e-05
8 *1384:A0 *251:108 8.1796e-05
9 *219:8 *1507:A 6.28695e-05
10 *219:27 *1385:A0 5.50106e-05
11 *219:27 *1507:A 5.56203e-05
12 *219:27 *251:100 0.00012103
13 *219:27 *326:18 1.83667e-05
14 *1444:RESET_B *219:27 0.000671583
15 *48:10 *219:27 0.000322634
16 *179:29 *219:27 0.000139657
17 *199:36 *219:27 8.06804e-06
*RES
1 *1507:X *219:8 40.61 
2 *219:8 *219:10 15 
3 *219:10 *1384:A0 25.0507 
4 *219:10 *219:27 42.2007 
5 *219:27 *1385:A1 23 
*END

*D_NET *220 0.00491621
*CONN
*I *1390:A1 I *D sky130_fd_sc_hd__mux2_1
*I *1389:A0 I *D sky130_fd_sc_hd__mux2_1
*I *1508:X O *D sky130_fd_sc_hd__dlygate4sd3_1
*CAP
1 *1390:A1 0
2 *1389:A0 0
3 *1508:X 5.45698e-05
4 *220:29 0.000968405
5 *220:14 0.000499472
6 *220:6 0.00152245
7 *220:14 *1363:A1 0.00052972
8 *220:14 *312:12 0
9 *220:14 *331:16 0.000111852
10 *220:14 *331:27 0
11 *220:29 *311:12 0
12 *220:29 *331:16 0
13 *1390:S *220:29 5.50049e-05
14 *1420:RESET_B *220:29 0
15 *1421:CLK *220:29 0
16 *1449:RESET_B *220:29 0.000102638
17 *1542:A *220:29 2.64616e-05
18 *25:10 *220:29 0
19 *26:8 *220:14 0
20 *26:8 *220:29 0.000296017
21 *52:8 *220:14 0
22 *186:74 *220:29 7.13587e-05
23 *186:98 *220:29 0
24 *190:155 *220:29 0
25 *202:24 *220:29 0.000185428
26 *202:28 *220:29 0
27 *202:53 *220:29 0
28 *202:95 *220:29 0.000492835
*RES
1 *1508:X *220:6 23.6214 
2 *220:6 *220:14 40.2329 
3 *220:14 *1389:A0 23 
4 *220:6 *220:29 49.5336 
5 *220:29 *1390:A1 23 
*END

*D_NET *221 0.000443913
*CONN
*I *1449:D I *D sky130_fd_sc_hd__dfrtp_1
*I *1509:X O *D sky130_fd_sc_hd__dlygate4sd3_1
*CAP
1 *1449:D 0
2 *1509:X 0.000166539
3 *221:10 0.000166539
4 *52:8 *221:10 9.63815e-05
5 *183:96 *221:10 1.44546e-05
*RES
1 *1509:X *221:10 41.2314 
2 *221:10 *1449:D 38 
*END

*D_NET *222 0.00188519
*CONN
*I *1390:A0 I *D sky130_fd_sc_hd__mux2_1
*I *1510:X O *D sky130_fd_sc_hd__dlygate4sd3_1
*CAP
1 *1390:A0 0.000105943
2 *1510:X 0.000233975
3 *222:8 0.000339918
4 *222:8 *332:16 0
5 *1357:S *222:8 0.000174417
6 *1390:S *1390:A0 0.000441978
7 *1421:RESET_B *222:8 0
8 *186:74 *1390:A0 4.5051e-05
9 *187:101 *222:8 1.58805e-05
10 *202:24 *1390:A0 0.000528025
*RES
1 *1510:X *222:8 43.075 
2 *222:8 *1390:A0 43.8621 
*END

*D_NET *223 0.000483641
*CONN
*I *1392:A0 I *D sky130_fd_sc_hd__mux2_1
*I *1511:X O *D sky130_fd_sc_hd__dlygate4sd3_1
*CAP
1 *1392:A0 2.99371e-05
2 *1511:X 2.99371e-05
3 *201:12 *1392:A0 0.000193163
4 *203:22 *1392:A0 0.000230604
*RES
1 *1511:X *1392:A0 48.5271 
*END

*D_NET *224 0.00200165
*CONN
*I *1387:A1 I *D sky130_fd_sc_hd__mux2_1
*I *1386:A0 I *D sky130_fd_sc_hd__mux2_1
*I *1512:X O *D sky130_fd_sc_hd__dlygate4sd3_1
*CAP
1 *1387:A1 0.000661395
2 *1386:A0 0.000136299
3 *1512:X 0
4 *224:4 0.000797694
5 *1386:A0 *1386:A1 5.67058e-05
6 *1386:A0 *251:126 0.00010018
7 *1387:A1 *1512:A 9.84851e-05
8 *1387:A1 *228:14 5.50106e-05
9 *1448:CLK *1387:A1 9.5877e-05
*RES
1 *1512:X *224:4 23 
2 *224:4 *1386:A0 26.0036 
3 *224:4 *1387:A1 34.5793 
*END

*D_NET *225 0.00123454
*CONN
*I *1446:D I *D sky130_fd_sc_hd__dfrtp_1
*I *1513:X O *D sky130_fd_sc_hd__dlygate4sd3_1
*CAP
1 *1446:D 0
2 *1513:X 0.000361736
3 *225:10 0.000361736
4 *225:10 *1386:A1 0.00015822
5 *225:10 *230:10 0
6 *225:10 *251:126 0.000153145
7 *225:10 *327:10 0.000199701
*RES
1 *1513:X *225:10 45.7264 
2 *225:10 *1446:D 38 
*END

*D_NET *226 0.00112951
*CONN
*I *1326:A0 I *D sky130_fd_sc_hd__mux2_1
*I *1515:X O *D sky130_fd_sc_hd__dlygate4sd3_1
*CAP
1 *1326:A0 0
2 *1515:X 0.000388859
3 *226:10 0.000388859
4 *226:10 *1276:C1 5.3304e-05
5 *226:10 *1326:A1 0
6 *226:10 *232:8 0.000139647
7 *226:10 *292:57 0.00010655
8 *1406:CLK *226:10 4.06408e-05
9 *1406:RESET_B *226:10 0
10 *145:12 *226:10 0
11 *176:60 *226:10 7.43025e-06
12 *181:24 *226:10 4.21594e-06
*RES
1 *1515:X *226:10 45.0221 
2 *226:10 *1326:A0 38 
*END

*D_NET *227 0.000263959
*CONN
*I *1406:D I *D sky130_fd_sc_hd__dfrtp_1
*I *1516:X O *D sky130_fd_sc_hd__dlygate4sd3_1
*CAP
1 *1406:D 9.84786e-05
2 *1516:X 9.84786e-05
3 *73:6 *1406:D 6.70017e-05
*RES
1 *1516:X *1406:D 48.0507 
*END

*D_NET *228 0.00244797
*CONN
*I *1388:A1 I *D sky130_fd_sc_hd__mux2_1
*I *1387:A0 I *D sky130_fd_sc_hd__mux2_1
*I *1517:X O *D sky130_fd_sc_hd__dlygate4sd3_1
*CAP
1 *1388:A1 0.000378392
2 *1387:A0 0
3 *1517:X 0
4 *228:14 0.000632306
5 *228:4 0.0010107
6 *228:14 *329:12 0.000223034
7 *1387:A1 *228:14 5.50106e-05
8 *1448:CLK *228:14 0.000148524
*RES
1 *1517:X *228:4 23 
2 *228:4 *228:14 41.1029 
3 *228:14 *1387:A0 23 
4 *228:4 *1388:A1 29.815 
*END

*D_NET *229 0.00456498
*CONN
*I *1280:B1 I *D sky130_fd_sc_hd__a22o_1
*I *1378:A1 I *D sky130_fd_sc_hd__mux2_1
*I *1281:B1 I *D sky130_fd_sc_hd__o221a_1
*I *1567:A I *D sky130_fd_sc_hd__dlygate4sd3_1
*I *1576:A I *D sky130_fd_sc_hd__buf_2
*I *1441:Q O *D sky130_fd_sc_hd__dfrtp_1
*CAP
1 *1280:B1 0
2 *1378:A1 0
3 *1281:B1 0.000165933
4 *1567:A 0
5 *1576:A 0
6 *1441:Q 0
7 *229:70 0.000128024
8 *229:57 0.00032933
9 *229:36 0.000815189
10 *229:25 0.000229769
11 *229:19 0.00110169
12 *229:12 0.000200312
13 *229:4 0.000624288
14 *1281:B1 *281:66 5.3304e-05
15 *1281:B1 *281:80 1.32939e-05
16 *229:25 *1381:S 0
17 *229:36 *1381:S 5.56356e-05
18 *229:36 *281:80 8.4047e-05
19 *229:57 *1378:A0 3.22051e-05
20 *229:57 *251:45 1.34995e-05
21 *229:70 *1378:A0 2.93335e-05
22 *1281:B2 *1281:B1 1.76557e-05
23 *1441:CLK *229:25 0
24 *1441:RESET_B *229:25 0
25 *3:19 *229:12 5.70419e-05
26 *3:19 *229:19 0.000339186
27 *3:19 *229:36 0.000212155
28 *77:10 *1281:B1 3.35885e-06
29 *77:10 *229:36 4.39444e-06
30 *77:10 *229:57 0
31 *77:29 *1281:B1 4.5051e-05
32 *77:29 *229:57 1.02799e-05
*RES
1 *1441:Q *229:4 23 
2 *229:4 *229:12 33.3557 
3 *229:12 *1576:A 23 
4 *229:4 *229:19 6.815 
5 *229:19 *229:25 34.0186 
6 *229:25 *1567:A 23 
7 *229:19 *229:36 22.3432 
8 *229:36 *1281:B1 41.3454 
9 *229:36 *229:57 18.4489 
10 *229:57 *1378:A1 23 
11 *229:57 *229:70 32.175 
12 *229:70 *1280:B1 23 
*END

*D_NET *230 0.00112894
*CONN
*I *1385:A0 I *D sky130_fd_sc_hd__mux2_1
*I *1518:X O *D sky130_fd_sc_hd__dlygate4sd3_1
*CAP
1 *1385:A0 0.000180709
2 *1518:X 0.000239532
3 *230:10 0.000420241
4 *230:10 *251:96 1.22803e-05
5 *230:10 *251:126 7.03869e-05
6 *230:10 *327:10 0
7 *1446:CLK *230:10 0.000139647
8 *199:30 *1385:A0 8.20126e-06
9 *199:36 *1385:A0 2.92911e-06
10 *219:27 *1385:A0 5.50106e-05
11 *225:10 *230:10 0
*RES
1 *1518:X *230:10 42.64 
2 *230:10 *1385:A0 40.0507 
*END

*D_NET *231 0.000145634
*CONN
*I *1388:A0 I *D sky130_fd_sc_hd__mux2_1
*I *1519:X O *D sky130_fd_sc_hd__dlygate4sd3_1
*CAP
1 *1388:A0 0
2 *1519:X 7.2817e-05
3 *231:8 7.2817e-05
4 *231:8 *330:35 0
*RES
1 *1519:X *231:8 39.2014 
2 *231:8 *1388:A0 38 
*END

*D_NET *232 0.00214527
*CONN
*I *1328:A0 I *D sky130_fd_sc_hd__mux2_1
*I *1520:X O *D sky130_fd_sc_hd__dlygate4sd3_1
*CAP
1 *1328:A0 0.000409421
2 *1520:X 0.000270098
3 *232:8 0.000679519
4 *1328:A0 *293:10 5.67792e-05
5 *232:8 *1276:A2 0
6 *232:8 *292:45 0.000140958
7 *73:6 *1328:A0 0.000300153
8 *102:10 *232:8 0
9 *111:10 *1328:A0 0.000148698
10 *145:12 *232:8 0
11 *226:10 *232:8 0.000139647
*RES
1 *1520:X *232:8 42.7229 
2 *232:8 *1328:A0 48.3157 
*END

*D_NET *233 0.00120462
*CONN
*I *1408:D I *D sky130_fd_sc_hd__dfrtp_1
*I *1521:X O *D sky130_fd_sc_hd__dlygate4sd3_1
*CAP
1 *1408:D 0
2 *1521:X 0.000534951
3 *233:10 0.000534951
4 *233:10 *1284:B 0
5 *233:10 *281:14 1.99429e-05
6 *233:10 *281:33 0
7 *146:78 *233:10 0
8 *198:32 *233:10 0
9 *198:44 *233:10 0.000114774
*RES
1 *1521:X *233:10 47.5907 
2 *233:10 *1408:D 38 
*END

*D_NET *234 0.00250714
*CONN
*I *1364:A0 I *D sky130_fd_sc_hd__mux2_1
*I *1358:A1 I *D sky130_fd_sc_hd__mux2_1
*I *1522:X O *D sky130_fd_sc_hd__dlygate4sd3_1
*CAP
1 *1364:A0 0.000231299
2 *1358:A1 0.000288599
3 *1522:X 0.000202986
4 *234:8 0.000722884
5 *1358:A1 *1364:A1 4.23817e-05
6 *1358:A1 *236:22 2.96369e-05
7 *1358:A1 *313:14 5.94125e-05
8 *1358:A1 *316:10 0.000166513
9 *1364:A0 *1364:A1 4.59427e-05
10 *1364:A0 *313:14 0.000128188
11 *234:8 *1522:A 4.79641e-05
12 *1364:S *1364:A0 0.000174777
13 *1416:RESET_B *1358:A1 0
14 *1422:RESET_B *234:8 0.000181125
15 *1474:A *1364:A0 0.000185434
16 *187:131 *1358:A1 0
*RES
1 *1522:X *234:8 41.0036 
2 *234:8 *1358:A1 43.7793 
3 *234:8 *1364:A0 44.1521 
*END

*D_NET *235 0.000327178
*CONN
*I *1416:D I *D sky130_fd_sc_hd__dfrtp_1
*I *1523:X O *D sky130_fd_sc_hd__dlygate4sd3_1
*CAP
1 *1416:D 3.17584e-05
2 *1523:X 3.17584e-05
3 *1416:CLK *1416:D 3.22879e-05
4 *94:14 *1416:D 0.000187129
5 *191:40 *1416:D 4.42436e-05
*RES
1 *1523:X *1416:D 48.0507 
*END

*D_NET *236 0.00399678
*CONN
*I *1364:A1 I *D sky130_fd_sc_hd__mux2_1
*I *1367:A0 I *D sky130_fd_sc_hd__mux2_1
*I *1524:X O *D sky130_fd_sc_hd__dlygate4sd3_1
*CAP
1 *1364:A1 0.000302894
2 *1367:A0 0
3 *1524:X 4.24857e-05
4 *236:22 0.000539222
5 *236:8 0.000884601
6 *236:8 *310:31 5.50106e-05
7 *236:22 *1316:A2 6.16164e-05
8 *236:22 *1367:A1 6.26126e-05
9 *236:22 *316:10 0.000228001
10 *1316:B1 *236:22 0.00022109
11 *1358:A1 *1364:A1 4.23817e-05
12 *1358:A1 *236:22 2.96369e-05
13 *1364:A0 *1364:A1 4.59427e-05
14 *1367:S *236:22 5.67058e-05
15 *1474:A *1364:A1 0.000141954
16 *94:14 *236:22 0.000247629
17 *187:131 *1364:A1 0
18 *187:131 *236:22 0
19 *191:40 *236:22 0.00103499
20 *195:52 *1364:A1 0
*RES
1 *1524:X *236:8 38.6214 
2 *236:8 *236:22 32.6279 
3 *236:22 *1367:A0 23 
4 *236:8 *1364:A1 43.0129 
*END

*D_NET *237 0.00225939
*CONN
*I *1369:A1 I *D sky130_fd_sc_hd__mux2_1
*I *1372:A0 I *D sky130_fd_sc_hd__mux2_1
*I *1526:X O *D sky130_fd_sc_hd__dlygate4sd3_1
*CAP
1 *1369:A1 0.000255822
2 *1372:A0 0.000247952
3 *1526:X 0.000149425
4 *237:10 0.000503773
5 *237:8 0.000149425
6 *1372:A0 *1302:B 0.00014196
7 *237:8 *303:10 0
8 *1372:S *1372:A0 6.3621e-05
9 *129:10 *1372:A0 9.58714e-05
10 *180:64 *237:8 0.000246748
11 *194:89 *1369:A1 0.000164354
12 *194:89 *1372:A0 0.000183733
13 *200:64 *1372:A0 5.67058e-05
14 *200:64 *237:8 0
*RES
1 *1526:X *237:8 41.3143 
2 *237:8 *237:10 15 
3 *237:10 *1372:A0 28.8621 
4 *237:10 *1369:A1 26.9771 
*END

*D_NET *238 0.00105144
*CONN
*I *1427:D I *D sky130_fd_sc_hd__dfrtp_1
*I *1527:X O *D sky130_fd_sc_hd__dlygate4sd3_1
*CAP
1 *1427:D 0
2 *1527:X 0.000360387
3 *238:10 0.000360387
4 *238:10 *262:95 7.28526e-05
5 *238:10 *329:12 0
6 *1372:S *238:10 5.70419e-05
7 *1527:A *238:10 5.67058e-05
8 *188:59 *238:10 0.000144067
*RES
1 *1527:X *238:10 44.3386 
2 *238:10 *1427:D 38 
*END

*D_NET *239 0.00149136
*CONN
*I *1375:A1 I *D sky130_fd_sc_hd__mux2_1
*I *1378:A0 I *D sky130_fd_sc_hd__mux2_1
*I *1528:X O *D sky130_fd_sc_hd__dlygate4sd3_1
*CAP
1 *1375:A1 0.00032776
2 *1378:A0 0.00017057
3 *1528:X 0
4 *239:6 0.00049833
5 *1375:A1 *243:14 1.41244e-05
6 *1375:A1 *296:14 0.000143163
7 *1378:A0 *251:41 0.000129054
8 *1378:A0 *251:45 0.000146822
9 *41:8 *1375:A1 0
10 *41:8 *1378:A0 0
11 *229:57 *1378:A0 3.22051e-05
12 *229:70 *1378:A0 2.93335e-05
*RES
1 *1528:X *239:6 38 
2 *239:6 *1378:A0 42.205 
3 *239:6 *1375:A1 43.945 
*END

*D_NET *240 0.00248526
*CONN
*I *1566:A I *D sky130_fd_sc_hd__dlygate4sd3_1
*I *1279:B I *D sky130_fd_sc_hd__xor2_1
*I *1577:A I *D sky130_fd_sc_hd__buf_2
*I *1379:A1 I *D sky130_fd_sc_hd__mux2_1
*I *1442:Q O *D sky130_fd_sc_hd__dfrtp_1
*CAP
1 *1566:A 2.34823e-05
2 *1279:B 0
3 *1577:A 0
4 *1379:A1 0.000248138
5 *1442:Q 0
6 *240:35 0.000249685
7 *240:27 0.000524549
8 *240:23 0.000543666
9 *240:6 0.000493459
10 *1379:A1 *1382:S 5.83407e-05
11 *1379:A1 *262:42 3.71251e-05
12 *1379:A1 *278:8 0
13 *240:23 *278:8 0
14 *1441:CLK *240:23 0
15 *106:8 *240:23 7.88828e-05
16 *106:8 *240:27 0.000209569
17 *193:35 *240:35 1.83667e-05
18 *193:55 *1379:A1 0
19 *193:55 *240:23 0
*RES
1 *1442:Q *240:6 38 
2 *240:6 *1379:A1 41.7286 
3 *240:6 *240:23 19.8886 
4 *240:23 *240:27 5.88286 
5 *240:27 *240:35 34.5364 
6 *240:35 *1577:A 23 
7 *240:27 *1279:B 23 
8 *240:23 *1566:A 23.4971 
*END

*D_NET *241 0.00184331
*CONN
*I *1405:A1 I *D sky130_fd_sc_hd__mux2_1
*I *1397:A0 I *D sky130_fd_sc_hd__mux2_1
*I *1529:X O *D sky130_fd_sc_hd__dlygate4sd3_1
*CAP
1 *1405:A1 0
2 *1397:A0 4.83635e-05
3 *1529:X 0
4 *241:17 0.000275412
5 *241:4 0.000323775
6 *1397:A0 *1360:A1 0.000226295
7 *241:17 *244:10 8.62783e-05
8 *241:17 *273:42 0.000522885
9 *71:10 *241:17 0
10 *182:16 *241:17 0.000134009
11 *189:142 *241:17 0
12 *189:153 *1397:A0 0.000226295
13 *192:87 *241:17 0
*RES
1 *1529:X *241:4 23 
2 *241:4 *1397:A0 25.5271 
3 *241:4 *241:17 37.1879 
4 *241:17 *1405:A1 23 
*END

*D_NET *242 0.000688137
*CONN
*I *1457:D I *D sky130_fd_sc_hd__dfrtp_1
*I *1530:X O *D sky130_fd_sc_hd__dlygate4sd3_1
*CAP
1 *1457:D 1.6336e-05
2 *1530:X 0.000228805
3 *242:10 0.000245141
4 *242:10 *316:24 9.03295e-05
5 *1457:RESET_B *1457:D 9.04105e-06
6 *118:14 *242:10 9.84851e-05
7 *187:8 *242:10 0
8 *187:27 *242:10 0
*RES
1 *1530:X *242:10 42.06 
2 *242:10 *1457:D 38.2123 
*END

*D_NET *243 0.00444691
*CONN
*I *1372:A1 I *D sky130_fd_sc_hd__mux2_1
*I *1375:A0 I *D sky130_fd_sc_hd__mux2_1
*I *1531:X O *D sky130_fd_sc_hd__dlygate4sd3_1
*CAP
1 *1372:A1 0
2 *1375:A0 0
3 *1531:X 0
4 *243:27 0.000513229
5 *243:14 0.00110015
6 *243:4 0.00161338
7 *243:14 *1375:S 2.93335e-05
8 *243:14 *263:10 0.000163352
9 *243:14 *263:28 0.000138727
10 *243:14 *296:14 8.82573e-05
11 *243:14 *327:36 0.00017679
12 *243:27 *1301:B 3.62323e-05
13 *243:27 *1304:C1 0.000272383
14 *243:27 *1512:A 0
15 *1375:A1 *243:14 1.41244e-05
16 *1446:RESET_B *243:14 0.000206295
17 *194:58 *243:14 5.43573e-05
18 *199:28 *243:27 1.01436e-05
19 *199:30 *243:27 3.01632e-05
*RES
1 *1531:X *243:4 23 
2 *243:4 *243:14 49.9479 
3 *243:14 *1375:A0 23 
4 *243:4 *243:27 37.54 
5 *243:27 *1372:A1 23 
*END

*D_NET *244 0.00287806
*CONN
*I *1405:A0 I *D sky130_fd_sc_hd__mux2_1
*I *1361:A1 I *D sky130_fd_sc_hd__mux2_1
*I *1532:X O *D sky130_fd_sc_hd__dlygate4sd3_1
*CAP
1 *1405:A0 0
2 *1361:A1 0
3 *1532:X 0.000133739
4 *244:16 0.000703251
5 *244:10 0.000836991
6 *244:10 *1292:B 2.93747e-05
7 *244:10 *273:42 2.60152e-05
8 *244:16 *1361:A0 2.4754e-05
9 *244:16 *1552:A 0.000446281
10 *244:16 *273:42 1.37349e-05
11 *244:16 *273:50 0.00013118
12 *24:10 *244:16 0.000446461
13 *66:10 *244:16 0
14 *71:10 *244:10 0
15 *182:26 *244:10 0
16 *182:26 *244:16 0
17 *201:44 *244:16 0
18 *241:17 *244:10 8.62783e-05
*RES
1 *1532:X *244:10 40.5271 
2 *244:10 *244:16 32.3171 
3 *244:16 *1361:A1 23 
4 *244:10 *1405:A0 38 
*END

*D_NET *245 0.00237635
*CONN
*I *1370:A1 I *D sky130_fd_sc_hd__mux2_1
*I *1373:A0 I *D sky130_fd_sc_hd__mux2_1
*I *1533:X O *D sky130_fd_sc_hd__dlygate4sd3_1
*CAP
1 *1370:A1 0.00018326
2 *1373:A0 0
3 *1533:X 0.000310794
4 *245:12 0.000194123
5 *245:8 0.000321657
6 *1370:A1 *249:14 5.67058e-05
7 *1370:A1 *262:14 8.264e-05
8 *1370:A1 *262:28 0.00010018
9 *245:8 *246:10 0
10 *245:8 *281:33 0
11 *245:8 *281:98 0
12 *245:12 *262:28 5.50106e-05
13 *3:21 *1370:A1 0.000468008
14 *3:21 *245:12 5.67058e-05
15 *109:12 *1370:A1 0.000107858
16 *109:20 *1370:A1 0.000359332
17 *200:26 *245:8 2.77188e-05
18 *200:35 *245:8 5.23617e-05
*RES
1 *1533:X *245:8 43.075 
2 *245:8 *245:12 15.6214 
3 *245:12 *1373:A0 23 
4 *245:12 *1370:A1 31.8864 
*END

*D_NET *246 0.000471079
*CONN
*I *1432:D I *D sky130_fd_sc_hd__dfrtp_1
*I *1534:X O *D sky130_fd_sc_hd__dlygate4sd3_1
*CAP
1 *1432:D 0
2 *1534:X 0.000163021
3 *246:10 0.000163021
4 *246:10 *301:16 4.48568e-05
5 *109:12 *246:10 0.00010018
6 *200:26 *246:10 0
7 *245:8 *246:10 0
*RES
1 *1534:X *246:10 41.0036 
2 *246:10 *1432:D 38 
*END

*D_NET *247 0.00174905
*CONN
*I *1356:A0 I *D sky130_fd_sc_hd__mux2_1
*I *1395:A1 I *D sky130_fd_sc_hd__mux2_1
*I *1535:X O *D sky130_fd_sc_hd__dlygate4sd3_1
*CAP
1 *1356:A0 0.000399846
2 *1395:A1 0.000167016
3 *1535:X 9.99538e-05
4 *247:8 0.000666815
5 *1356:A0 *248:10 4.05196e-05
6 *1395:A1 *1395:A0 6.17437e-06
7 *1395:A1 *259:6 4.96717e-05
8 *1537:A *1356:A0 2.30292e-05
9 *186:84 *1395:A1 0.000111852
10 *186:84 *247:8 0.000184174
*RES
1 *1535:X *247:8 40.61 
2 *247:8 *1395:A1 40.6514 
3 *247:8 *1356:A0 44.3386 
*END

*D_NET *248 0.000489608
*CONN
*I *1414:D I *D sky130_fd_sc_hd__dfrtp_1
*I *1537:X O *D sky130_fd_sc_hd__dlygate4sd3_1
*CAP
1 *1414:D 0
2 *1537:X 0.000177409
3 *248:10 0.000177409
4 *248:10 *315:29 4.83778e-05
5 *1356:A0 *248:10 4.05196e-05
6 *186:84 *248:10 4.58924e-05
*RES
1 *1537:X *248:10 41.48 
2 *248:10 *1414:D 38 
*END

*D_NET *249 0.00340644
*CONN
*I *1367:A1 I *D sky130_fd_sc_hd__mux2_1
*I *1370:A0 I *D sky130_fd_sc_hd__mux2_1
*I *1538:X O *D sky130_fd_sc_hd__dlygate4sd3_1
*CAP
1 *1367:A1 0.000263412
2 *1370:A0 0
3 *1538:X 0
4 *249:14 0.000604989
5 *249:4 0.000868401
6 *249:14 *1538:A 0.000139357
7 *249:14 *304:42 8.79039e-05
8 *249:14 *307:10 0.000138727
9 *249:14 *307:23 2.40851e-05
10 *1370:A1 *249:14 5.67058e-05
11 *3:21 *249:14 0.000228001
12 *30:10 *1367:A1 9.41704e-05
13 *70:65 *249:14 6.68822e-05
14 *99:6 *249:14 0.000119477
15 *105:12 *249:14 0.000111415
16 *109:20 *249:14 0.000231256
17 *132:8 *249:14 2.84809e-05
18 *188:29 *249:14 9.84851e-05
19 *188:42 *249:14 0.000182076
20 *236:22 *1367:A1 6.26126e-05
*RES
1 *1538:X *249:4 23 
2 *249:4 *249:14 46.9029 
3 *249:14 *1370:A0 23 
4 *249:4 *1367:A1 27.495 
*END

*D_NET *250 0.00148294
*CONN
*I *1376:A0 I *D sky130_fd_sc_hd__mux2_1
*I *1539:X O *D sky130_fd_sc_hd__dlygate4sd3_1
*CAP
1 *1376:A0 0.000148855
2 *1539:X 0.0002236
3 *250:10 0.000372455
4 *1376:A0 *262:28 0.000272377
5 *1376:A0 *262:36 0.00010018
6 *1376:A0 *298:21 5.67058e-05
7 *250:10 *1539:A 5.50106e-05
8 *250:10 *262:28 3.47781e-05
9 *250:10 *301:10 1.22803e-05
10 *1435:RESET_B *250:10 2.13733e-05
11 *39:10 *1376:A0 2.4754e-05
12 *178:90 *250:10 0.000138727
13 *193:102 *1376:A0 2.18409e-05
*RES
1 *1539:X *250:10 41.8321 
2 *250:10 *1376:A0 42.4329 
*END

*D_NET *251 0.0147854
*CONN
*I *1374:S I *D sky130_fd_sc_hd__mux2_1
*I *1386:S I *D sky130_fd_sc_hd__mux2_1
*I *1384:S I *D sky130_fd_sc_hd__mux2_1
*I *1383:B I *D sky130_fd_sc_hd__or2_1
*I *1385:S I *D sky130_fd_sc_hd__mux2_1
*I *1375:S I *D sky130_fd_sc_hd__mux2_1
*I *1378:S I *D sky130_fd_sc_hd__mux2_1
*I *1377:S I *D sky130_fd_sc_hd__mux2_1
*I *1380:S I *D sky130_fd_sc_hd__mux2_1
*I *1371:S I *D sky130_fd_sc_hd__mux2_1
*I *1500:X O *D sky130_fd_sc_hd__clkbuf_4
*CAP
1 *1374:S 0
2 *1386:S 0
3 *1384:S 0
4 *1383:B 0
5 *1385:S 0
6 *1375:S 2.1982e-05
7 *1378:S 0
8 *1377:S 0.000160017
9 *1380:S 0.00027196
10 *1371:S 6.38366e-05
11 *1500:X 0.000364457
12 *251:126 0.000562716
13 *251:108 0.00052995
14 *251:100 0.0011819
15 *251:96 0.00132925
16 *251:87 0.00039712
17 *251:45 0.000721423
18 *251:41 0.000922793
19 *251:31 0.000763836
20 *251:29 0.000785293
21 *251:23 0.000652249
22 *251:10 0.000686292
23 *1371:S *257:14 0.000194309
24 *1375:S *296:14 2.93335e-05
25 *1377:S *263:28 0.000141954
26 *1377:S *272:20 0
27 *1377:S *323:10 0.000188926
28 *1380:S *272:20 5.25848e-05
29 *1380:S *281:80 0.000191696
30 *1380:S *323:10 0.000222104
31 *251:10 *257:14 3.47781e-05
32 *251:10 *281:98 4.06408e-05
33 *251:23 *257:14 0.000568886
34 *251:29 *257:14 6.24251e-05
35 *251:41 *1251:A 1.00084e-05
36 *251:41 *1551:A 0
37 *251:41 *296:18 0
38 *251:41 *297:8 0.000127585
39 *251:126 *1386:A1 0.000120867
40 *1299:B1 *251:41 2.3007e-05
41 *1378:A0 *251:41 0.000129054
42 *1378:A0 *251:45 0.000146822
43 *1384:A0 *251:100 2.18409e-05
44 *1384:A0 *251:108 8.1796e-05
45 *1386:A0 *251:126 0.00010018
46 *1433:CLK *251:31 6.68793e-05
47 *1433:CLK *251:41 4.6318e-06
48 *1441:RESET_B *1380:S 0
49 *1445:RESET_B *251:96 7.20549e-05
50 *1446:CLK *251:87 6.17634e-05
51 *1446:CLK *251:96 0.000224336
52 *1469:A *251:29 0.000110951
53 *1470:A *251:29 0.000132087
54 *1477:A *251:10 0.000394988
55 *1513:A *251:126 3.22879e-05
56 *1575:A *1377:S 0.000141954
57 *37:10 *251:29 0.000267167
58 *38:8 *251:31 0
59 *38:8 *251:87 0
60 *47:10 *251:108 9.01041e-05
61 *77:10 *1380:S 0
62 *77:10 *251:45 8.10857e-05
63 *179:8 *251:29 9.84851e-05
64 *179:19 *251:31 1.22803e-05
65 *179:19 *251:87 0.000138195
66 *194:58 *251:41 0
67 *194:64 *1371:S 0.000194309
68 *194:64 *251:10 0.000156379
69 *199:36 *251:87 5.6926e-05
70 *199:36 *251:96 1.12919e-05
71 *199:96 *251:87 8.4047e-05
72 *218:19 *251:45 4.96717e-05
73 *219:27 *251:100 0.00012103
74 *225:10 *251:126 0.000153145
75 *229:57 *251:45 1.34995e-05
76 *230:10 *251:96 1.22803e-05
77 *230:10 *251:126 7.03869e-05
78 *243:14 *1375:S 2.93335e-05
*RES
1 *1500:X *251:10 44.6907 
2 *251:10 *1371:S 40.61 
3 *251:10 *251:23 21.3386 
4 *251:23 *251:29 24.2179 
5 *251:29 *251:31 2.25786 
6 *251:31 *251:41 25.5021 
7 *251:41 *251:45 21.3386 
8 *251:45 *1380:S 44.7943 
9 *251:45 *1377:S 42.1843 
10 *251:41 *1378:S 23 
11 *251:31 *1375:S 38.6214 
12 *251:29 *251:87 6.89786 
13 *251:87 *1385:S 38 
14 *251:87 *251:96 3.31429 
15 *251:96 *251:100 26.1029 
16 *251:100 *251:108 40.3779 
17 *251:108 *1383:B 23 
18 *251:100 *1384:S 23 
19 *251:96 *251:126 28.2157 
20 *251:126 *1386:S 23 
21 *251:23 *1374:S 23 
*END

*D_NET *252 0.00068132
*CONN
*I *1435:D I *D sky130_fd_sc_hd__dfrtp_1
*I *1540:X O *D sky130_fd_sc_hd__dlygate4sd3_1
*CAP
1 *1435:D 3.78039e-05
2 *1540:X 0.000258168
3 *252:8 0.000295972
4 *176:32 *252:8 0
5 *193:74 *252:8 8.93766e-05
*RES
1 *1540:X *252:8 42.7229 
2 *252:8 *1435:D 38.6214 
*END

*D_NET *253 0.00251863
*CONN
*I *1363:A0 I *D sky130_fd_sc_hd__mux2_1
*I *1357:A1 I *D sky130_fd_sc_hd__mux2_1
*I *1541:X O *D sky130_fd_sc_hd__dlygate4sd3_1
*CAP
1 *1363:A0 0.000385335
2 *1357:A1 0.000177198
3 *1541:X 0.000280845
4 *253:10 0.000843378
5 *1357:A1 *315:14 0
6 *1357:S *1357:A1 6.07611e-06
7 *1415:D *1363:A0 2.44915e-05
8 *1415:RESET_B *1363:A0 0.000528927
9 *1421:CLK *1357:A1 0
10 *1421:CLK *253:10 0
11 *1421:RESET_B *1357:A1 0
12 *1421:RESET_B *253:10 0.000272383
13 *20:8 *1357:A1 0
14 *184:88 *1357:A1 0
*RES
1 *1541:X *253:10 42.5571 
2 *253:10 *1357:A1 41.3143 
3 *253:10 *1363:A0 46.7207 
*END

*D_NET *254 0.000755432
*CONN
*I *1421:D I *D sky130_fd_sc_hd__dfrtp_1
*I *1542:X O *D sky130_fd_sc_hd__dlygate4sd3_1
*CAP
1 *1421:D 9.08253e-05
2 *1542:X 0.000248414
3 *254:10 0.00033924
4 *1421:CLK *1421:D 7.69528e-05
*RES
1 *1542:X *254:10 41.2521 
2 *254:10 *1421:D 39.4811 
*END

*D_NET *255 0.000673287
*CONN
*I *1366:A0 I *D sky130_fd_sc_hd__mux2_1
*I *1543:X O *D sky130_fd_sc_hd__dlygate4sd3_1
*CAP
1 *1366:A0 5.33469e-05
2 *1543:X 5.33469e-05
3 *1366:A0 *1389:A1 0.000260847
4 *1366:A0 *330:25 0.00010018
5 *186:104 *1366:A0 0.000205566
*RES
1 *1543:X *1366:A0 49.9564 
*END

*D_NET *256 0.000546721
*CONN
*I *1424:D I *D sky130_fd_sc_hd__dfrtp_1
*I *1544:X O *D sky130_fd_sc_hd__dlygate4sd3_1
*CAP
1 *1424:D 0
2 *1544:X 0.000199198
3 *256:10 0.000199198
4 *256:10 *330:35 4.21594e-06
5 *186:114 *256:10 0.00014411
*RES
1 *1544:X *256:10 41.48 
2 *256:10 *1424:D 38 
*END

*D_NET *257 0.0029367
*CONN
*I *1371:A1 I *D sky130_fd_sc_hd__mux2_1
*I *1374:A0 I *D sky130_fd_sc_hd__mux2_1
*I *1545:X O *D sky130_fd_sc_hd__dlygate4sd3_1
*CAP
1 *1371:A1 0
2 *1374:A0 0
3 *1545:X 9.40152e-05
4 *257:14 0.000326225
5 *257:6 0.00042024
6 *257:6 *1545:A 0.000309734
7 *257:14 *281:98 0.000108672
8 *1371:S *257:14 0.000194309
9 *1470:A *257:14 0.000609758
10 *34:8 *257:6 0.00010018
11 *189:61 *257:6 0.000107476
12 *251:10 *257:14 3.47781e-05
13 *251:23 *257:14 0.000568886
14 *251:29 *257:14 6.24251e-05
*RES
1 *1545:X *257:6 26.48 
2 *257:6 *257:14 41.2064 
3 *257:14 *1374:A0 23 
4 *257:6 *1371:A1 23 
*END

*D_NET *258 0.000603998
*CONN
*I *1430:D I *D sky130_fd_sc_hd__dfrtp_1
*I *1546:X O *D sky130_fd_sc_hd__dlygate4sd3_1
*CAP
1 *1430:D 0.000137296
2 *1546:X 5.91203e-05
3 *258:8 0.000196417
4 *180:10 *258:8 5.31444e-05
5 *180:20 *1430:D 4.39278e-05
6 *190:81 *258:8 0.000114092
*RES
1 *1546:X *258:8 39.5536 
2 *258:8 *1430:D 40.5271 
*END

*D_NET *259 0.0025808
*CONN
*I *1403:A1 I *D sky130_fd_sc_hd__mux2_1
*I *1395:A0 I *D sky130_fd_sc_hd__mux2_1
*I *1548:X O *D sky130_fd_sc_hd__dlygate4sd3_1
*CAP
1 *1403:A1 0
2 *1395:A0 4.00501e-05
3 *1548:X 0.000152105
4 *259:21 0.000996586
5 *259:6 0.00118874
6 *259:21 *267:22 6.17437e-06
7 *259:21 *270:8 8.85189e-05
8 *259:21 *332:33 0
9 *1395:A1 *1395:A0 6.17437e-06
10 *1395:A1 *259:6 4.96717e-05
11 *1451:RESET_B *259:21 0
12 *186:84 *259:21 3.70094e-05
13 *187:64 *259:21 0
14 *187:68 *259:21 1.5769e-05
15 *214:19 *259:21 0
16 *215:10 *259:21 0
*RES
1 *1548:X *259:6 26.0036 
2 *259:6 *1395:A0 23.6214 
3 *259:6 *259:21 46.965 
4 *259:21 *1403:A1 23 
*END

*D_NET *260 0.00135076
*CONN
*I *1379:A0 I *D sky130_fd_sc_hd__mux2_1
*I *1549:X O *D sky130_fd_sc_hd__dlygate4sd3_1
*CAP
1 *1379:A0 0.000220631
2 *1549:X 0.000215062
3 *260:8 0.000435693
4 *1379:A0 *262:42 9.67842e-05
5 *260:8 *298:8 0
6 *1438:RESET_B *260:8 0
7 *42:14 *1379:A0 0.000106277
8 *42:14 *260:8 0.000206616
9 *177:10 *1379:A0 6.97002e-05
*RES
1 *1549:X *260:8 42.7229 
2 *260:8 *1379:A0 42.9093 
*END

*D_NET *261 0.000700671
*CONN
*I *1438:D I *D sky130_fd_sc_hd__dfrtp_1
*I *1550:X O *D sky130_fd_sc_hd__dlygate4sd3_1
*CAP
1 *1438:D 0
2 *1550:X 0.000212616
3 *261:14 0.000212616
4 *261:14 *262:42 0.000185665
5 *1442:RESET_B *261:14 1.00084e-05
6 *106:8 *261:14 2.64616e-05
7 *193:55 *261:14 5.3304e-05
*RES
1 *1550:X *261:14 42.35 
2 *261:14 *1438:D 38 
*END

*D_NET *262 0.0189756
*CONN
*I *1370:S I *D sky130_fd_sc_hd__mux2_1
*I *1328:S I *D sky130_fd_sc_hd__mux2_1
*I *1327:S I *D sky130_fd_sc_hd__mux2_1
*I *1500:A I *D sky130_fd_sc_hd__clkbuf_4
*I *1387:S I *D sky130_fd_sc_hd__mux2_1
*I *1373:S I *D sky130_fd_sc_hd__mux2_1
*I *1376:S I *D sky130_fd_sc_hd__mux2_1
*I *1381:S I *D sky130_fd_sc_hd__mux2_1
*I *1379:S I *D sky130_fd_sc_hd__mux2_1
*I *1382:S I *D sky130_fd_sc_hd__mux2_1
*I *1501:X O *D sky130_fd_sc_hd__clkbuf_4
*CAP
1 *1370:S 0.000288891
2 *1328:S 0
3 *1327:S 0
4 *1500:A 0
5 *1387:S 0
6 *1373:S 0
7 *1376:S 0
8 *1381:S 0.000252585
9 *1379:S 0
10 *1382:S 8.28785e-05
11 *1501:X 0
12 *262:132 0.000271099
13 *262:119 0.000649188
14 *262:109 0.000770485
15 *262:95 0.000521271
16 *262:87 0.00136228
17 *262:42 0.000400451
18 *262:36 0.00109933
19 *262:28 0.000847901
20 *262:14 0.000357245
21 *262:10 0.00133829
22 *262:4 0.000562268
23 *1381:S *279:10 4.08641e-05
24 *262:10 *281:33 0.000355322
25 *262:28 *301:10 4.06408e-05
26 *262:28 *301:16 0
27 *262:36 *1549:A 0.000117402
28 *262:36 *279:10 0.000100069
29 *262:36 *298:21 0.000265666
30 *262:87 *1252:A 0.000246748
31 *262:87 *1303:B1 0.000303269
32 *262:87 *281:33 0.000216933
33 *262:87 *281:98 0.000147157
34 *262:87 *302:21 0.000108681
35 *262:87 *302:32 0.00021356
36 *262:87 *304:8 0.000126468
37 *262:95 *277:10 0
38 *262:95 *329:12 0
39 *262:119 *1287:A2 0
40 *262:119 *294:10 0
41 *262:132 *292:57 0.000165593
42 *262:132 *295:8 7.75329e-06
43 *1242:A *1370:S 0
44 *1242:A *262:10 0.000118143
45 *1242:A *262:109 0.000138719
46 *1370:A1 *262:14 8.264e-05
47 *1370:A1 *262:28 0.00010018
48 *1376:A0 *262:28 0.000272377
49 *1376:A0 *262:36 0.00010018
50 *1379:A0 *262:42 9.67842e-05
51 *1379:A1 *1382:S 5.83407e-05
52 *1379:A1 *262:42 3.71251e-05
53 *1407:RESET_B *262:119 0.000178782
54 *1426:RESET_B *262:95 0
55 *1441:CLK *1381:S 7.20415e-05
56 *1441:CLK *262:42 0.000137163
57 *1442:RESET_B *262:42 0.000192087
58 *1447:CLK *262:95 3.70187e-05
59 *1448:CLK *262:95 9.84851e-05
60 *1477:A *262:87 0.000250749
61 *1493:A *1370:S 0
62 *1495:A *262:10 2.93845e-05
63 *1534:A *262:28 4.94008e-05
64 *3:19 *1381:S 0.000155736
65 *3:21 *1381:S 1.59071e-05
66 *3:21 *262:28 0.000252162
67 *39:10 *262:28 0
68 *42:14 *262:42 0
69 *70:10 *262:10 1.32939e-05
70 *73:12 *262:132 0.000192385
71 *79:10 *262:87 5.47927e-05
72 *106:8 *262:36 0.000363379
73 *106:16 *1381:S 0
74 *108:10 *1381:S 0
75 *109:12 *262:14 4.9662e-05
76 *109:12 *262:28 0.000210488
77 *110:10 *262:119 9.58714e-05
78 *110:10 *262:132 6.44139e-05
79 *127:32 *262:87 9.52104e-05
80 *177:10 *262:42 9.84851e-05
81 *177:85 *262:42 0.000105165
82 *180:10 *262:87 0
83 *180:20 *262:87 6.72204e-05
84 *180:47 *262:87 0
85 *180:49 *262:87 2.93845e-05
86 *180:64 *262:95 0.00064159
87 *180:73 *262:95 9.26005e-05
88 *180:90 *262:95 0.000136486
89 *188:10 *1370:S 0.000231221
90 *188:10 *262:119 6.16439e-05
91 *190:26 *262:132 5.50049e-05
92 *192:29 *1370:S 0
93 *193:27 *1382:S 0.000317553
94 *193:27 *262:42 8.52481e-05
95 *193:55 *262:36 0.000402474
96 *193:68 *262:36 0.000308946
97 *193:74 *262:28 0
98 *193:102 *262:28 0.000260847
99 *193:102 *262:36 0.000185434
100 *195:14 *262:119 0.000191148
101 *197:24 *262:132 4.42688e-05
102 *197:35 *262:119 6.25829e-05
103 *197:35 *262:132 5.37885e-05
104 *197:51 *262:119 2.64616e-05
105 *198:10 *262:10 0
106 *198:20 *262:10 7.31082e-05
107 *198:20 *262:119 0
108 *200:10 *1370:S 0
109 *200:10 *262:10 5.67058e-05
110 *200:10 *262:87 0
111 *211:8 *262:119 8.39709e-05
112 *211:8 *262:132 2.71291e-05
113 *229:25 *1381:S 0
114 *229:36 *1381:S 5.56356e-05
115 *238:10 *262:95 7.28526e-05
116 *245:12 *262:28 5.50106e-05
117 *250:10 *262:28 3.47781e-05
118 *261:14 *262:42 0.000185665
*RES
1 *1501:X *262:4 23 
2 *262:4 *262:10 25.3364 
3 *262:10 *262:14 16.0979 
4 *262:14 *262:28 41.5171 
5 *262:28 *262:36 31.385 
6 *262:36 *262:42 24.0107 
7 *262:42 *1382:S 26.48 
8 *262:42 *1379:S 23 
9 *262:36 *1381:S 43.51 
10 *262:28 *1376:S 23 
11 *262:14 *1373:S 23 
12 *262:10 *262:87 35.9421 
13 *262:87 *262:95 42.8636 
14 *262:95 *1387:S 23 
15 *262:87 *1500:A 23 
16 *262:4 *262:109 17.0507 
17 *262:109 *262:119 22.9957 
18 *262:119 *1327:S 23 
19 *262:119 *262:132 36.8771 
20 *262:132 *1328:S 23 
21 *262:109 *1370:S 43.4271 
*END

*D_NET *263 0.00574464
*CONN
*I *1374:A1 I *D sky130_fd_sc_hd__mux2_1
*I *1377:A0 I *D sky130_fd_sc_hd__mux2_1
*I *1551:X O *D sky130_fd_sc_hd__dlygate4sd3_1
*CAP
1 *1374:A1 0
2 *1377:A0 0
3 *1551:X 0.000234183
4 *263:28 0.00151056
5 *263:10 0.00174475
6 *263:10 *300:8 1.84914e-05
7 *263:10 *327:36 0.000151907
8 *263:28 *1270:B 1.22803e-05
9 *263:28 *272:12 1.93498e-05
10 *263:28 *326:18 7.82476e-05
11 *263:28 *327:36 0.000403127
12 *1270:A *263:28 0
13 *1271:B2 *263:28 0.000141954
14 *1299:B1 *263:28 0.00014196
15 *1377:S *263:28 0.000141954
16 *1437:CLK *263:28 0.000343251
17 *1437:D *263:28 2.93747e-05
18 *1437:RESET_B *263:28 2.24444e-05
19 *1446:RESET_B *263:28 0
20 *1575:A *263:28 0.000134309
21 *96:10 *263:28 6.16531e-05
22 *126:10 *263:28 0.0002263
23 *190:115 *263:28 2.64616e-05
24 *200:41 *263:28 0
25 *243:14 *263:10 0.000163352
26 *243:14 *263:28 0.000138727
*RES
1 *1551:X *263:10 42.3086 
2 *263:10 *263:28 44.5179 
3 *263:28 *1377:A0 23 
4 *263:10 *1374:A1 38 
*END

*D_NET *264 0.000413842
*CONN
*I *1361:A0 I *D sky130_fd_sc_hd__mux2_1
*I *1552:X O *D sky130_fd_sc_hd__dlygate4sd3_1
*CAP
1 *1361:A0 0.000100979
2 *1552:X 0.000100979
3 *1361:A0 *1552:A 0.000187129
4 *244:16 *1361:A0 2.4754e-05
*RES
1 *1552:X *1361:A0 48.5271 
*END

*D_NET *265 0.00213339
*CONN
*I *1362:A0 I *D sky130_fd_sc_hd__mux2_1
*I *1553:X O *D sky130_fd_sc_hd__dlygate4sd3_1
*CAP
1 *1362:A0 9.48683e-05
2 *1553:X 0.000445661
3 *265:14 0.000540529
4 *265:14 *266:8 0.000116314
5 *265:14 *331:16 0.00036115
6 *1289:B1 *265:14 1.58805e-05
7 *1290:B1 *1362:A0 9.67842e-05
8 *1362:S *1362:A0 4.5051e-05
9 *82:8 *265:14 7.97308e-05
10 *194:110 *265:14 0.000308039
11 *195:66 *1362:A0 2.93845e-05
*RES
1 *1553:X *265:14 47.3214 
2 *265:14 *1362:A0 40.0507 
*END

*D_NET *266 0.000258354
*CONN
*I *1420:D I *D sky130_fd_sc_hd__dfrtp_1
*I *1554:X O *D sky130_fd_sc_hd__dlygate4sd3_1
*CAP
1 *1420:D 0
2 *1554:X 4.19718e-05
3 *266:8 4.19718e-05
4 *82:8 *266:8 5.80963e-05
5 *265:14 *266:8 0.000116314
*RES
1 *1554:X *266:8 39.5536 
2 *266:8 *1420:D 38 
*END

*D_NET *267 0.00402692
*CONN
*I *1403:A0 I *D sky130_fd_sc_hd__mux2_1
*I *1359:A1 I *D sky130_fd_sc_hd__mux2_1
*I *1555:X O *D sky130_fd_sc_hd__dlygate4sd3_1
*CAP
1 *1403:A0 0
2 *1359:A1 0
3 *1555:X 0.000514665
4 *267:22 0.000840246
5 *267:12 0.000840246
6 *267:10 0.000514665
7 *267:10 *1417:D 0.000185434
8 *267:10 *270:8 0.000164282
9 *267:10 *320:37 4.79641e-05
10 *267:22 *270:8 0
11 *267:22 *320:20 4.51908e-05
12 *267:22 *334:8 2.81406e-06
13 *1451:RESET_B *267:10 0
14 *1452:CLK *267:22 2.93845e-05
15 *22:8 *267:22 0.000139347
16 *55:10 *267:22 8.4047e-05
17 *64:8 *267:10 0
18 *64:8 *267:22 6.68211e-05
19 *182:68 *267:22 6.46393e-05
20 *182:70 *267:22 5.26101e-05
21 *182:89 *267:10 9.84794e-05
22 *187:64 *267:22 1.83667e-05
23 *187:68 *267:22 0.000311549
24 *201:20 *267:10 0
25 *259:21 *267:22 6.17437e-06
*RES
1 *1555:X *267:10 48.295 
2 *267:10 *267:12 15 
3 *267:12 *267:22 45.37 
4 *267:22 *1359:A1 23 
5 *267:12 *1403:A0 23 
*END

*D_NET *268 0.00146651
*CONN
*I *1417:D I *D sky130_fd_sc_hd__dfrtp_1
*I *1556:X O *D sky130_fd_sc_hd__dlygate4sd3_1
*CAP
1 *1417:D 0.000452537
2 *1556:X 8.51925e-05
3 *268:8 0.00053773
4 *1417:D *320:37 0.000105934
5 *182:76 *1417:D 7.49233e-05
6 *182:89 *1417:D 2.4754e-05
7 *267:10 *1417:D 0.000185434
*RES
1 *1556:X *268:8 39.2014 
2 *268:8 *1417:D 45.1982 
*END

*D_NET *269 0.00491631
*CONN
*I *1404:A0 I *D sky130_fd_sc_hd__mux2_1
*I *1360:A1 I *D sky130_fd_sc_hd__mux2_1
*I *1557:X O *D sky130_fd_sc_hd__dlygate4sd3_1
*CAP
1 *1404:A0 0
2 *1360:A1 0.000404874
3 *1557:X 0.000367556
4 *269:6 0.000772429
5 *1360:A1 *1404:S 8.95726e-05
6 *1360:A1 *1529:A 0.00014196
7 *1360:A1 *273:14 5.70419e-05
8 *1360:A1 *273:31 0.000116236
9 *1360:A1 *273:38 0.000180218
10 *1360:A1 *316:24 9.37421e-05
11 *1360:A1 *321:44 0.000314157
12 *269:6 *321:44 0.000740181
13 *1397:A0 *1360:A1 0.000226295
14 *69:18 *1360:A1 0.000184527
15 *189:12 *1360:A1 0.00014196
16 *189:136 *1360:A1 0.000313249
17 *189:153 *1360:A1 0.000676438
18 *189:153 *269:6 4.08664e-05
19 *194:120 *1360:A1 5.50049e-05
*RES
1 *1557:X *269:6 31.2443 
2 *269:6 *1360:A1 40.6279 
3 *269:6 *1404:A0 23 
*END

*D_NET *270 0.0011336
*CONN
*I *1463:D I *D sky130_fd_sc_hd__dfrtp_1
*I *1559:X O *D sky130_fd_sc_hd__dlygate4sd3_1
*CAP
1 *1463:D 0.000200215
2 *1559:X 0.000172433
3 *270:8 0.000372648
4 *1451:RESET_B *270:8 0
5 *1463:CLK *1463:D 7.20102e-05
6 *64:8 *270:8 2.5415e-05
7 *187:64 *270:8 0
8 *203:22 *1463:D 3.80755e-05
9 *259:21 *270:8 8.85189e-05
10 *267:10 *270:8 0.000164282
11 *267:22 *270:8 0
*RES
1 *1559:X *270:8 42.0186 
2 *270:8 *1463:D 40.9104 
*END

*D_NET *271 0.000673031
*CONN
*I *1360:A0 I *D sky130_fd_sc_hd__mux2_1
*I *1560:X O *D sky130_fd_sc_hd__dlygate4sd3_1
*CAP
1 *1360:A0 0
2 *1560:X 0.000242755
3 *271:10 0.000242755
4 *271:10 *1293:A1 1.32314e-05
5 *122:14 *271:10 4.08641e-05
6 *189:12 *271:10 2.5415e-05
7 *189:18 *271:10 0.00010801
*RES
1 *1560:X *271:10 41.7286 
2 *271:10 *1360:A0 38 
*END

*D_NET *272 0.00258298
*CONN
*I *1377:A1 I *D sky130_fd_sc_hd__mux2_1
*I *1380:A0 I *D sky130_fd_sc_hd__mux2_1
*I *1561:X O *D sky130_fd_sc_hd__dlygate4sd3_1
*CAP
1 *1377:A1 0
2 *1380:A0 0
3 *1561:X 5.35213e-05
4 *272:20 0.000382274
5 *272:12 0.000709662
6 *272:8 0.000380909
7 *272:8 *326:18 8.62876e-05
8 *272:12 *326:18 5.50106e-05
9 *272:20 *281:80 3.53115e-05
10 *272:20 *323:10 0
11 *1377:S *272:20 0
12 *1380:S *272:20 5.25848e-05
13 *1437:CLK *272:12 0.000311549
14 *1437:RESET_B *272:8 2.5415e-05
15 *1441:RESET_B *272:20 0.000169683
16 *199:64 *272:20 0.000301419
17 *263:28 *272:12 1.93498e-05
*RES
1 *1561:X *272:8 39.2014 
2 *272:8 *272:12 19.9093 
3 *272:12 *272:20 38.6586 
4 *272:20 *1380:A0 23 
5 *272:12 *1377:A1 23 
*END

*D_NET *273 0.0150007
*CONN
*I *1404:S I *D sky130_fd_sc_hd__mux2_1
*I *1391:S I *D sky130_fd_sc_hd__mux2_1
*I *1359:S I *D sky130_fd_sc_hd__mux2_1
*I *1405:S I *D sky130_fd_sc_hd__mux2_1
*I *1393:S I *D sky130_fd_sc_hd__mux2_1
*I *1361:S I *D sky130_fd_sc_hd__mux2_1
*I *1326:S I *D sky130_fd_sc_hd__mux2_1
*I *1394:S I *D sky130_fd_sc_hd__mux2_1
*I *1397:S I *D sky130_fd_sc_hd__mux2_1
*I *1360:S I *D sky130_fd_sc_hd__mux2_1
*I *1502:X O *D sky130_fd_sc_hd__clkbuf_4
*CAP
1 *1404:S 0.000127069
2 *1391:S 0
3 *1359:S 6.677e-05
4 *1405:S 0
5 *1393:S 6.43638e-05
6 *1361:S 8.6799e-05
7 *1326:S 0
8 *1394:S 6.82149e-05
9 *1397:S 0
10 *1360:S 0
11 *1502:X 0.000178116
12 *273:126 0.000723226
13 *273:98 6.677e-05
14 *273:62 0.000810931
15 *273:54 0.00105648
16 *273:50 0.00125635
17 *273:42 0.0013259
18 *273:40 0.0010841
19 *273:38 0.000198335
20 *273:31 0.000424364
21 *273:14 0.000455907
22 *273:10 0.000280925
23 *1359:S *320:20 0.000226306
24 *1393:S *290:22 2.64616e-05
25 *1394:S *1394:A1 0.000121021
26 *1404:S *1529:A 0.00014196
27 *1404:S *321:44 0.000185434
28 *273:10 *316:24 0
29 *273:31 *316:24 0.000139352
30 *273:42 *1307:B 8.51374e-05
31 *273:42 *319:8 9.18156e-06
32 *273:50 *1393:A1 0.000100488
33 *273:50 *290:22 4.77714e-05
34 *273:54 *1552:A 0
35 *273:54 *292:29 0
36 *273:62 *325:6 0.000361027
37 *273:62 *325:19 5.50049e-05
38 *273:126 *319:8 6.18676e-05
39 *1311:B *273:126 4.93341e-05
40 *1360:A1 *1404:S 8.95726e-05
41 *1360:A1 *273:14 5.70419e-05
42 *1360:A1 *273:31 0.000116236
43 *1360:A1 *273:38 0.000180218
44 *1391:A0 *273:126 6.27395e-05
45 *1393:A0 *1393:S 2.64616e-05
46 *1393:A0 *273:50 0.000182826
47 *1394:A0 *1394:S 0.0002246
48 *1454:RESET_B *273:62 0
49 *1457:RESET_B *273:10 9.41704e-05
50 *1462:RESET_B *273:50 0
51 *1464:RESET_B *273:42 6.28695e-05
52 *1464:RESET_B *273:50 6.25245e-05
53 *1504:A *273:126 0.000303342
54 *60:10 *273:126 0
55 *69:18 *1404:S 0.000351519
56 *69:18 *273:31 0.000268165
57 *69:18 *273:38 0.000137651
58 *69:29 *1404:S 0.000130423
59 *118:14 *273:126 0.000149742
60 *122:14 *273:10 0.000138143
61 *133:10 *273:126 0.000536381
62 *138:10 *273:126 6.70017e-05
63 *176:73 *1359:S 9.91895e-05
64 *176:73 *273:42 0
65 *181:12 *1393:S 4.07715e-05
66 *181:12 *273:54 4.08641e-05
67 *181:24 *273:62 0.000228909
68 *182:16 *273:42 2.04302e-05
69 *182:16 *273:126 5.59613e-05
70 *182:26 *273:31 7.57281e-06
71 *187:8 *273:10 4.6318e-06
72 *191:59 *273:126 0.000187516
73 *194:120 *1404:S 5.3304e-05
74 *194:120 *273:126 0
75 *201:44 *273:50 0.000134065
76 *204:27 *273:31 0.000108889
77 *217:10 *1393:S 8.72173e-05
78 *217:10 *273:54 0.000110913
79 *241:17 *273:42 0.000522885
80 *244:10 *273:42 2.60152e-05
81 *244:16 *273:42 1.37349e-05
82 *244:16 *273:50 0.00013118
*RES
1 *1502:X *273:10 41.0036 
2 *273:10 *273:14 17.0507 
3 *273:14 *1360:S 23 
4 *273:14 *273:31 37.1257 
5 *273:31 *1397:S 23 
6 *273:31 *273:38 2.05071 
7 *273:38 *273:40 15 
8 *273:40 *273:42 8.94857 
9 *273:42 *273:50 45.2457 
10 *273:50 *273:54 19.3707 
11 *273:54 *273:62 44.79 
12 *273:62 *1394:S 25.5271 
13 *273:62 *1326:S 23 
14 *273:54 *1361:S 24.74 
15 *273:50 *1393:S 39.8229 
16 *273:42 *273:98 15 
17 *273:98 *1405:S 23 
18 *273:98 *1359:S 25.5271 
19 *273:40 *273:126 34.2643 
20 *273:126 *1391:S 23 
21 *273:38 *1404:S 28.8621 
*END

*D_NET *274 0.000811427
*CONN
*I *1365:A0 I *D sky130_fd_sc_hd__mux2_1
*I *1562:X O *D sky130_fd_sc_hd__dlygate4sd3_1
*CAP
1 *1365:A0 8.32728e-05
2 *1562:X 8.32728e-05
3 *1365:A0 *1365:A1 5.67058e-05
4 *1365:A0 *308:22 0.000139357
5 *176:84 *1365:A0 0.000355822
6 *186:25 *1365:A0 4.95081e-05
7 *186:40 *1365:A0 4.34876e-05
*RES
1 *1562:X *1365:A0 49.9564 
*END

*D_NET *275 0.000950746
*CONN
*I *1396:A0 I *D sky130_fd_sc_hd__mux2_1
*I *1563:X O *D sky130_fd_sc_hd__dlygate4sd3_1
*CAP
1 *1396:A0 0
2 *1563:X 0.000384885
3 *275:6 0.000384885
4 *186:84 *275:6 0.000173442
5 *203:81 *275:6 7.53384e-06
*RES
1 *1563:X *275:6 28.3857 
2 *275:6 *1396:A0 23 
*END

*D_NET *276 0.001185
*CONN
*I *1368:A1 I *D sky130_fd_sc_hd__mux2_1
*I *1564:X O *D sky130_fd_sc_hd__dlygate4sd3_1
*CAP
1 *1368:A1 0
2 *1564:X 0.00014897
3 *276:6 0.00014897
4 *276:6 *1368:A0 0.0002263
5 *276:6 *302:40 0.000482612
6 *1261:A *276:6 0.00010359
7 *1261:C *276:6 1.95448e-05
8 *176:84 *276:6 5.50106e-05
*RES
1 *1564:X *276:6 28.8621 
2 *276:6 *1368:A1 23 
*END

*D_NET *277 0.000445317
*CONN
*I *1426:D I *D sky130_fd_sc_hd__dfrtp_1
*I *1565:X O *D sky130_fd_sc_hd__dlygate4sd3_1
*CAP
1 *1426:D 0
2 *1565:X 0.000125072
3 *277:10 0.000125072
4 *1426:RESET_B *277:10 0.000141869
5 *131:8 *277:10 5.3304e-05
6 *262:95 *277:10 0
*RES
1 *1565:X *277:10 40.5271 
2 *277:10 *1426:D 38 
*END

*D_NET *278 0.000775117
*CONN
*I *1382:A0 I *D sky130_fd_sc_hd__mux2_1
*I *1566:X O *D sky130_fd_sc_hd__dlygate4sd3_1
*CAP
1 *1382:A0 9.21863e-05
2 *1566:X 0.000223545
3 *278:8 0.000315731
4 *1379:A1 *278:8 0
5 *193:35 *1382:A0 0.000143655
6 *193:35 *278:8 0
7 *240:23 *278:8 0
*RES
1 *1566:X *278:8 42.0186 
2 *278:8 *1382:A0 39.5743 
*END

*D_NET *279 0.000695422
*CONN
*I *1381:A0 I *D sky130_fd_sc_hd__mux2_1
*I *1567:X O *D sky130_fd_sc_hd__dlygate4sd3_1
*CAP
1 *1381:A0 0
2 *1567:X 0.000243119
3 *279:10 0.000243119
4 *1381:S *279:10 4.08641e-05
5 *106:8 *279:10 6.82514e-05
6 *262:36 *279:10 0.000100069
*RES
1 *1567:X *279:10 41.7286 
2 *279:10 *1381:A0 38 
*END

*D_NET *280 0.00134385
*CONN
*I *1327:A1 I *D sky130_fd_sc_hd__mux2_1
*I *1568:X O *D sky130_fd_sc_hd__dlygate4sd3_1
*CAP
1 *1327:A1 0
2 *1568:X 0.000457343
3 *280:10 0.000457343
4 *280:10 *1286:A2 1.46586e-05
5 *280:10 *1520:A 3.53115e-05
6 *1327:A0 *280:10 5.3304e-05
7 *110:10 *280:10 0.000277627
8 *190:14 *280:10 3.24912e-05
9 *190:26 *280:10 1.5769e-05
*RES
1 *1568:X *280:10 29.9807 
2 *280:10 *1327:A1 23 
*END

*D_NET *281 0.0269404
*CONN
*I *1293:A1 I *D sky130_fd_sc_hd__a22o_1
*I *1294:A1 I *D sky130_fd_sc_hd__o221a_1
*I *1239:A I *D sky130_fd_sc_hd__inv_2
*I *1315:A1 I *D sky130_fd_sc_hd__o221a_1
*I *1260:A1 I *D sky130_fd_sc_hd__o221a_1
*I *1304:A1 I *D sky130_fd_sc_hd__o221a_1
*I *1281:A1 I *D sky130_fd_sc_hd__o221a_1
*I *1380:A1 I *D sky130_fd_sc_hd__mux2_1
*I *1280:A1 I *D sky130_fd_sc_hd__a22o_1
*I *1341:B2 I *D sky130_fd_sc_hd__o32a_1
*I *1409:Q O *D sky130_fd_sc_hd__dfrtp_4
*CAP
1 *1293:A1 0.000361678
2 *1294:A1 0
3 *1239:A 0.000177769
4 *1315:A1 0.000498552
5 *1260:A1 0
6 *1304:A1 0
7 *1281:A1 0
8 *1380:A1 0
9 *1280:A1 0
10 *1341:B2 0
11 *1409:Q 0
12 *281:154 0.000409371
13 *281:139 0.00251506
14 *281:113 0.000452964
15 *281:107 0.00135153
16 *281:98 0.00134927
17 *281:80 0.000574273
18 *281:66 0.00078656
19 *281:49 0.00150011
20 *281:33 0.00357395
21 *281:23 0.00379838
22 *281:14 0.000795021
23 *281:6 0.000966935
24 *1239:A *1294:C1 0
25 *281:23 *1284:B 0.000169665
26 *281:33 *1284:B 0
27 *281:33 *301:10 0
28 *281:33 *337:12 0.000136486
29 *281:98 *1252:A 0.000237525
30 *281:98 *1303:B1 0.000305491
31 *281:98 *302:21 9.85378e-05
32 *281:98 *302:32 0.000205648
33 *281:113 *305:10 5.31444e-05
34 *281:113 *305:16 3.83778e-05
35 *281:139 *292:57 0.000276461
36 *281:139 *293:10 0
37 *281:139 *293:19 0
38 *1280:B2 *281:66 6.25742e-05
39 *1281:B1 *281:66 5.3304e-05
40 *1281:B1 *281:80 1.32939e-05
41 *1281:B2 *281:66 1.10658e-05
42 *1281:B2 *281:80 0.000141954
43 *1284:A *281:23 5.26101e-05
44 *1294:A2 *1293:A1 0.000324584
45 *1300:A_N *281:49 9.84851e-05
46 *1304:B1 *281:98 0
47 *1315:B1 *1315:A1 3.22879e-05
48 *1315:B2 *1315:A1 1.80984e-05
49 *1341:A3 *281:14 3.53115e-05
50 *1341:B1 *281:14 0.000161304
51 *1380:S *281:80 0.000191696
52 *1408:CLK *281:33 7.88926e-05
53 *1435:RESET_B *281:33 0
54 *10:10 *281:33 0
55 *14:10 *281:33 0.000140949
56 *15:10 *281:23 0
57 *31:10 *281:113 0
58 *71:16 *1293:A1 1.21972e-05
59 *77:10 *281:80 1.83667e-05
60 *77:29 *281:66 9.65021e-05
61 *79:10 *281:98 0
62 *84:10 *281:113 2.49733e-05
63 *86:8 *281:113 4.21594e-06
64 *87:10 *281:113 0.000187996
65 *88:8 *281:113 1.02387e-05
66 *122:8 *1239:A 5.41385e-05
67 *122:14 *1239:A 9.64524e-05
68 *122:14 *281:154 1.7152e-05
69 *124:10 *281:49 2.31209e-05
70 *127:18 *281:49 4.00259e-06
71 *131:8 *281:107 0.000240334
72 *145:12 *281:139 0.000464593
73 *146:56 *281:14 7.1349e-05
74 *154:10 *281:14 4.00259e-06
75 *176:18 *281:33 3.5301e-05
76 *176:18 *281:139 2.93868e-05
77 *176:26 *281:33 0.000157082
78 *180:64 *281:98 0
79 *183:8 *1315:A1 3.80755e-05
80 *183:22 *281:113 0
81 *188:42 *281:113 0
82 *189:12 *281:154 1.02428e-05
83 *189:18 *1293:A1 5.30821e-05
84 *189:44 *281:113 0
85 *189:73 *281:49 2.11157e-05
86 *189:77 *281:49 0.00058996
87 *189:77 *281:66 2.56863e-05
88 *190:14 *281:139 3.98859e-05
89 *190:96 *281:98 0
90 *192:81 *1239:A 5.12254e-05
91 *194:64 *281:98 0
92 *194:74 *281:98 0.00014196
93 *197:10 *281:14 0.000107335
94 *197:10 *281:23 1.19692e-05
95 *197:24 *281:23 0
96 *198:20 *281:33 0
97 *198:32 *281:33 0
98 *198:44 *281:14 0.000155417
99 *198:44 *281:23 8.56839e-05
100 *199:6 *281:107 0.000397596
101 *199:28 *281:98 1.95758e-05
102 *199:28 *281:107 0.000212309
103 *200:35 *281:98 0
104 *204:27 *281:139 0.000253804
105 *204:63 *281:139 0
106 *204:86 *1315:A1 0.000103637
107 *204:86 *281:113 0
108 *229:36 *281:80 8.4047e-05
109 *233:10 *281:14 1.99429e-05
110 *233:10 *281:33 0
111 *245:8 *281:33 0
112 *245:8 *281:98 0
113 *251:10 *281:98 4.06408e-05
114 *257:14 *281:98 0.000108672
115 *262:10 *281:33 0.000355322
116 *262:87 *281:33 0.000216933
117 *262:87 *281:98 0.000147157
118 *271:10 *1293:A1 1.32314e-05
119 *272:20 *281:80 3.53115e-05
*RES
1 *1409:Q *281:6 38 
2 *281:6 *281:14 29.065 
3 *281:14 *1341:B2 23 
4 *281:6 *281:23 19.7229 
5 *281:23 *281:33 39.4325 
6 *281:33 *281:49 45.6205 
7 *281:49 *1280:A1 23 
8 *281:49 *281:66 4.785 
9 *281:66 *281:80 40.1086 
10 *281:80 *1380:A1 23 
11 *281:66 *1281:A1 23 
12 *281:33 *281:98 35.4968 
13 *281:98 *1304:A1 23 
14 *281:98 *281:107 10.9993 
15 *281:107 *281:113 38.2443 
16 *281:113 *1260:A1 23 
17 *281:107 *1315:A1 32.0936 
18 *281:23 *281:139 49.6518 
19 *281:139 *1239:A 41.8839 
20 *281:139 *281:154 15.6732 
21 *281:154 *1294:A1 23 
22 *281:154 *1293:A1 29.5457 
*END

*D_NET *282 0.00508369
*CONN
*I *1491:A I *D sky130_fd_sc_hd__dlymetal6s2s_1
*I *1490:A I *D sky130_fd_sc_hd__buf_2
*I *1410:Q O *D sky130_fd_sc_hd__dfrtp_1
*CAP
1 *1491:A 0
2 *1490:A 0.000286853
3 *1410:Q 0.000328967
4 *282:37 0.0012044
5 *282:10 0.00182022
6 *282:37 *1285:A2 0.000145231
7 *282:37 *294:10 3.36232e-05
8 *282:37 *337:12 5.67058e-05
9 *1407:CLK *282:37 0.000223698
10 *1408:CLK *1490:A 0.000227208
11 *1410:CLK *282:10 2.93747e-05
12 *1410:RESET_B *282:10 8.63919e-05
13 *10:10 *282:37 7.91596e-05
14 *178:8 *282:10 0
15 *178:56 *282:10 0
16 *178:69 *282:37 0
17 *178:84 *282:37 0
18 *195:14 *282:37 0.000363935
19 *198:20 *282:37 7.99353e-05
20 *198:32 *282:10 5.01247e-05
21 *198:32 *282:37 6.78567e-05
*RES
1 *1410:Q *282:10 43.2614 
2 *282:10 *1490:A 43.8621 
3 *282:10 *282:37 36.4393 
4 *282:37 *1491:A 23 
*END

*D_NET *283 0.000242274
*CONN
*I *1489:A I *D sky130_fd_sc_hd__buf_2
*I *1411:Q O *D sky130_fd_sc_hd__dfrtp_1
*CAP
1 *1489:A 6.26073e-05
2 *1411:Q 6.26073e-05
3 *193:8 *1489:A 1.94812e-05
4 *197:79 *1489:A 9.75779e-05
*RES
1 *1411:Q *1489:A 47.595 
*END

*D_NET *284 0.000357252
*CONN
*I *1319:B I *D sky130_fd_sc_hd__or2_2
*I *1320:X O *D sky130_fd_sc_hd__and2b_1
*CAP
1 *1319:B 0
2 *1320:X 0.000117832
3 *284:10 0.000117832
4 *1460:CLK *284:10 0.000116314
5 *146:8 *284:10 0
6 *146:23 *284:10 5.27215e-06
*RES
1 *1320:X *284:10 40.175 
2 *284:10 *1319:B 38 
*END

*D_NET *285 0.00643193
*CONN
*I *1399:A I *D sky130_fd_sc_hd__and3_1
*I *1330:A I *D sky130_fd_sc_hd__nor2_1
*I *1333:A1 I *D sky130_fd_sc_hd__a21oi_1
*I *1339:A1 I *D sky130_fd_sc_hd__a22o_1
*I *1345:A1 I *D sky130_fd_sc_hd__a211o_1
*I *1246:A I *D sky130_fd_sc_hd__inv_2
*I *1331:A I *D sky130_fd_sc_hd__nor2_1
*I *1400:A1 I *D sky130_fd_sc_hd__a21oi_1
*I *1459:Q O *D sky130_fd_sc_hd__dfrtp_4
*CAP
1 *1399:A 0.000117493
2 *1330:A 0
3 *1333:A1 0.000393003
4 *1339:A1 0.000126691
5 *1345:A1 1.31028e-05
6 *1246:A 0
7 *1331:A 3.39423e-05
8 *1400:A1 0
9 *1459:Q 0.000192257
10 *285:83 0.000559765
11 *285:64 0.000357372
12 *285:50 0.000146325
13 *285:35 0.000240077
14 *285:33 0.000299473
15 *285:27 0.000493253
16 *285:21 0.00056827
17 *285:10 0.000440261
18 *1331:A *1331:B 3.91386e-05
19 *1331:A *287:24 6.64204e-05
20 *1399:A *1399:B 3.71369e-05
21 *1399:A *286:27 2.98648e-05
22 *285:10 *286:10 5.56306e-05
23 *285:21 *1338:A1 0
24 *285:21 *286:10 3.20914e-05
25 *285:21 *286:21 7.20415e-05
26 *285:21 *286:27 4.21457e-05
27 *285:21 *286:46 4.77164e-06
28 *285:21 *287:16 0
29 *285:27 *1338:A1 5.50106e-05
30 *285:27 *286:27 5.12254e-05
31 *285:33 *287:16 0
32 *285:33 *287:20 0.000344292
33 *285:35 *287:20 1.24376e-05
34 *285:35 *287:24 0.000258245
35 *1334:B *285:50 0
36 *1339:B1 *1339:A1 1.15144e-05
37 *1345:A2 *285:33 0.00010018
38 *1345:B1 *1331:A 0
39 *1345:B1 *1345:A1 5.90675e-06
40 *1401:A *1399:A 0
41 *1459:RESET_B *285:10 0.000228001
42 *76:33 *1339:A1 2.09226e-05
43 *76:33 *285:33 1.83667e-05
44 *76:33 *285:64 1.02029e-05
45 *147:29 *1331:A 2.93747e-05
46 *147:29 *285:35 0.000103647
47 *147:44 *285:33 0.000195103
48 *147:44 *285:35 4.6595e-05
49 *147:44 *285:64 9.47911e-06
50 *151:8 *1333:A1 0.000107894
51 *154:10 *1333:A1 6.82147e-05
52 *154:10 *285:83 0.000140259
53 *157:10 *1333:A1 7.30497e-06
54 *159:12 *285:27 2.93845e-05
55 *160:10 *1399:A 6.17437e-06
56 *160:10 *285:27 9.99662e-05
57 *160:10 *285:83 0
58 *178:26 *285:33 6.08043e-05
59 *178:26 *285:64 1.2741e-05
60 *178:26 *285:83 3.81554e-05
*RES
1 *1459:Q *285:10 42.0807 
2 *285:10 *1400:A1 38 
3 *285:10 *285:21 19.0186 
4 *285:21 *285:27 19.4536 
5 *285:27 *285:33 22.2707 
6 *285:33 *285:35 3.00357 
7 *285:35 *1331:A 24.1186 
8 *285:35 *285:50 32.2579 
9 *285:50 *1246:A 23 
10 *285:33 *1345:A1 23.4971 
11 *285:27 *285:64 1.20143 
12 *285:64 *1339:A1 40.2164 
13 *285:64 *285:83 18.48 
14 *285:83 *1333:A1 28.2821 
15 *285:83 *1330:A 23 
16 *285:21 *1399:A 25.5479 
*END

*D_NET *286 0.00770028
*CONN
*I *1399:B I *D sky130_fd_sc_hd__and3_1
*I *1248:A I *D sky130_fd_sc_hd__inv_2
*I *1329:B I *D sky130_fd_sc_hd__nor2_1
*I *1343:A2 I *D sky130_fd_sc_hd__a22o_1
*I *1353:A I *D sky130_fd_sc_hd__nor2_1
*I *1349:B1 I *D sky130_fd_sc_hd__o21a_1
*I *1338:A2 I *D sky130_fd_sc_hd__a21o_1
*I *1400:B1 I *D sky130_fd_sc_hd__a21oi_1
*I *1460:Q O *D sky130_fd_sc_hd__dfrtp_4
*CAP
1 *1399:B 0.000130959
2 *1248:A 0
3 *1329:B 0
4 *1343:A2 2.10473e-05
5 *1353:A 0
6 *1349:B1 0.000126958
7 *1338:A2 0
8 *1400:B1 0
9 *1460:Q 0.000266742
10 *286:85 0.000191347
11 *286:68 0.000536309
12 *286:66 0.000362182
13 *286:58 0.000366201
14 *286:46 0.000865932
15 *286:27 0.000818699
16 *286:21 0.000452392
17 *286:10 0.000392337
18 *1349:B1 *289:34 0
19 *1349:B1 *289:41 0
20 *286:27 *1338:A1 4.22943e-05
21 *286:46 *287:63 2.11157e-05
22 *1329:A *286:66 8.16356e-05
23 *1332:A *286:58 1.32314e-05
24 *1339:B1 *286:58 0.000243668
25 *1343:B2 *286:68 5.56279e-05
26 *1347:A3 *286:85 0.000143535
27 *1353:B *286:85 0.000347738
28 *1399:A *1399:B 3.71369e-05
29 *1399:A *286:27 2.98648e-05
30 *1459:RESET_B *286:10 0.000272383
31 *146:52 *1399:B 1.73399e-05
32 *146:94 *286:85 5.46706e-05
33 *146:108 *286:85 0.000324742
34 *146:125 *286:85 1.21972e-05
35 *148:21 *1349:B1 1.59071e-05
36 *150:21 *286:58 5.3304e-05
37 *150:29 *286:58 6.6869e-05
38 *150:29 *286:66 0.000139657
39 *150:38 *286:58 9.67842e-05
40 *151:22 *286:46 0.00016096
41 *152:20 *1343:A2 1.08859e-05
42 *152:20 *1349:B1 7.53384e-06
43 *152:20 *286:58 1.14154e-05
44 *152:20 *286:66 3.03714e-05
45 *152:20 *286:68 0.000150661
46 *152:28 *1349:B1 4.96717e-05
47 *153:10 *286:58 5.25848e-05
48 *155:19 *286:85 0.000136486
49 *157:10 *286:58 5.12328e-05
50 *163:10 *286:58 0.000168774
51 *164:14 *286:46 1.09886e-05
52 *164:14 *286:58 0
53 *285:10 *286:10 5.56306e-05
54 *285:21 *286:10 3.20914e-05
55 *285:21 *286:21 7.20415e-05
56 *285:21 *286:27 4.21457e-05
57 *285:21 *286:46 4.77164e-06
58 *285:27 *286:27 5.12254e-05
*RES
1 *1460:Q *286:10 43.9657 
2 *286:10 *1400:B1 38 
3 *286:10 *286:21 17.2579 
4 *286:21 *286:27 18.2521 
5 *286:27 *1338:A2 38 
6 *286:27 *286:46 32.9861 
7 *286:46 *286:58 37.3329 
8 *286:58 *286:66 32.8793 
9 *286:66 *286:68 3.95643 
10 *286:68 *1349:B1 25.0714 
11 *286:68 *286:85 37.0014 
12 *286:85 *1353:A 23 
13 *286:66 *1343:A2 23.4971 
14 *286:58 *1329:B 23 
15 *286:46 *1248:A 23 
16 *286:21 *1399:B 25.0507 
*END

*D_NET *287 0.00782765
*CONN
*I *1338:A1 I *D sky130_fd_sc_hd__a21o_1
*I *1247:A I *D sky130_fd_sc_hd__inv_2
*I *1344:A I *D sky130_fd_sc_hd__nor2_1
*I *1331:B I *D sky130_fd_sc_hd__nor2_1
*I *1337:A2 I *D sky130_fd_sc_hd__a211o_1
*I *1351:A I *D sky130_fd_sc_hd__nand2_1
*I *1461:Q O *D sky130_fd_sc_hd__dfrtp_2
*CAP
1 *1338:A1 0.000104505
2 *1247:A 0
3 *1344:A 0
4 *1331:B 2.86306e-05
5 *1337:A2 2.13625e-05
6 *1351:A 0
7 *1461:Q 0.000270582
8 *287:63 0.000298122
9 *287:34 0.00052697
10 *287:26 0.000688075
11 *287:24 0.000429787
12 *287:20 0.000942057
13 *287:16 0.000466372
14 *287:12 0.000458936
15 *1337:A2 *1337:B1 4.00259e-06
16 *287:34 *1337:B1 2.38751e-05
17 *287:34 *1337:C1 4.93812e-05
18 *287:34 *288:10 1.86973e-05
19 *287:34 *288:14 0.000128169
20 *287:34 *288:30 3.46241e-05
21 *287:34 *288:41 2.26489e-05
22 *1249:A *287:34 9.84851e-05
23 *1331:A *1331:B 3.91386e-05
24 *1331:A *287:24 6.64204e-05
25 *1345:A2 *287:63 4.73689e-05
26 *1345:B1 *1331:B 0
27 *1400:A2 *287:12 0.000111298
28 *1400:A2 *287:20 1.37232e-05
29 *1402:A *287:12 0.000329568
30 *11:29 *287:34 0.000113095
31 *75:10 *287:12 6.6426e-05
32 *75:10 *287:20 1.32939e-05
33 *146:108 *287:26 0.000217218
34 *146:108 *287:34 1.24376e-05
35 *147:27 *287:26 9.03964e-06
36 *147:27 *287:34 2.94414e-05
37 *147:29 *1331:B 5.57621e-05
38 *147:29 *287:24 1.22822e-05
39 *147:29 *287:26 8.69618e-05
40 *147:44 *1338:A1 0.000155764
41 *147:44 *287:16 6.16531e-05
42 *147:44 *287:20 5.29672e-05
43 *148:29 *287:26 0.000146195
44 *151:22 *287:63 8.51833e-05
45 *153:10 *287:63 5.21127e-05
46 *159:12 *287:63 8.57004e-05
47 *160:10 *1338:A1 2.93845e-05
48 *164:14 *287:63 8.78585e-05
49 *174:12 *287:12 9.84794e-05
50 *175:10 *287:12 0.000400204
51 *178:26 *287:63 0
52 *285:21 *1338:A1 0
53 *285:21 *287:16 0
54 *285:27 *1338:A1 5.50106e-05
55 *285:33 *287:16 0
56 *285:33 *287:20 0.000344292
57 *285:35 *287:20 1.24376e-05
58 *285:35 *287:24 0.000258245
59 *286:27 *1338:A1 4.22943e-05
60 *286:46 *287:63 2.11157e-05
*RES
1 *1461:Q *287:12 46.41 
2 *287:12 *287:16 16.2014 
3 *287:16 *287:20 6.71143 
4 *287:20 *287:24 4.45357 
5 *287:24 *287:26 4.43286 
6 *287:26 *287:34 40.4814 
7 *287:34 *1351:A 23 
8 *287:26 *1337:A2 23.4971 
9 *287:24 *1331:B 24.2843 
10 *287:20 *287:63 36.4836 
11 *287:63 *1344:A 23 
12 *287:16 *1247:A 23 
13 *287:12 *1338:A1 40.8793 
*END

*D_NET *288 0.00400181
*CONN
*I *1336:C1 I *D sky130_fd_sc_hd__o211a_1
*I *1335:B1 I *D sky130_fd_sc_hd__o21ai_1
*I *1352:B1 I *D sky130_fd_sc_hd__a32o_1
*I *1346:B I *D sky130_fd_sc_hd__nand2_1
*I *1350:B I *D sky130_fd_sc_hd__or4_1
*I *1337:C1 I *D sky130_fd_sc_hd__a211o_1
*I *1536:A I *D sky130_fd_sc_hd__dlygate4sd3_1
*I *1412:Q O *D sky130_fd_sc_hd__dfrtp_2
*CAP
1 *1336:C1 8.95854e-05
2 *1335:B1 0
3 *1352:B1 1.17411e-05
4 *1346:B 0.000137026
5 *1350:B 0
6 *1337:C1 3.13571e-05
7 *1536:A 0
8 *1412:Q 0.000397652
9 *288:45 0.000188046
10 *288:43 6.65694e-05
11 *288:41 0.000340294
12 *288:30 0.000338597
13 *288:14 7.92409e-05
14 *288:10 0.000560715
15 *1337:C1 *1337:B1 0.000140908
16 *1346:B *1346:A 0.000310857
17 *288:14 *1337:B1 0.000232409
18 *288:41 *1346:A 1.58805e-05
19 *288:41 *289:47 7.91596e-05
20 *288:41 *289:77 0
21 *288:45 *1346:A 0.000120217
22 *288:45 *1352:B2 5.50049e-05
23 *1335:A1 *288:41 1.83564e-05
24 *1335:A2 *1336:C1 0.000115099
25 *1335:A2 *1352:B1 0
26 *1336:A2 *1336:C1 6.06695e-06
27 *1352:A1 *1346:B 3.18571e-05
28 *1352:A1 *288:45 3.68791e-05
29 *1412:D *288:10 3.71251e-05
30 *11:29 *288:10 0
31 *150:14 *288:41 0.000140958
32 *152:28 *288:41 0
33 *152:39 *1336:C1 0.000107934
34 *155:10 *288:10 0
35 *155:10 *288:30 0
36 *155:10 *288:41 0
37 *166:10 *1336:C1 6.17437e-06
38 *166:10 *288:43 2.93747e-05
39 *166:10 *288:45 2.32101e-05
40 *169:10 *288:41 0
41 *287:34 *1337:C1 4.93812e-05
42 *287:34 *288:10 1.86973e-05
43 *287:34 *288:14 0.000128169
44 *287:34 *288:30 3.46241e-05
45 *287:34 *288:41 2.26489e-05
*RES
1 *1412:Q *288:10 43.7379 
2 *288:10 *288:14 17.5271 
3 *288:14 *1536:A 23 
4 *288:14 *1337:C1 24.595 
5 *288:10 *288:30 1.90571 
6 *288:30 *1350:B 38 
7 *288:30 *288:41 19.0186 
8 *288:41 *288:43 0.621429 
9 *288:43 *288:45 1.8125 
10 *288:45 *1346:B 26.7389 
11 *288:45 *1352:B1 23.4971 
12 *288:43 *1335:B1 23 
13 *288:41 *1336:C1 26.5214 
*END

*D_NET *289 0.00582881
*CONN
*I *1337:B1 I *D sky130_fd_sc_hd__a211o_1
*I *1351:B I *D sky130_fd_sc_hd__nand2_1
*I *1336:B1 I *D sky130_fd_sc_hd__o211a_1
*I *1346:A I *D sky130_fd_sc_hd__nand2_1
*I *1352:B2 I *D sky130_fd_sc_hd__a32o_1
*I *1350:A I *D sky130_fd_sc_hd__or4_1
*I *1323:A I *D sky130_fd_sc_hd__nand2_1
*I *1322:A I *D sky130_fd_sc_hd__or2_1
*I *1413:Q O *D sky130_fd_sc_hd__dfrtp_2
*CAP
1 *1337:B1 0.000221166
2 *1351:B 0
3 *1336:B1 0
4 *1346:A 0.000209074
5 *1352:B2 1.80505e-05
6 *1350:A 0
7 *1323:A 0
8 *1322:A 0.00011802
9 *1413:Q 0
10 *289:77 0.000247971
11 *289:47 0.000386278
12 *289:41 0.000427183
13 *289:34 0.000124507
14 *289:28 0.000133361
15 *289:21 5.42368e-05
16 *289:10 0.000280778
17 *289:4 0.000358598
18 *1249:A *1337:B1 7.73389e-05
19 *1322:B *1322:A 5.50049e-05
20 *1324:B *1322:A 3.53115e-05
21 *1335:A1 *289:77 3.36312e-06
22 *1337:A2 *1337:B1 4.00259e-06
23 *1337:C1 *1337:B1 0.000140908
24 *1346:B *1346:A 0.000310857
25 *1349:B1 *289:34 0
26 *1349:B1 *289:41 0
27 *1350:D *289:77 5.79559e-05
28 *1352:A1 *1352:B2 2.93747e-05
29 *11:29 *1322:A 2.55283e-05
30 *11:29 *289:10 3.35885e-05
31 *11:29 *289:21 5.3304e-05
32 *11:29 *289:28 4.08664e-05
33 *11:29 *289:34 0
34 *147:27 *1337:B1 0.000703368
35 *148:21 *289:34 7.22251e-05
36 *148:21 *289:77 5.92572e-05
37 *150:14 *289:77 0
38 *152:28 *289:77 7.19844e-05
39 *166:10 *1346:A 0.000441065
40 *169:10 *289:10 5.94125e-05
41 *169:10 *289:28 1.56665e-05
42 *169:10 *289:34 0.000139357
43 *169:10 *289:47 0
44 *170:10 *1322:A 1.32314e-05
45 *170:10 *289:21 2.02872e-05
46 *170:10 *289:28 5.41385e-05
47 *170:10 *289:34 1.76557e-05
48 *170:10 *289:47 0
49 *197:93 *1346:A 0
50 *197:93 *289:10 0.000187986
51 *287:34 *1337:B1 2.38751e-05
52 *288:14 *1337:B1 0.000232409
53 *288:41 *1346:A 1.58805e-05
54 *288:41 *289:47 7.91596e-05
55 *288:41 *289:77 0
56 *288:45 *1346:A 0.000120217
57 *288:45 *1352:B2 5.50049e-05
*RES
1 *1413:Q *289:4 23 
2 *289:4 *289:10 32.61 
3 *289:10 *1322:A 25.5479 
4 *289:10 *289:21 0.621429 
5 *289:21 *1323:A 23 
6 *289:21 *289:28 1.09786 
7 *289:28 *289:34 3.52143 
8 *289:34 *1350:A 23 
9 *289:34 *289:41 0.497143 
10 *289:41 *289:47 18.3557 
11 *289:47 *1352:B2 38.6214 
12 *289:47 *1346:A 45.0843 
13 *289:41 *289:77 34.785 
14 *289:77 *1336:B1 23 
15 *289:28 *1351:B 23 
16 *289:4 *1337:B1 31.6171 
*END

*D_NET *290 0.00799973
*CONN
*I *1359:A0 I *D sky130_fd_sc_hd__mux2_1
*I *1273:A2_N I *D sky130_fd_sc_hd__o2bb2a_1
*I *1276:A2 I *D sky130_fd_sc_hd__o221a_1
*I *1326:A1 I *D sky130_fd_sc_hd__mux2_1
*I *1417:Q O *D sky130_fd_sc_hd__dfrtp_1
*CAP
1 *1359:A0 0
2 *1273:A2_N 0.000227268
3 *1276:A2 4.29134e-05
4 *1326:A1 0.000297252
5 *1417:Q 0
6 *290:63 0.000110277
7 *290:28 0.000519456
8 *290:22 0.00197205
9 *290:4 0.00167577
10 *1273:A2_N *1276:C1 6.7177e-06
11 *1276:A2 *1276:C1 1.58805e-05
12 *1326:A1 *1276:C1 6.42902e-05
13 *1326:A1 *1394:A1 0.00011775
14 *1326:A1 *324:19 0.00011607
15 *290:22 *1276:C1 2.54046e-05
16 *290:22 *1393:A1 0.000236513
17 *290:22 *1505:A 0.000151601
18 *290:28 *1276:C1 9.67842e-05
19 *290:63 *320:20 3.98859e-05
20 *290:63 *322:8 0.000165583
21 *1276:A1 *1273:A2_N 0.000409631
22 *1276:A1 *290:28 3.34247e-05
23 *1393:A0 *290:22 4.21089e-05
24 *1393:S *290:22 2.64616e-05
25 *1394:A0 *1326:A1 0.000226295
26 *1406:CLK *1326:A1 6.6869e-05
27 *1464:RESET_B *290:63 0
28 *13:10 *1326:A1 5.50106e-05
29 *176:60 *290:28 9.88574e-06
30 *181:18 *1326:A1 1.21972e-05
31 *181:24 *1326:A1 2.19562e-05
32 *182:76 *290:63 0
33 *191:10 *1273:A2_N 6.48142e-05
34 *201:32 *290:22 0
35 *201:44 *290:22 0.000430462
36 *201:78 *1273:A2_N 0.000554019
37 *201:78 *290:22 8.4047e-05
38 *212:8 *1326:A1 3.33082e-05
39 *226:10 *1326:A1 0
40 *232:8 *1276:A2 0
41 *273:50 *290:22 4.77714e-05
*RES
1 *1417:Q *290:4 23 
2 *290:4 *290:22 40.1886 
3 *290:22 *290:28 32.5271 
4 *290:28 *1326:A1 46.0786 
5 *290:28 *1276:A2 38.8493 
6 *290:22 *1273:A2_N 45.54 
7 *290:4 *290:63 32.61 
8 *290:63 *1359:A0 23 
*END

*D_NET *291 0.003681
*CONN
*I *1244:A I *D sky130_fd_sc_hd__inv_2
*I *1560:A I *D sky130_fd_sc_hd__dlygate4sd3_1
*I *1273:B1 I *D sky130_fd_sc_hd__o2bb2a_1
*I *1568:A I *D sky130_fd_sc_hd__dlygate4sd3_1
*I *1418:Q O *D sky130_fd_sc_hd__dfrtp_1
*CAP
1 *1244:A 0.000122862
2 *1560:A 5.95874e-06
3 *1273:B1 0
4 *1568:A 0
5 *1418:Q 0
6 *291:31 0.000304767
7 *291:21 0.000516936
8 *291:12 0.000438875
9 *291:4 0.000534141
10 *291:12 *1287:A2 1.21972e-05
11 *1273:A1_N *291:31 2.70962e-05
12 *1277:B1 *291:31 2.81066e-05
13 *1287:A1 *291:12 5.3304e-05
14 *67:35 *1244:A 9.675e-05
15 *67:35 *291:31 4.04039e-05
16 *72:8 *1244:A 0.00021076
17 *72:8 *291:31 0.00013535
18 *103:10 *291:12 0
19 *103:10 *291:31 3.55458e-05
20 *112:10 *291:12 0.000114092
21 *113:10 *291:12 7.48076e-05
22 *114:10 *291:12 8.08139e-06
23 *189:18 *1560:A 5.67058e-05
24 *189:18 *291:31 5.67058e-05
25 *190:46 *1244:A 2.47097e-05
26 *190:46 *291:31 0
27 *192:53 *291:12 0.000286254
28 *192:61 *291:12 6.16439e-05
29 *195:52 *1560:A 4.34745e-05
30 *195:52 *291:31 0.000391467
*RES
1 *1418:Q *291:4 23 
2 *291:4 *291:12 37.25 
3 *291:12 *1568:A 23 
4 *291:4 *291:21 16.0979 
5 *291:21 *291:31 22.4571 
6 *291:31 *1273:B1 23 
7 *291:31 *1560:A 23.6214 
8 *291:21 *1244:A 42.0186 
*END

*D_NET *292 0.00754282
*CONN
*I *1275:B I *D sky130_fd_sc_hd__nor2_1
*I *1274:B I *D sky130_fd_sc_hd__and2_1
*I *1328:A1 I *D sky130_fd_sc_hd__mux2_1
*I *1552:A I *D sky130_fd_sc_hd__dlygate4sd3_1
*I *1419:Q O *D sky130_fd_sc_hd__dfrtp_1
*CAP
1 *1275:B 0
2 *1274:B 0
3 *1328:A1 0
4 *1552:A 0.000266638
5 *1419:Q 4.55529e-05
6 *292:57 0.000386103
7 *292:45 0.00074938
8 *292:33 0.000394033
9 *292:29 0.000831564
10 *292:8 0.001113
11 *292:29 *1294:C1 0
12 *292:29 *1393:A1 0
13 *292:45 *1520:A 0.000213304
14 *292:57 *1276:C1 3.91386e-05
15 *1361:A0 *1552:A 0.000187129
16 *1418:CLK *292:29 0
17 *1419:CLK *292:29 0
18 *1453:RESET_B *292:8 2.93747e-05
19 *56:8 *292:29 6.6869e-05
20 *102:10 *292:33 2.02872e-05
21 *102:10 *292:45 0.000161605
22 *103:10 *292:45 0
23 *176:18 *292:57 0.000324996
24 *176:60 *292:29 0.000748
25 *176:60 *292:57 7.42621e-05
26 *176:73 *292:29 4.17736e-05
27 *181:12 *292:29 0
28 *192:61 *292:45 0.000168754
29 *192:70 *292:33 1.59094e-05
30 *192:70 *292:45 8.60108e-05
31 *197:24 *292:57 0.000165593
32 *201:44 *292:29 0
33 *201:78 *292:29 0.000191157
34 *217:10 *292:29 8.65442e-05
35 *226:10 *292:57 0.00010655
36 *232:8 *292:45 0.000140958
37 *244:16 *1552:A 0.000446281
38 *262:132 *292:57 0.000165593
39 *273:54 *1552:A 0
40 *273:54 *292:29 0
41 *281:139 *292:57 0.000276461
*RES
1 *1419:Q *292:8 38.6214 
2 *292:8 *1552:A 45.1671 
3 *292:8 *292:29 48.1664 
4 *292:29 *292:33 15.6214 
5 *292:33 *292:45 39.2386 
6 *292:45 *292:57 41.9729 
7 *292:57 *1328:A1 23 
8 *292:45 *1274:B 23 
9 *292:33 *1275:B 23 
*END

*D_NET *293 0.00226956
*CONN
*I *1285:A2 I *D sky130_fd_sc_hd__o22ai_1
*I *1286:A2 I *D sky130_fd_sc_hd__a221o_1
*I *1515:A I *D sky130_fd_sc_hd__dlygate4sd3_1
*I *1406:Q O *D sky130_fd_sc_hd__dfrtp_1
*CAP
1 *1285:A2 0.000341745
2 *1286:A2 6.39928e-06
3 *1515:A 0
4 *1406:Q 0.000266832
5 *293:19 0.000516585
6 *293:10 0.000435273
7 *1328:A0 *293:10 5.67792e-05
8 *111:10 *293:10 5.50049e-05
9 *190:14 *1285:A2 0.000136486
10 *190:14 *1286:A2 1.46586e-05
11 *195:14 *1285:A2 4.39607e-05
12 *204:63 *1285:A2 7.20415e-05
13 *204:63 *293:10 7.8128e-05
14 *204:63 *293:19 8.57765e-05
15 *280:10 *1286:A2 1.46586e-05
16 *281:139 *293:10 0
17 *281:139 *293:19 0
18 *282:37 *1285:A2 0.000145231
*RES
1 *1406:Q *293:10 42.3086 
2 *293:10 *1515:A 38 
3 *293:10 *293:19 2.61 
4 *293:19 *1286:A2 38.1709 
5 *293:19 *1285:A2 43.7379 
*END

*D_NET *294 0.00288592
*CONN
*I *1558:A I *D sky130_fd_sc_hd__dlygate4sd3_1
*I *1283:B I *D sky130_fd_sc_hd__or2_1
*I *1284:B I *D sky130_fd_sc_hd__nand2_1
*I *1407:Q O *D sky130_fd_sc_hd__dfrtp_1
*CAP
1 *1558:A 0
2 *1283:B 0
3 *1284:B 0.000276891
4 *1407:Q 0
5 *294:34 0.00027551
6 *294:10 0.000789982
7 *294:4 0.000788601
8 *294:34 *1287:A2 0.000138727
9 *1284:A *1284:B 0
10 *1407:RESET_B *294:10 8.92557e-05
11 *112:10 *294:34 8.71819e-05
12 *176:26 *1284:B 0
13 *176:26 *294:10 0
14 *195:14 *1284:B 0
15 *195:14 *294:10 1.40533e-05
16 *195:14 *294:34 7.35632e-05
17 *198:20 *294:10 0
18 *198:44 *1284:B 1.01436e-05
19 *204:63 *294:34 0.000138727
20 *233:10 *1284:B 0
21 *262:119 *294:10 0
22 *281:23 *1284:B 0.000169665
23 *281:33 *1284:B 0
24 *282:37 *294:10 3.36232e-05
*RES
1 *1407:Q *294:4 23 
2 *294:4 *294:10 22.8507 
3 *294:10 *1284:B 43.4271 
4 *294:10 *1283:B 38 
5 *294:4 *294:34 34.9093 
6 *294:34 *1558:A 23 
*END

*D_NET *295 0.00458862
*CONN
*I *1287:A2 I *D sky130_fd_sc_hd__a211o_1
*I *1285:B1 I *D sky130_fd_sc_hd__o22ai_1
*I *1520:A I *D sky130_fd_sc_hd__dlygate4sd3_1
*I *1408:Q O *D sky130_fd_sc_hd__dfrtp_1
*CAP
1 *1287:A2 0.000559367
2 *1285:B1 0
3 *1520:A 0.000418449
4 *1408:Q 0.000103561
5 *295:23 0.000655262
6 *295:8 0.000617904
7 *1242:A *1287:A2 1.01436e-05
8 *1287:A1 *1287:A2 0.000193825
9 *70:16 *1287:A2 9.28842e-05
10 *70:27 *1287:A2 0.000310872
11 *73:12 *295:8 0.000135557
12 *111:10 *295:8 0.000137788
13 *113:10 *1520:A 0.000266265
14 *114:10 *1287:A2 4.9662e-05
15 *190:14 *1520:A 9.58714e-05
16 *190:26 *1520:A 0.000139357
17 *190:26 *295:23 0
18 *192:61 *1520:A 9.5877e-05
19 *192:70 *1520:A 0.000148524
20 *204:63 *1287:A2 5.97509e-05
21 *204:63 *295:8 2.3529e-05
22 *204:63 *295:23 6.68793e-05
23 *211:8 *295:8 0
24 *262:119 *1287:A2 0
25 *262:132 *295:8 7.75329e-06
26 *280:10 *1520:A 3.53115e-05
27 *291:12 *1287:A2 1.21972e-05
28 *292:45 *1520:A 0.000213304
29 *294:34 *1287:A2 0.000138727
*RES
1 *1408:Q *295:8 40.61 
2 *295:8 *1520:A 48.7921 
3 *295:8 *295:23 1.90571 
4 *295:23 *1285:B1 38 
5 *295:23 *1287:A2 49.9314 
*END

*D_NET *296 0.00406322
*CONN
*I *1551:A I *D sky130_fd_sc_hd__dlygate4sd3_1
*I *1299:A2 I *D sky130_fd_sc_hd__o221a_1
*I *1298:A2 I *D sky130_fd_sc_hd__a22o_1
*I *1436:Q O *D sky130_fd_sc_hd__dfrtp_1
*CAP
1 *1551:A 0.000284461
2 *1299:A2 0
3 *1298:A2 0.000159761
4 *1436:Q 0.000664927
5 *296:18 0.000233261
6 *296:16 0.000357961
7 *296:14 0.000664927
8 *1551:A *327:36 0
9 *1298:A1 *1298:A2 2.93747e-05
10 *1298:B1 *1298:A2 7.53384e-06
11 *1375:A1 *296:14 0.000143163
12 *1375:S *296:14 2.93335e-05
13 *1561:A *296:14 0.000358364
14 *37:10 *1551:A 0.000138708
15 *176:32 *1298:A2 0.000111158
16 *176:32 *1551:A 0.000290895
17 *176:32 *296:18 8.16149e-05
18 *179:19 *1551:A 0
19 *194:43 *1298:A2 0.000224345
20 *194:58 *1298:A2 1.14452e-05
21 *194:58 *296:14 5.3304e-05
22 *194:58 *296:18 0.000130424
23 *243:14 *296:14 8.82573e-05
24 *251:41 *1551:A 0
25 *251:41 *296:18 0
*RES
1 *1436:Q *296:14 36.5679 
2 *296:14 *296:16 15 
3 *296:16 *296:18 2.25786 
4 *296:18 *1298:A2 42.5571 
5 *296:18 *1299:A2 38 
6 *296:16 *1551:A 44.8979 
*END

*D_NET *297 0.000934116
*CONN
*I *1528:A I *D sky130_fd_sc_hd__dlygate4sd3_1
*I *1251:A I *D sky130_fd_sc_hd__inv_2
*I *1437:Q O *D sky130_fd_sc_hd__dfrtp_1
*CAP
1 *1528:A 4.93533e-05
2 *1251:A 0.000140169
3 *1437:Q 5.22387e-05
4 *297:8 0.000241761
5 *1298:B1 *1528:A 6.17437e-06
6 *1299:B1 *1251:A 5.25479e-05
7 *1299:B1 *297:8 0.000139713
8 *78:8 *1251:A 0.000114566
9 *251:41 *1251:A 1.00084e-05
10 *251:41 *297:8 0.000127585
*RES
1 *1437:Q *297:8 39.9057 
2 *297:8 *1251:A 40.9621 
3 *297:8 *1528:A 38.6214 
*END

*D_NET *298 0.00306934
*CONN
*I *1376:A1 I *D sky130_fd_sc_hd__mux2_1
*I *1297:B I *D sky130_fd_sc_hd__xnor2_1
*I *1549:A I *D sky130_fd_sc_hd__dlygate4sd3_1
*I *1438:Q O *D sky130_fd_sc_hd__dfrtp_1
*CAP
1 *1376:A1 0
2 *1297:B 0
3 *1549:A 9.13996e-05
4 *1438:Q 0.00012443
5 *298:29 0.000201221
6 *298:21 0.000477865
7 *298:10 0.000368044
8 *298:8 0.00012443
9 *298:29 *301:16 1.22803e-05
10 *1376:A0 *298:21 5.67058e-05
11 *3:21 *298:29 0.000220047
12 *39:10 *298:21 0.000224605
13 *39:10 *298:29 0.000138727
14 *109:12 *298:29 0.000398503
15 *193:74 *298:29 5.68527e-05
16 *194:21 *298:8 0.000191157
17 *260:8 *298:8 0
18 *262:36 *1549:A 0.000117402
19 *262:36 *298:21 0.000265666
*RES
1 *1438:Q *298:8 40.61 
2 *298:8 *298:10 15 
3 *298:10 *1549:A 25.0714 
4 *298:10 *298:21 6.33857 
5 *298:21 *298:29 37.0429 
6 *298:29 *1297:B 23 
7 *298:21 *1376:A1 23 
*END

*D_NET *299 0.00313351
*CONN
*I *1545:A I *D sky130_fd_sc_hd__dlygate4sd3_1
*I *1268:A2 I *D sky130_fd_sc_hd__a22oi_1
*I *1272:A2 I *D sky130_fd_sc_hd__o211a_1
*I *1433:Q O *D sky130_fd_sc_hd__dfrtp_1
*CAP
1 *1545:A 0.000207884
2 *1268:A2 0
3 *1272:A2 0
4 *1433:Q 0.000110898
5 *299:23 0.00022779
6 *299:16 0.000236443
7 *299:8 0.000367247
8 *1545:A *1371:A0 9.58714e-05
9 *299:8 *1268:B1 5.3304e-05
10 *1268:A1 *1545:A 0.000111711
11 *1268:A1 *299:8 1.24376e-05
12 *1268:A1 *299:23 5.95848e-05
13 *1268:B2 *299:8 5.50106e-05
14 *34:8 *1545:A 0.000145611
15 *95:8 *299:16 0.000458708
16 *189:61 *1545:A 9.3579e-05
17 *189:61 *299:8 5.79715e-05
18 *189:61 *299:23 2.639e-05
19 *190:81 *1545:A 0.000376468
20 *190:96 *299:16 0
21 *194:58 *299:8 2.97794e-05
22 *194:64 *299:16 0
23 *200:35 *299:16 9.70859e-05
24 *257:6 *1545:A 0.000309734
*RES
1 *1433:Q *299:8 25.5479 
2 *299:8 *299:16 36.6286 
3 *299:16 *1272:A2 23 
4 *299:8 *299:23 0.807857 
5 *299:23 *1268:A2 23 
6 *299:23 *1545:A 32.0107 
*END

*D_NET *300 0.0035649
*CONN
*I *1531:A I *D sky130_fd_sc_hd__dlygate4sd3_1
*I *1268:B1 I *D sky130_fd_sc_hd__a22oi_1
*I *1271:A2 I *D sky130_fd_sc_hd__o221a_1
*I *1434:Q O *D sky130_fd_sc_hd__dfrtp_1
*CAP
1 *1531:A 9.82954e-05
2 *1268:B1 2.32701e-05
3 *1271:A2 0.000196434
4 *1434:Q 0.000738921
5 *300:10 0.000540759
6 *300:8 0.00115827
7 *1446:RESET_B *1531:A 3.96053e-05
8 *1446:RESET_B *300:10 0.000136718
9 *95:8 *1271:A2 0.000188926
10 *95:8 *300:10 6.16531e-05
11 *98:10 *1271:A2 2.93845e-05
12 *189:61 *1271:A2 4.6318e-06
13 *189:61 *300:10 5.20202e-05
14 *189:63 *1271:A2 7.81176e-05
15 *189:73 *1271:A2 1.83667e-05
16 *194:58 *1268:B1 5.3304e-05
17 *194:64 *1531:A 0
18 *194:64 *300:10 0
19 *200:41 *1271:A2 7.44257e-05
20 *263:10 *300:8 1.84914e-05
21 *299:8 *1268:B1 5.3304e-05
*RES
1 *1434:Q *300:8 47.1971 
2 *300:8 *300:10 7.18786 
3 *300:10 *1271:A2 42.6607 
4 *300:10 *1268:B1 38.6214 
5 *300:8 *1531:A 39.9057 
*END

*D_NET *301 0.00499419
*CONN
*I *1539:A I *D sky130_fd_sc_hd__dlygate4sd3_1
*I *1373:A1 I *D sky130_fd_sc_hd__mux2_1
*I *1270:B I *D sky130_fd_sc_hd__nor2_1
*I *1269:B I *D sky130_fd_sc_hd__and2_1
*I *1435:Q O *D sky130_fd_sc_hd__dfrtp_1
*CAP
1 *1539:A 0.000222991
2 *1373:A1 0.000168097
3 *1270:B 0.000283244
4 *1269:B 4.26345e-05
5 *1435:Q 0
6 *301:16 0.000931487
7 *301:10 0.000998521
8 *301:4 0.000447807
9 *1271:B2 *1270:B 9.47033e-05
10 *1435:RESET_B *1539:A 4.93223e-05
11 *3:21 *1373:A1 0.000272383
12 *3:21 *301:16 0.000355029
13 *10:10 *301:10 5.21127e-05
14 *39:10 *301:16 6.38845e-05
15 *96:10 *1270:B 0.000166522
16 *124:10 *301:16 3.71198e-05
17 *126:10 *1270:B 0
18 *178:90 *301:10 0.000165593
19 *189:63 *1270:B 4.98718e-06
20 *189:73 *1269:B 5.3304e-05
21 *189:73 *1270:B 9.42216e-05
22 *189:73 *301:16 0.000212377
23 *190:100 *1269:B 9.58714e-05
24 *200:26 *301:16 0
25 *200:35 *301:16 0
26 *200:41 *1270:B 4.6318e-06
27 *246:10 *301:16 4.48568e-05
28 *250:10 *1539:A 5.50106e-05
29 *250:10 *301:10 1.22803e-05
30 *262:28 *301:10 4.06408e-05
31 *262:28 *301:16 0
32 *263:28 *1270:B 1.22803e-05
33 *281:33 *301:10 0
34 *298:29 *301:16 1.22803e-05
*RES
1 *1435:Q *301:4 23 
2 *301:4 *301:10 34.3707 
3 *301:10 *301:16 25.44 
4 *301:16 *1269:B 39.0979 
5 *301:16 *1270:B 44.2143 
6 *301:10 *1373:A1 26.0036 
7 *301:4 *1539:A 26.9771 
*END

*D_NET *302 0.00730235
*CONN
*I *1252:A I *D sky130_fd_sc_hd__inv_2
*I *1564:A I *D sky130_fd_sc_hd__dlygate4sd3_1
*I *1371:A0 I *D sky130_fd_sc_hd__mux2_1
*I *1303:B1 I *D sky130_fd_sc_hd__o2bb2a_1
*I *1430:Q O *D sky130_fd_sc_hd__dfrtp_1
*CAP
1 *1252:A 7.68809e-05
2 *1564:A 0
3 *1371:A0 3.28483e-05
4 *1303:B1 0.000299936
5 *1430:Q 0.000345343
6 *302:40 0.000912342
7 *302:32 0.00107668
8 *302:21 0.000176742
9 *302:8 0.000701715
10 *1303:B1 *304:25 0.000356724
11 *302:40 *1365:A1 5.50106e-05
12 *302:40 *1368:A0 1.76557e-05
13 *302:40 *305:16 0.000513284
14 *1430:RESET_B *302:8 4.70852e-05
15 *1545:A *1371:A0 9.58714e-05
16 *31:10 *302:40 4.27467e-05
17 *99:6 *1303:B1 2.43944e-05
18 *176:84 *302:40 0.000130667
19 *190:81 *1371:A0 9.58714e-05
20 *200:41 *302:8 9.84794e-05
21 *262:87 *1252:A 0.000246748
22 *262:87 *1303:B1 0.000303269
23 *262:87 *302:21 0.000108681
24 *262:87 *302:32 0.00021356
25 *276:6 *302:40 0.000482612
26 *281:98 *1252:A 0.000237525
27 *281:98 *1303:B1 0.000305491
28 *281:98 *302:21 9.85378e-05
29 *281:98 *302:32 0.000205648
*RES
1 *1430:Q *302:8 42.4329 
2 *302:8 *1303:B1 46.9279 
3 *302:8 *302:21 1.55357 
4 *302:21 *1371:A0 39.0979 
5 *302:21 *302:32 2.96214 
6 *302:32 *302:40 33.8914 
7 *302:40 *1564:A 23 
8 *302:32 *1252:A 41.3143 
*END

*D_NET *303 0.0013189
*CONN
*I *1526:A I *D sky130_fd_sc_hd__dlygate4sd3_1
*I *1302:B I *D sky130_fd_sc_hd__nor2_1
*I *1301:B I *D sky130_fd_sc_hd__and2_1
*I *1431:Q O *D sky130_fd_sc_hd__dfrtp_1
*CAP
1 *1526:A 5.98247e-05
2 *1302:B 2.53239e-05
3 *1301:B 0.000138633
4 *1431:Q 0
5 *303:10 0.0003121
6 *303:4 0.000207967
7 *1301:B *1512:A 0
8 *1372:A0 *1302:B 0.00014196
9 *1372:S *1302:B 0.00014196
10 *180:83 *1526:A 2.30292e-05
11 *180:83 *303:10 3.70553e-06
12 *194:74 *1301:B 0
13 *199:28 *1301:B 5.94125e-05
14 *200:64 *1301:B 1.14452e-05
15 *200:64 *303:10 0.000157309
16 *237:8 *303:10 0
17 *243:27 *1301:B 3.62323e-05
*RES
1 *1431:Q *303:4 23 
2 *303:4 *303:10 17.8793 
3 *303:10 *1301:B 40.61 
4 *303:10 *1302:B 39.5743 
5 *303:4 *1526:A 24.4707 
*END

*D_NET *304 0.00294679
*CONN
*I *1305:A2 I *D sky130_fd_sc_hd__o211a_1
*I *1303:A2_N I *D sky130_fd_sc_hd__o2bb2a_1
*I *1533:A I *D sky130_fd_sc_hd__dlygate4sd3_1
*I *1432:Q O *D sky130_fd_sc_hd__dfrtp_1
*CAP
1 *1305:A2 0
2 *1303:A2_N 0
3 *1533:A 0
4 *1432:Q 6.57339e-05
5 *304:42 0.000345059
6 *304:25 0.000616235
7 *304:10 0.000271176
8 *304:8 6.57339e-05
9 *304:42 *307:23 9.23705e-06
10 *1303:A1_N *304:25 0
11 *1303:A1_N *304:42 0.00029867
12 *1303:B1 *304:25 0.000356724
13 *1303:B2 *304:25 4.20001e-05
14 *1305:A1 *304:42 1.14154e-05
15 *1305:B1 *304:42 6.51005e-05
16 *70:65 *304:42 3.7122e-06
17 *99:6 *304:25 0.000215416
18 *99:6 *304:42 5.3304e-05
19 *180:20 *304:8 0.000166513
20 *188:42 *304:42 0.00011127
21 *190:58 *304:25 2.65879e-05
22 *190:58 *304:42 8.52546e-06
23 *249:14 *304:42 8.79039e-05
24 *262:87 *304:8 0.000126468
*RES
1 *1432:Q *304:8 40.2579 
2 *304:8 *304:10 15 
3 *304:10 *1533:A 23 
4 *304:10 *304:25 7.975 
5 *304:25 *1303:A2_N 23 
6 *304:25 *304:42 36.5043 
7 *304:42 *1305:A2 23 
*END

*D_NET *305 0.00418293
*CONN
*I *1368:A0 I *D sky130_fd_sc_hd__mux2_1
*I *1365:A1 I *D sky130_fd_sc_hd__mux2_1
*I *1257:A2 I *D sky130_fd_sc_hd__o22a_1
*I *1253:A I *D sky130_fd_sc_hd__inv_2
*I *1426:Q O *D sky130_fd_sc_hd__dfrtp_1
*CAP
1 *1368:A0 0.000116423
2 *1365:A1 0.000104192
3 *1257:A2 0
4 *1253:A 0.000117085
5 *1426:Q 0.000289327
6 *305:22 0.000192425
7 *305:16 0.000523404
8 *305:10 0.000749621
9 *305:16 *306:28 0.000175903
10 *305:22 *306:28 3.47781e-05
11 *1257:B2 *1253:A 1.56273e-05
12 *1261:B *305:16 5.3304e-05
13 *1365:A0 *1365:A1 5.67058e-05
14 *31:10 *1368:A0 9.58714e-05
15 *31:10 *305:10 0
16 *80:12 *1253:A 5.92396e-05
17 *176:84 *1365:A1 0.000136052
18 *186:25 *1365:A1 0.000228909
19 *186:25 *305:22 7.75329e-06
20 *188:42 *305:16 0
21 *188:59 *305:16 0
22 *189:30 *1253:A 8.72308e-05
23 *189:51 *1253:A 4.00259e-06
24 *190:142 *1365:A1 7.06771e-05
25 *190:142 *305:22 0.000113153
26 *204:86 *305:22 4.74706e-05
27 *276:6 *1368:A0 0.0002263
28 *281:113 *305:10 5.31444e-05
29 *281:113 *305:16 3.83778e-05
30 *302:40 *1365:A1 5.50106e-05
31 *302:40 *1368:A0 1.76557e-05
32 *302:40 *305:16 0.000513284
*RES
1 *1426:Q *305:10 42.0807 
2 *305:10 *305:16 22.0636 
3 *305:16 *305:22 31.9057 
4 *305:22 *1253:A 26.19 
5 *305:22 *1257:A2 23 
6 *305:16 *1365:A1 27.5986 
7 *305:10 *1368:A0 41.0036 
*END

*D_NET *306 0.0062891
*CONN
*I *1366:A1 I *D sky130_fd_sc_hd__mux2_1
*I *1369:A0 I *D sky130_fd_sc_hd__mux2_1
*I *1256:B I *D sky130_fd_sc_hd__nand2_1
*I *1257:B1 I *D sky130_fd_sc_hd__o22a_1
*I *1427:Q O *D sky130_fd_sc_hd__dfrtp_1
*CAP
1 *1366:A1 6.2975e-05
2 *1369:A0 0.000468936
3 *1256:B 0.000112313
4 *1257:B1 2.2552e-05
5 *1427:Q 0.000284728
6 *306:28 0.000476317
7 *306:14 0.000816522
8 *306:12 0.000805745
9 *306:8 0.000434068
10 *1366:A1 *330:12 9.41704e-05
11 *306:8 *330:12 9.58714e-05
12 *306:12 *330:18 0.000105072
13 *306:14 *330:18 9.63815e-05
14 *1257:B2 *1257:B1 1.24376e-05
15 *28:10 *306:28 0
16 *80:12 *1257:B1 5.50049e-05
17 *176:84 *306:28 0.000178849
18 *183:16 *1256:B 0
19 *183:16 *306:14 0
20 *183:16 *306:28 0
21 *183:22 *1256:B 9.41704e-05
22 *183:22 *306:28 5.36486e-05
23 *183:63 *1369:A0 2.64616e-05
24 *183:63 *306:12 0.000237534
25 *183:63 *306:14 6.25829e-05
26 *186:104 *1366:A1 4.07902e-05
27 *186:114 *306:12 3.70094e-05
28 *189:44 *1256:B 1.34406e-05
29 *189:44 *306:28 8.62783e-05
30 *189:61 *1257:B1 2.02872e-05
31 *194:89 *1369:A0 0.000931717
32 *204:86 *306:14 5.87582e-05
33 *204:86 *306:28 0.000293795
34 *305:16 *306:28 0.000175903
35 *305:22 *306:28 3.47781e-05
*RES
1 *1427:Q *306:8 28.4064 
2 *306:8 *306:12 18.3143 
3 *306:12 *306:14 5.42714 
4 *306:14 *306:28 39.4457 
5 *306:28 *1257:B1 38.6214 
6 *306:14 *1256:B 40.0714 
7 *306:12 *1369:A0 49.2686 
8 *306:8 *1366:A1 24.595 
*END

*D_NET *307 0.00189542
*CONN
*I *1259:B I *D sky130_fd_sc_hd__nor2_1
*I *1258:B I *D sky130_fd_sc_hd__and2_1
*I *1538:A I *D sky130_fd_sc_hd__dlygate4sd3_1
*I *1428:Q O *D sky130_fd_sc_hd__dfrtp_1
*CAP
1 *1259:B 3.79282e-05
2 *1258:B 0.000127589
3 *1538:A 3.7965e-05
4 *1428:Q 0.000147903
5 *307:23 0.000337791
6 *307:10 0.000358142
7 *1259:A *1258:B 0.000104172
8 *70:65 *1538:A 0.000139357
9 *104:14 *1258:B 2.02517e-05
10 *105:12 *307:10 2.3529e-05
11 *105:12 *307:23 7.20018e-05
12 *127:32 *307:10 3.52383e-05
13 *132:8 *307:10 8.62876e-05
14 *176:84 *307:23 0
15 *188:42 *307:23 5.58629e-05
16 *249:14 *1538:A 0.000139357
17 *249:14 *307:10 0.000138727
18 *249:14 *307:23 2.40851e-05
19 *304:42 *307:23 9.23705e-06
*RES
1 *1428:Q *307:10 41.0036 
2 *307:10 *1538:A 39.5743 
3 *307:10 *307:23 18.3143 
4 *307:23 *1258:B 26.045 
5 *307:23 *1259:B 23.6214 
*END

*D_NET *308 0.00393872
*CONN
*I *1362:A1 I *D sky130_fd_sc_hd__mux2_1
*I *1254:A I *D sky130_fd_sc_hd__inv_2
*I *1562:A I *D sky130_fd_sc_hd__dlygate4sd3_1
*I *1312:B1 I *D sky130_fd_sc_hd__o2bb2a_1
*I *1423:Q O *D sky130_fd_sc_hd__dfrtp_1
*CAP
1 *1362:A1 0.000244882
2 *1254:A 0.000343708
3 *1562:A 1.95379e-05
4 *1312:B1 0
5 *1423:Q 0
6 *308:22 0.00028188
7 *308:12 0.00044635
8 *308:8 0.000578758
9 *308:4 0.000334999
10 *1312:A1_N *308:22 5.50049e-05
11 *1362:S *1362:A1 1.73399e-05
12 *1365:A0 *308:22 0.000139357
13 *1422:CLK *308:22 4.34973e-05
14 *1425:RESET_B *308:22 0.000397725
15 *1473:A *1254:A 0
16 *1473:A *308:12 0
17 *1474:A *308:12 0
18 *142:12 *1254:A 0
19 *142:12 *308:12 0
20 *142:12 *308:22 8.57661e-05
21 *176:84 *1562:A 5.41385e-05
22 *176:84 *308:22 9.6103e-05
23 *183:96 *1254:A 0
24 *186:40 *1562:A 8.6949e-05
25 *186:40 *308:22 0.000313255
26 *187:131 *308:22 0.000139346
27 *189:24 *308:22 0.000216712
28 *195:52 *308:12 0
29 *202:61 *1254:A 4.3407e-05
*RES
1 *1423:Q *308:4 23 
2 *308:4 *308:8 16.0979 
3 *308:8 *308:12 17.2579 
4 *308:12 *308:22 40.4814 
5 *308:22 *1312:B1 23 
6 *308:12 *1562:A 24.0979 
7 *308:8 *1254:A 44.4836 
8 *308:4 *1362:A1 26.48 
*END

*D_NET *309 0.00367613
*CONN
*I *1363:A1 I *D sky130_fd_sc_hd__mux2_1
*I *1543:A I *D sky130_fd_sc_hd__dlygate4sd3_1
*I *1313:B I *D sky130_fd_sc_hd__nor2_1
*I *1314:B I *D sky130_fd_sc_hd__and2_1
*I *1424:Q O *D sky130_fd_sc_hd__dfrtp_1
*CAP
1 *1363:A1 0.000242237
2 *1543:A 0
3 *1313:B 1.96641e-05
4 *1314:B 0
5 *1424:Q 0.000128035
6 *309:42 0.000242237
7 *309:28 0.000219484
8 *309:14 0.000453932
9 *309:8 0.000342819
10 *1363:A1 *1389:A1 0.000270682
11 *1314:A *1313:B 0
12 *1363:S *1363:A1 2.93845e-05
13 *1480:A *1313:B 4.00259e-06
14 *1480:A *309:28 0.000138502
15 *81:10 *309:14 2.9938e-05
16 *81:10 *309:28 5.29672e-05
17 *140:10 *309:28 0
18 *183:96 *309:8 0
19 *183:96 *309:14 0
20 *186:100 *1363:A1 0.00036255
21 *186:104 *1363:A1 0.000103647
22 *194:89 *309:28 2.93747e-05
23 *194:102 *1313:B 0
24 *194:102 *309:14 0.00019866
25 *194:102 *309:28 0.000272383
26 *194:110 *1313:B 5.90675e-06
27 *220:14 *1363:A1 0.00052972
*RES
1 *1424:Q *309:8 39.9057 
2 *309:8 *309:14 19.5364 
3 *309:14 *309:28 35.7171 
4 *309:28 *1314:B 23 
5 *309:14 *1313:B 23.4971 
6 *309:8 *309:42 15 
7 *309:42 *1543:A 23 
8 *309:42 *1363:A1 33.15 
*END

*D_NET *310 0.00447948
*CONN
*I *1312:A2_N I *D sky130_fd_sc_hd__o2bb2a_1
*I *1524:A I *D sky130_fd_sc_hd__dlygate4sd3_1
*I *1316:A2 I *D sky130_fd_sc_hd__o211a_1
*I *1425:Q O *D sky130_fd_sc_hd__dfrtp_1
*CAP
1 *1312:A2_N 0.000466691
2 *1524:A 0
3 *1316:A2 9.14558e-05
4 *1425:Q 9.13662e-05
5 *310:31 0.000700114
6 *310:21 0.00129659
7 *310:8 0.000312603
8 *310:31 *1522:A 7.1349e-05
9 *310:31 *313:8 9.91895e-05
10 *1316:B1 *1316:A2 4.2023e-05
11 *1422:D *310:31 0.000177909
12 *1422:RESET_B *310:31 4.83818e-05
13 *27:8 *1312:A2_N 0
14 *94:14 *1316:A2 0.000236021
15 *142:12 *1312:A2_N 6.77978e-05
16 *142:12 *310:21 8.05936e-05
17 *187:131 *1312:A2_N 0.000522798
18 *187:131 *310:31 2.08557e-05
19 *189:24 *310:8 3.21223e-05
20 *189:24 *310:21 4.99753e-06
21 *195:52 *1312:A2_N 0
22 *195:52 *310:8 0
23 *195:52 *310:21 0
24 *236:8 *310:31 5.50106e-05
25 *236:22 *1316:A2 6.16164e-05
*RES
1 *1425:Q *310:8 39.5536 
2 *310:8 *1316:A2 41.0243 
3 *310:8 *310:21 2.61 
4 *310:21 *310:31 27.2421 
5 *310:31 *1524:A 23 
6 *310:21 *1312:A2_N 45.7679 
*END

*D_NET *311 0.00523374
*CONN
*I *1553:A I *D sky130_fd_sc_hd__dlygate4sd3_1
*I *1356:A1 I *D sky130_fd_sc_hd__mux2_1
*I *1290:A2 I *D sky130_fd_sc_hd__o221a_1
*I *1289:A2 I *D sky130_fd_sc_hd__a22o_1
*I *1420:Q O *D sky130_fd_sc_hd__dfrtp_1
*CAP
1 *1553:A 7.77566e-05
2 *1356:A1 0.000364301
3 *1290:A2 0.000173554
4 *1289:A2 3.6708e-05
5 *1420:Q 5.45426e-05
6 *311:18 0.000474647
7 *311:12 0.00104856
8 *311:8 0.000552173
9 *311:18 *313:14 3.92407e-05
10 *1364:S *311:18 2.16955e-05
11 *1474:A *311:18 0.000141052
12 *115:8 *1356:A1 0.000523716
13 *115:8 *311:18 0.000401106
14 *184:10 *311:12 6.16531e-05
15 *184:32 *311:12 0.000179712
16 *184:47 *311:12 0.000281183
17 *184:88 *1553:A 4.23817e-05
18 *184:88 *311:12 4.87081e-05
19 *186:59 *1290:A2 0.000178782
20 *186:59 *311:18 0.000167443
21 *190:155 *1289:A2 5.3304e-05
22 *190:155 *311:12 0
23 *192:134 *311:18 2.98648e-05
24 *202:28 *1290:A2 9.28842e-05
25 *202:28 *311:12 0
26 *202:28 *311:18 0.000123428
27 *202:95 *1553:A 4.06512e-05
28 *202:95 *311:12 2.46933e-05
29 *220:29 *311:12 0
*RES
1 *1420:Q *311:8 38.6214 
2 *311:8 *311:12 24.6529 
3 *311:12 *311:18 23.7 
4 *311:18 *1289:A2 38.6214 
5 *311:18 *1290:A2 41.2314 
6 *311:12 *1356:A1 30.2914 
7 *311:8 *1553:A 39.9057 
*END

*D_NET *312 0.00395593
*CONN
*I *1541:A I *D sky130_fd_sc_hd__dlygate4sd3_1
*I *1255:A I *D sky130_fd_sc_hd__inv_2
*I *1421:Q O *D sky130_fd_sc_hd__dfrtp_1
*CAP
1 *1541:A 0
2 *1255:A 0
3 *1421:Q 0
4 *312:29 0.000983357
5 *312:12 0.000701501
6 *312:4 0.00168486
7 *312:12 *331:16 0.000122952
8 *1421:CLK *312:29 0.000174996
9 *1421:RESET_B *312:29 5.41288e-05
10 *1424:RESET_B *312:12 0.000173452
11 *1449:RESET_B *312:12 4.4553e-05
12 *1449:RESET_B *312:29 1.61361e-05
13 *52:8 *312:12 0
14 *183:96 *312:12 0
15 *220:14 *312:12 0
*RES
1 *1421:Q *312:4 23 
2 *312:4 *312:12 42.2214 
3 *312:12 *1255:A 23 
4 *312:4 *312:29 43.6714 
5 *312:29 *1541:A 23 
*END

*D_NET *313 0.00170494
*CONN
*I *1522:A I *D sky130_fd_sc_hd__dlygate4sd3_1
*I *1288:B I *D sky130_fd_sc_hd__xor2_1
*I *1422:Q O *D sky130_fd_sc_hd__dfrtp_1
*CAP
1 *1522:A 0.000224997
2 *1288:B 0
3 *1422:Q 7.97145e-05
4 *313:14 0.000136279
5 *313:8 0.00044099
6 *1358:A1 *313:14 5.94125e-05
7 *1364:A0 *313:14 0.000128188
8 *1364:S *313:14 4.6318e-06
9 *1416:RESET_B *313:14 9.48381e-06
10 *1422:RESET_B *1522:A 0.000140259
11 *1422:RESET_B *313:8 0.000181125
12 *1474:A *313:14 0
13 *202:28 *313:14 4.21174e-05
14 *234:8 *1522:A 4.79641e-05
15 *310:31 *1522:A 7.1349e-05
16 *310:31 *313:8 9.91895e-05
17 *311:18 *313:14 3.92407e-05
*RES
1 *1422:Q *313:8 25.5479 
2 *313:8 *313:14 32.9621 
3 *313:14 *1288:B 23 
4 *313:8 *1522:A 28.3857 
*END

*D_NET *314 0.0053348
*CONN
*I *1535:A I *D sky130_fd_sc_hd__dlygate4sd3_1
*I *1262:A I *D sky130_fd_sc_hd__nand2_1
*I *1265:A1 I *D sky130_fd_sc_hd__o22a_1
*I *1414:Q O *D sky130_fd_sc_hd__dfrtp_1
*CAP
1 *1535:A 0.000709338
2 *1262:A 0.000148499
3 *1265:A1 8.93288e-05
4 *1414:Q 0.000225363
5 *314:14 0.000552363
6 *314:6 0.00124924
7 *1262:A *315:39 0.000141954
8 *1265:A1 *316:48 0
9 *314:14 *315:39 0
10 *1262:B *1262:A 0.000395779
11 *1262:B *1265:A1 2.32101e-05
12 *1262:B *314:14 1.73222e-05
13 *1267:A *1262:A 2.93845e-05
14 *1267:C *1262:A 2.07744e-05
15 *1291:B *314:14 0.000453325
16 *1291:C_N *314:14 0.000487434
17 *1414:RESET_B *1535:A 0.000546352
18 *94:14 *1262:A 1.03955e-05
19 *94:14 *1265:A1 6.18592e-05
20 *116:8 *314:6 6.18929e-05
21 *187:88 *314:14 4.49227e-05
22 *187:101 *314:14 0
23 *191:40 *1265:A1 2.93747e-05
24 *191:47 *1265:A1 2.65505e-05
25 *191:51 *314:14 1.01436e-05
*RES
1 *1414:Q *314:6 26.0036 
2 *314:6 *314:14 39.4457 
3 *314:14 *1265:A1 25.2164 
4 *314:14 *1262:A 27.93 
5 *314:6 *1535:A 33.5229 
*END

*D_NET *315 0.00470689
*CONN
*I *1396:A1 I *D sky130_fd_sc_hd__mux2_1
*I *1240:A I *D sky130_fd_sc_hd__inv_2
*I *1265:B1 I *D sky130_fd_sc_hd__o22a_1
*I *1357:A0 I *D sky130_fd_sc_hd__mux2_1
*I *1415:Q O *D sky130_fd_sc_hd__dfrtp_1
*CAP
1 *1396:A1 4.56652e-05
2 *1240:A 0
3 *1265:B1 0
4 *1357:A0 0
5 *1415:Q 0
6 *315:39 0.000235573
7 *315:29 0.000652988
8 *315:23 0.000879342
9 *315:14 0.000572932
10 *315:4 0.000989194
11 *315:23 *1510:A 7.03766e-05
12 *315:23 *332:16 0.000119737
13 *315:29 *332:16 0.000149452
14 *315:29 *332:33 9.19576e-05
15 *315:39 *332:33 2.4754e-05
16 *1262:A *315:39 0.000141954
17 *1291:C_N *315:39 2.76611e-06
18 *1357:A1 *315:14 0
19 *1357:S *315:14 0
20 *1421:RESET_B *315:14 0.000167443
21 *1421:RESET_B *315:23 0
22 *59:10 *315:23 0
23 *68:8 *315:39 5.50106e-05
24 *93:10 *315:39 0.000212217
25 *94:14 *315:39 8.1796e-05
26 *184:74 *315:23 0
27 *186:84 *1396:A1 9.84794e-05
28 *186:84 *315:29 0
29 *189:153 *315:39 0
30 *202:24 *315:29 6.6869e-05
31 *203:81 *315:23 0
32 *248:10 *315:29 4.83778e-05
33 *314:14 *315:39 0
*RES
1 *1415:Q *315:4 23 
2 *315:4 *315:14 39.2179 
3 *315:14 *1357:A0 23 
4 *315:4 *315:23 22.54 
5 *315:23 *315:29 24.2179 
6 *315:29 *315:39 35.9864 
7 *315:39 *1265:B1 23 
8 *315:29 *1240:A 23 
9 *315:23 *1396:A1 39.0979 
*END

*D_NET *316 0.00565783
*CONN
*I *1264:A I *D sky130_fd_sc_hd__nor2_1
*I *1263:A I *D sky130_fd_sc_hd__and2_1
*I *1358:A0 I *D sky130_fd_sc_hd__mux2_1
*I *1397:A1 I *D sky130_fd_sc_hd__mux2_1
*I *1416:Q O *D sky130_fd_sc_hd__dfrtp_1
*CAP
1 *1264:A 0.000149479
2 *1263:A 0
3 *1358:A0 0
4 *1397:A1 0
5 *1416:Q 0.000222066
6 *316:48 0.000287581
7 *316:38 0.00070594
8 *316:31 0.000268879
9 *316:24 0.000644047
10 *316:10 0.000866114
11 *1263:B *316:48 9.84851e-05
12 *1265:A1 *316:48 0
13 *1358:A1 *316:10 0.000166513
14 *1360:A1 *316:24 9.37421e-05
15 *1416:CLK *316:48 2.64616e-05
16 *1416:RESET_B *316:10 2.63269e-05
17 *1416:RESET_B *316:48 0
18 *1457:CLK *316:24 0.000105799
19 *21:10 *1264:A 1.22822e-05
20 *21:10 *316:38 0.000146619
21 *60:10 *316:24 0.000184527
22 *69:18 *316:24 2.18409e-05
23 *94:14 *316:10 0.00014981
24 *94:14 *316:48 0.000430638
25 *182:20 *316:24 0
26 *182:26 *316:24 0.000112619
27 *184:16 *1264:A 7.15126e-05
28 *184:16 *316:48 0.000136486
29 *187:27 *316:24 0
30 *187:52 *316:38 8.81405e-05
31 *187:131 *316:10 0
32 *187:131 *316:24 0
33 *191:40 *316:10 9.16362e-05
34 *191:40 *316:48 9.25972e-05
35 *236:22 *316:10 0.000228001
36 *242:10 *316:24 9.03295e-05
37 *273:10 *316:24 0
38 *273:31 *316:24 0.000139352
*RES
1 *1416:Q *316:10 45.0429 
2 *316:10 *316:24 28.485 
3 *316:24 *1397:A1 23 
4 *316:10 *316:31 15 
5 *316:31 *1358:A0 23 
6 *316:31 *316:38 5.86214 
7 *316:38 *316:48 37.3121 
8 *316:48 *1263:A 23 
9 *316:38 *1264:A 25.5479 
*END

*D_NET *317 0.00319981
*CONN
*I *1548:A I *D sky130_fd_sc_hd__dlygate4sd3_1
*I *1306:B I *D sky130_fd_sc_hd__or2_1
*I *1309:A2 I *D sky130_fd_sc_hd__a22o_1
*I *1455:Q O *D sky130_fd_sc_hd__dfrtp_1
*CAP
1 *1548:A 0.00019177
2 *1306:B 0.000180019
3 *1309:A2 0.000720774
4 *1455:Q 0
5 *317:23 0.000413513
6 *317:4 0.000762497
7 *1306:B *333:19 6.07611e-06
8 *1309:A2 *318:18 9.34419e-05
9 *1455:RESET_B *1309:A2 0.000137039
10 *1455:RESET_B *317:23 4.17736e-05
11 *184:16 *1309:A2 0.000182832
12 *187:64 *1309:A2 0.000140259
13 *203:50 *1306:B 0.000137143
14 *203:60 *1306:B 1.12487e-05
15 *203:60 *1548:A 0.000181422
*RES
1 *1455:Q *317:4 23 
2 *317:4 *1309:A2 35.3871 
3 *317:4 *317:23 15.6214 
4 *317:23 *1306:B 42.0186 
5 *317:23 *1548:A 42.7229 
*END

*D_NET *318 0.00684115
*CONN
*I *1563:A I *D sky130_fd_sc_hd__dlygate4sd3_1
*I *1309:B1 I *D sky130_fd_sc_hd__a22o_1
*I *1310:A2 I *D sky130_fd_sc_hd__o221a_1
*I *1404:A1 I *D sky130_fd_sc_hd__mux2_1
*I *1456:Q O *D sky130_fd_sc_hd__dfrtp_1
*CAP
1 *1563:A 7.84377e-05
2 *1309:B1 2.27923e-05
3 *1310:A2 6.10069e-05
4 *1404:A1 0.000159061
5 *1456:Q 0.000104045
6 *318:22 0.000411839
7 *318:20 0.000214564
8 *318:18 0.00148845
9 *318:8 0.00167094
10 *1310:A2 *1308:B 0
11 *1310:A2 *1310:C1 0
12 *1309:A2 *318:18 9.34419e-05
13 *1309:B2 *1404:A1 1.44546e-05
14 *1309:B2 *318:22 0.000103225
15 *1310:B1 *1404:A1 0.000220618
16 *1310:B2 *1310:A2 1.94693e-05
17 *1455:RESET_B *318:18 7.31639e-05
18 *69:29 *1404:A1 6.11327e-05
19 *136:10 *318:18 0.000180218
20 *184:16 *318:18 0.000245202
21 *187:52 *1309:B1 5.15096e-05
22 *187:52 *318:22 1.01436e-05
23 *189:153 *1404:A1 1.22803e-05
24 *189:153 *318:22 0.000112834
25 *191:59 *1309:B1 6.16531e-05
26 *191:59 *318:22 0.000110913
27 *203:50 *318:18 0.000118174
28 *203:60 *318:18 0.000845633
29 *203:81 *1563:A 9.84794e-05
30 *203:81 *318:8 0
31 *203:81 *318:18 0.00019747
*RES
1 *1456:Q *318:8 39.9057 
2 *318:8 *318:18 44.8907 
3 *318:18 *318:20 15 
4 *318:20 *318:22 4.72286 
5 *318:22 *1404:A1 41.3143 
6 *318:22 *1310:A2 39.1186 
7 *318:20 *1309:B1 38.8493 
8 *318:8 *1563:A 39.5743 
*END

*D_NET *319 0.0020511
*CONN
*I *1308:B I *D sky130_fd_sc_hd__and2_1
*I *1529:A I *D sky130_fd_sc_hd__dlygate4sd3_1
*I *1307:B I *D sky130_fd_sc_hd__nor2_1
*I *1457:Q O *D sky130_fd_sc_hd__dfrtp_1
*CAP
1 *1308:B 0.000169614
2 *1529:A 2.53239e-05
3 *1307:B 0.000264833
4 *1457:Q 0
5 *319:8 0.000411063
6 *319:4 0.000290521
7 *1307:B *321:14 0.000268868
8 *1310:A2 *1308:B 0
9 *1360:A1 *1529:A 0.00014196
10 *1404:S *1529:A 0.00014196
11 *1457:RESET_B *1308:B 0
12 *176:73 *1307:B 3.41998e-06
13 *182:8 *1307:B 9.4713e-05
14 *192:106 *1307:B 0
15 *193:127 *1308:B 4.65917e-05
16 *194:120 *319:8 3.60507e-05
17 *273:42 *1307:B 8.51374e-05
18 *273:42 *319:8 9.18156e-06
19 *273:126 *319:8 6.18676e-05
*RES
1 *1457:Q *319:4 23 
2 *319:4 *319:8 17.2579 
3 *319:8 *1307:B 43.6136 
4 *319:8 *1529:A 39.5743 
5 *319:4 *1308:B 26.3971 
*END

*D_NET *320 0.00445486
*CONN
*I *1555:A I *D sky130_fd_sc_hd__dlygate4sd3_1
*I *1243:A I *D sky130_fd_sc_hd__inv_2
*I *1462:Q O *D sky130_fd_sc_hd__dfrtp_1
*CAP
1 *1555:A 0
2 *1243:A 0
3 *1462:Q 4.49441e-05
4 *320:37 0.00081098
5 *320:20 0.000467539
6 *320:8 0.00132346
7 *320:20 *334:8 0.000634588
8 *1359:S *320:20 0.000226306
9 *1417:D *320:37 0.000105934
10 *1462:RESET_B *320:8 7.46212e-05
11 *1462:RESET_B *320:20 9.5053e-05
12 *1464:RESET_B *320:20 0
13 *66:10 *320:20 5.67058e-05
14 *176:73 *320:20 0.000161985
15 *182:76 *320:20 0
16 *182:76 *320:37 0.000166686
17 *182:89 *320:37 0.000128723
18 *201:32 *320:37 2.42954e-05
19 *267:10 *320:37 4.79641e-05
20 *267:22 *320:20 4.51908e-05
21 *290:63 *320:20 3.98859e-05
*RES
1 *1462:Q *320:8 39.0254 
2 *320:8 *320:20 28.3504 
3 *320:20 *1243:A 23 
4 *320:8 *320:37 29.4689 
5 *320:37 *1555:A 23 
*END

*D_NET *321 0.00564065
*CONN
*I *1557:A I *D sky130_fd_sc_hd__dlygate4sd3_1
*I *1293:B1 I *D sky130_fd_sc_hd__a22o_1
*I *1294:B1 I *D sky130_fd_sc_hd__o221a_1
*I *1463:Q O *D sky130_fd_sc_hd__dfrtp_1
*CAP
1 *1557:A 0
2 *1293:B1 3.34687e-05
3 *1294:B1 0.000228172
4 *1463:Q 0.000221441
5 *321:44 0.000719313
6 *321:14 0.000498703
7 *321:10 0.00117782
8 *321:10 *322:12 9.84794e-05
9 *1294:A2 *1294:B1 0.000129909
10 *1307:B *321:14 0.000268868
11 *1310:B1 *321:44 0
12 *1360:A1 *321:44 0.000314157
13 *1404:S *321:44 0.000185434
14 *1463:RESET_B *321:10 1.94432e-05
15 *1559:A *321:44 2.93845e-05
16 *71:16 *1293:B1 9.72057e-06
17 *71:16 *1294:B1 6.8722e-05
18 *121:10 *1294:B1 0.000100966
19 *134:8 *321:14 0.000525411
20 *176:73 *321:10 0
21 *176:73 *321:44 0
22 *182:8 *321:14 9.69279e-05
23 *182:68 *321:10 0
24 *189:18 *1294:B1 0
25 *192:106 *321:44 0.000171447
26 *203:22 *321:10 2.68674e-06
27 *269:6 *321:44 0.000740181
*RES
1 *1463:Q *321:10 42.1843 
2 *321:10 *321:14 22.7679 
3 *321:14 *1294:B1 28.5929 
4 *321:14 *1293:B1 24.1186 
5 *321:10 *321:44 32.4 
6 *321:44 *1557:A 23 
*END

*D_NET *322 0.00186115
*CONN
*I *1532:A I *D sky130_fd_sc_hd__dlygate4sd3_1
*I *1292:B I *D sky130_fd_sc_hd__xor2_1
*I *1464:Q O *D sky130_fd_sc_hd__dfrtp_1
*CAP
1 *1532:A 0
2 *1292:B 0.000315887
3 *1464:Q 0.000284292
4 *322:12 0.000359498
5 *322:8 0.000327904
6 *1463:RESET_B *322:12 1.24376e-05
7 *1464:RESET_B *1292:B 5.3304e-05
8 *1464:RESET_B *322:8 0
9 *1464:RESET_B *322:12 0.000127821
10 *176:73 *322:8 5.0135e-05
11 *192:81 *1292:B 3.64385e-05
12 *244:10 *1292:B 2.93747e-05
13 *290:63 *322:8 0.000165583
14 *321:10 *322:12 9.84794e-05
*RES
1 *1464:Q *322:8 42.7229 
2 *322:8 *322:12 16.5743 
3 *322:12 *1292:B 28.4064 
4 *322:12 *1532:A 23 
*END

*D_NET *323 0.00335175
*CONN
*I *1547:A I *D sky130_fd_sc_hd__dlygate4sd3_1
*I *1281:C1 I *D sky130_fd_sc_hd__o221a_1
*I *1443:Q O *D sky130_fd_sc_hd__dfrtp_1
*CAP
1 *1547:A 0.000335639
2 *1281:C1 0
3 *1443:Q 0
4 *323:10 0.000574371
5 *323:6 0.00091001
6 *1547:A *326:18 9.35752e-05
7 *323:10 *326:18 0.000129279
8 *1377:S *323:10 0.000188926
9 *1380:S *323:10 0.000222104
10 *1443:RESET_B *1547:A 0.000111148
11 *1444:RESET_B *1547:A 0.000444576
12 *1561:A *323:10 0.000230273
13 *77:10 *323:10 0
14 *199:62 *323:10 0
15 *199:64 *323:10 0
16 *218:19 *323:10 0.000111852
17 *272:20 *323:10 0
*RES
1 *1443:Q *323:6 38 
2 *323:6 *323:10 28.1743 
3 *323:10 *1281:C1 23 
4 *323:6 *1547:A 46.5757 
*END

*D_NET *324 0.00426788
*CONN
*I *1276:C1 I *D sky130_fd_sc_hd__o221a_1
*I *1505:A I *D sky130_fd_sc_hd__dlygate4sd3_1
*I *1394:A1 I *D sky130_fd_sc_hd__mux2_1
*I *1453:Q O *D sky130_fd_sc_hd__dfrtp_1
*CAP
1 *1276:C1 0.000302887
2 *1505:A 0.000178016
3 *1394:A1 0.000568405
4 *1453:Q 5.87223e-05
5 *324:19 0.00069254
6 *324:6 0.000838765
7 *1273:A2_N *1276:C1 6.7177e-06
8 *1276:A1 *1276:C1 6.17437e-06
9 *1276:A2 *1276:C1 1.58805e-05
10 *1276:B1 *1276:C1 0.000200361
11 *1326:A1 *1276:C1 6.42902e-05
12 *1326:A1 *1394:A1 0.00011775
13 *1326:A1 *324:19 0.00011607
14 *1394:A0 *1394:A1 4.38084e-05
15 *1394:S *1394:A1 0.000121021
16 *13:10 *1394:A1 0.000140259
17 *13:10 *324:6 9.84851e-05
18 *13:10 *324:19 7.02794e-05
19 *73:6 *1505:A 9.13962e-05
20 *176:60 *1276:C1 0.000156389
21 *201:78 *1276:C1 0
22 *201:78 *324:19 0
23 *212:8 *324:19 1.34354e-05
24 *226:10 *1276:C1 5.3304e-05
25 *290:22 *1276:C1 2.54046e-05
26 *290:22 *1505:A 0.000151601
27 *290:28 *1276:C1 9.67842e-05
28 *292:57 *1276:C1 3.91386e-05
*RES
1 *1453:Q *324:6 24.0979 
2 *324:6 *1394:A1 31.6171 
3 *324:6 *324:19 19.0186 
4 *324:19 *1505:A 42.4329 
5 *324:19 *1276:C1 46.1614 
*END

*D_NET *325 0.00157911
*CONN
*I *1245:A I *D sky130_fd_sc_hd__inv_2
*I *1569:A I *D sky130_fd_sc_hd__dlygate4sd3_1
*I *1454:Q O *D sky130_fd_sc_hd__dfrtp_1
*CAP
1 *1245:A 0
2 *1569:A 0
3 *1454:Q 0.00012193
4 *325:19 0.000352154
5 *325:6 0.000474084
6 *13:10 *325:19 3.19093e-05
7 *181:12 *325:19 0
8 *201:62 *325:19 2.11066e-05
9 *201:78 *325:19 0.000161888
10 *212:8 *325:19 0
11 *273:62 *325:6 0.000361027
12 *273:62 *325:19 5.50049e-05
*RES
1 *1454:Q *325:6 26.9564 
2 *325:6 *1569:A 23 
3 *325:6 *325:19 36.0486 
4 *325:19 *1245:A 23 
*END

*D_NET *326 0.00391846
*CONN
*I *1507:A I *D sky130_fd_sc_hd__dlygate4sd3_1
*I *1299:C1 I *D sky130_fd_sc_hd__o221a_1
*I *1444:Q O *D sky130_fd_sc_hd__dfrtp_1
*CAP
1 *1507:A 0.000315666
2 *1299:C1 0
3 *1444:Q 0
4 *326:18 0.00119844
5 *326:6 0.0015141
6 *1299:B1 *326:18 2.53879e-05
7 *1437:CLK *326:18 0
8 *1437:D *326:18 2.93747e-05
9 *1437:RESET_B *326:18 9.3307e-05
10 *1443:RESET_B *326:18 0
11 *1547:A *326:18 9.35752e-05
12 *1561:A *326:18 7.91493e-05
13 *179:29 *1507:A 9.21347e-06
14 *179:29 *326:18 7.4564e-05
15 *199:100 *326:18 0
16 *210:25 *1507:A 0
17 *219:8 *1507:A 6.28695e-05
18 *219:27 *1507:A 5.56203e-05
19 *219:27 *326:18 1.83667e-05
20 *263:28 *326:18 7.82476e-05
21 *272:8 *326:18 8.62876e-05
22 *272:12 *326:18 5.50106e-05
23 *323:10 *326:18 0.000129279
*RES
1 *1444:Q *326:6 38 
2 *326:6 *326:18 37.4543 
3 *326:18 *1299:C1 23 
4 *326:6 *1507:A 44.2971 
*END

*D_NET *327 0.00411158
*CONN
*I *1271:C1 I *D sky130_fd_sc_hd__o221a_1
*I *1386:A1 I *D sky130_fd_sc_hd__mux2_1
*I *1518:A I *D sky130_fd_sc_hd__dlygate4sd3_1
*I *1445:Q O *D sky130_fd_sc_hd__dfrtp_1
*CAP
1 *1271:C1 0
2 *1386:A1 0.000272263
3 *1518:A 0
4 *1445:Q 0.000183919
5 *327:36 0.000804472
6 *327:10 0.00041549
7 *327:6 0.00113162
8 *1270:A *327:36 4.21594e-06
9 *1386:A0 *1386:A1 5.67058e-05
10 *1446:CLK *327:6 3.22879e-05
11 *1446:RESET_B *327:36 0
12 *1551:A *327:36 0
13 *176:32 *327:36 0
14 *225:10 *1386:A1 0.00015822
15 *225:10 *327:10 0.000199701
16 *230:10 *327:10 0
17 *243:14 *327:36 0.00017679
18 *251:126 *1386:A1 0.000120867
19 *263:10 *327:36 0.000151907
20 *263:28 *327:36 0.000403127
*RES
1 *1445:Q *327:6 25.5271 
2 *327:6 *327:10 18.6664 
3 *327:10 *1518:A 38 
4 *327:10 *1386:A1 43.2614 
5 *327:6 *327:36 46.1779 
6 *327:36 *1271:C1 23 
*END

*D_NET *328 0.00213183
*CONN
*I *1512:A I *D sky130_fd_sc_hd__dlygate4sd3_1
*I *1304:C1 I *D sky130_fd_sc_hd__o221a_1
*I *1446:Q O *D sky130_fd_sc_hd__dfrtp_1
*CAP
1 *1512:A 0.000390847
2 *1304:C1 0.000247506
3 *1446:Q 0
4 *328:6 0.000638353
5 *1301:B *1512:A 0
6 *1304:B1 *1304:C1 3.81946e-05
7 *1387:A1 *1512:A 9.84851e-05
8 *1446:RESET_B *1304:C1 0
9 *1446:RESET_B *1512:A 0
10 *1447:RESET_B *1512:A 0
11 *35:8 *1512:A 8.62783e-05
12 *194:64 *1304:C1 5.3304e-05
13 *194:74 *1304:C1 4.5707e-05
14 *199:28 *1304:C1 0.000182826
15 *199:30 *1304:C1 7.79459e-05
16 *200:64 *1512:A 0
17 *243:27 *1304:C1 0.000272383
18 *243:27 *1512:A 0
*RES
1 *1446:Q *328:6 38 
2 *328:6 *1304:C1 45.4364 
3 *328:6 *1512:A 45.5814 
*END

*D_NET *329 0.0032492
*CONN
*I *1517:A I *D sky130_fd_sc_hd__dlygate4sd3_1
*I *1260:C1 I *D sky130_fd_sc_hd__o221a_1
*I *1447:Q O *D sky130_fd_sc_hd__dfrtp_1
*CAP
1 *1517:A 4.01155e-05
2 *1260:C1 0.000126337
3 *1447:Q 5.45698e-05
4 *329:12 0.00106955
5 *329:6 0.0010379
6 *1426:RESET_B *329:12 0.000296947
7 *1427:RESET_B *329:12 0
8 *1447:CLK *329:12 0
9 *34:8 *1260:C1 5.12254e-05
10 *131:12 *329:12 0.000301997
11 *180:10 *329:12 0
12 *180:47 *329:12 0
13 *180:64 *329:12 0
14 *188:59 *329:12 0
15 *189:61 *1260:C1 4.75206e-05
16 *228:14 *329:12 0.000223034
17 *238:10 *329:12 0
18 *262:95 *329:12 0
*RES
1 *1447:Q *329:6 23.6214 
2 *329:6 *329:12 49.1607 
3 *329:12 *1260:C1 25.5271 
4 *329:6 *1517:A 23.8493 
*END

*D_NET *330 0.00445519
*CONN
*I *1389:A1 I *D sky130_fd_sc_hd__mux2_1
*I *1519:A I *D sky130_fd_sc_hd__dlygate4sd3_1
*I *1315:C1 I *D sky130_fd_sc_hd__o221a_1
*I *1448:Q O *D sky130_fd_sc_hd__dfrtp_1
*CAP
1 *1389:A1 0.000343712
2 *1519:A 0
3 *1315:C1 0
4 *1448:Q 6.90544e-05
5 *330:35 0.000464616
6 *330:25 0.000882556
7 *330:18 0.000251643
8 *330:12 0.000453323
9 *330:8 0.000196507
10 *1363:A1 *1389:A1 0.000270682
11 *1366:A0 *1389:A1 0.000260847
12 *1366:A0 *330:25 0.00010018
13 *1366:A1 *330:12 9.41704e-05
14 *29:10 *1389:A1 0.000187129
15 *29:10 *330:35 0
16 *140:10 *330:18 0.000276775
17 *183:63 *330:8 0.000114092
18 *186:104 *1389:A1 0.000116318
19 *186:104 *330:25 1.03955e-05
20 *186:114 *330:18 6.16439e-05
21 *186:114 *330:35 0
22 *231:8 *330:35 0
23 *256:10 *330:35 4.21594e-06
24 *306:8 *330:12 9.58714e-05
25 *306:12 *330:18 0.000105072
26 *306:14 *330:18 9.63815e-05
*RES
1 *1448:Q *330:8 39.5536 
2 *330:8 *330:12 17.0507 
3 *330:12 *330:18 36.1314 
4 *330:18 *1315:C1 23 
5 *330:12 *330:25 1.57429 
6 *330:25 *330:35 38.6586 
7 *330:35 *1519:A 23 
8 *330:25 *1389:A1 32.1971 
*END

*D_NET *331 0.003187
*CONN
*I *1508:A I *D sky130_fd_sc_hd__dlygate4sd3_1
*I *1290:C1 I *D sky130_fd_sc_hd__o221a_1
*I *1449:Q O *D sky130_fd_sc_hd__dfrtp_1
*CAP
1 *1508:A 0
2 *1290:C1 0
3 *1449:Q 3.18133e-05
4 *331:27 0.000171628
5 *331:16 0.000615481
6 *331:6 0.000818923
7 *1424:RESET_B *331:16 6.43031e-05
8 *1449:RESET_B *331:6 5.50106e-05
9 *1449:RESET_B *331:16 9.18637e-05
10 *26:8 *331:27 0.000133645
11 *186:40 *331:16 0
12 *186:59 *331:16 5.94125e-05
13 *186:98 *331:16 0.000548962
14 *220:14 *331:16 0.000111852
15 *220:14 *331:27 0
16 *220:29 *331:16 0
17 *265:14 *331:16 0.00036115
18 *312:12 *331:16 0.000122952
*RES
1 *1449:Q *331:6 23.6214 
2 *331:6 *331:16 44.3343 
3 *331:16 *1290:C1 23 
4 *331:6 *331:27 33.6664 
5 *331:27 *1508:A 23 
*END

*D_NET *332 0.00574012
*CONN
*I *1510:A I *D sky130_fd_sc_hd__dlygate4sd3_1
*I *1391:A1 I *D sky130_fd_sc_hd__mux2_1
*I *1266:C1 I *D sky130_fd_sc_hd__o221a_1
*I *1450:Q O *D sky130_fd_sc_hd__dfrtp_1
*CAP
1 *1510:A 5.64836e-05
2 *1391:A1 0
3 *1266:C1 0.000580123
4 *1450:Q 8.14669e-05
5 *332:33 0.000676413
6 *332:16 0.00179227
7 *332:8 0.000673679
8 *1266:A2 *1266:C1 0.000140259
9 *1291:C_N *332:16 0.000165643
10 *1421:RESET_B *1510:A 6.67764e-05
11 *1421:RESET_B *332:16 3.3123e-05
12 *1450:RESET_B *332:8 5.74886e-05
13 *58:8 *332:33 0.000322892
14 *68:8 *1266:C1 0.000434942
15 *68:8 *332:33 4.34745e-05
16 *93:10 *332:33 7.75329e-06
17 *118:8 *1266:C1 1.23374e-05
18 *186:84 *332:33 0
19 *202:24 *332:16 0.000138718
20 *222:8 *332:16 0
21 *259:21 *332:33 0
22 *315:23 *1510:A 7.03766e-05
23 *315:23 *332:16 0.000119737
24 *315:29 *332:16 0.000149452
25 *315:29 *332:33 9.19576e-05
26 *315:39 *332:33 2.4754e-05
*RES
1 *1450:Q *332:8 39.0979 
2 *332:8 *332:16 27.18 
3 *332:16 *1266:C1 31.6171 
4 *332:16 *332:33 41.3514 
5 *332:33 *1391:A1 23 
6 *332:8 *1510:A 39.9057 
*END

*D_NET *333 0.00204376
*CONN
*I *1571:A I *D sky130_fd_sc_hd__dlygate4sd3_1
*I *1310:C1 I *D sky130_fd_sc_hd__o221a_1
*I *1451:Q O *D sky130_fd_sc_hd__dfrtp_1
*CAP
1 *1571:A 0
2 *1310:C1 0.000852761
3 *1451:Q 0
4 *333:19 8.9884e-05
5 *333:4 0.000942645
6 *1306:B *333:19 6.07611e-06
7 *1310:A2 *1310:C1 0
8 *1451:CLK *1310:C1 1.59094e-05
9 *203:50 *333:19 0
10 *214:19 *333:19 0.000136486
*RES
1 *1451:Q *333:4 23 
2 *333:4 *1310:C1 33.9993 
3 *333:4 *333:19 31.9057 
4 *333:19 *1571:A 23 
*END

*D_NET *334 0.00761961
*CONN
*I *1511:A I *D sky130_fd_sc_hd__dlygate4sd3_1
*I *1294:C1 I *D sky130_fd_sc_hd__o221a_1
*I *1393:A1 I *D sky130_fd_sc_hd__mux2_1
*I *1452:Q O *D sky130_fd_sc_hd__dfrtp_1
*CAP
1 *1511:A 0
2 *1294:C1 0.000309518
3 *1393:A1 0.000162203
4 *1452:Q 0
5 *334:38 0.000411369
6 *334:8 0.00209283
7 *334:4 0.00203248
8 *1239:A *1294:C1 0
9 *1393:A0 *1393:A1 3.22879e-05
10 *1419:CLK *1393:A1 4.6318e-06
11 *1506:A *334:8 5.12254e-05
12 *1573:A *334:38 0
13 *22:8 *334:8 0.000625767
14 *22:8 *334:38 0.000317553
15 *56:8 *1294:C1 2.70366e-05
16 *56:8 *1393:A1 4.334e-05
17 *66:10 *334:8 0.00014196
18 *120:8 *1294:C1 0.000113153
19 *121:10 *1294:C1 3.72639e-05
20 *122:14 *1294:C1 0
21 *176:73 *334:8 3.22118e-05
22 *182:26 *1294:C1 0.000138631
23 *182:26 *1393:A1 5.97612e-05
24 *189:12 *1294:C1 1.19796e-05
25 *196:8 *334:38 0
26 *203:10 *334:38 0
27 *267:22 *334:8 2.81406e-06
28 *273:50 *1393:A1 0.000100488
29 *290:22 *1393:A1 0.000236513
30 *292:29 *1294:C1 0
31 *292:29 *1393:A1 0
32 *320:20 *334:8 0.000634588
*RES
1 *1452:Q *334:4 23 
2 *334:4 *334:8 39.9193 
3 *334:8 *1393:A1 43.3857 
4 *334:8 *1294:C1 44.8357 
5 *334:4 *334:38 38.2443 
6 *334:38 *1511:A 23 
*END

*D_NET *335 0.00082853
*CONN
*I *1503:A I *D sky130_fd_sc_hd__dlygate4sd3_1
*I *1429:Q O *D sky130_fd_sc_hd__dfrtp_1
*CAP
1 *1503:A 0
2 *1429:Q 0.000228879
3 *335:10 0.000228879
4 *1429:RESET_B *335:10 0.000228903
5 *193:21 *335:10 0.000141869
*RES
1 *1429:Q *335:10 42.4329 
2 *335:10 *1503:A 38 
*END

*D_NET *336 0.000483467
*CONN
*I *1514:A I *D sky130_fd_sc_hd__dlygate4sd3_1
*I *1439:Q O *D sky130_fd_sc_hd__dfrtp_1
*CAP
1 *1514:A 0.000105995
2 *1439:Q 0.000105995
3 *197:51 *1514:A 0.000271476
*RES
1 *1439:Q *1514:A 49.0036 
*END

*D_NET *337 0.000684761
*CONN
*I *1525:A I *D sky130_fd_sc_hd__dlygate4sd3_1
*I *1458:Q O *D sky130_fd_sc_hd__dfrtp_1
*CAP
1 *1525:A 3.20607e-05
2 *1458:Q 0.000164638
3 *337:12 0.000196699
4 *197:51 *1525:A 5.3304e-05
5 *198:32 *337:12 4.48671e-05
6 *281:33 *337:12 0.000136486
7 *282:37 *337:12 5.67058e-05
*RES
1 *1458:Q *337:12 41.1486 
2 *337:12 *1525:A 38.6214 
*END

*D_NET *338 0.00133048
*CONN
*I *1325:A I *D sky130_fd_sc_hd__and4_1
*I *1465:Q O *D sky130_fd_sc_hd__dfrtp_1
*CAP
1 *1325:A 0
2 *1465:Q 0.00026148
3 *338:6 0.00026148
4 *192:8 *338:6 5.50106e-05
5 *192:53 *338:6 0.000141052
6 *204:35 *338:6 4.2573e-05
7 *204:39 *338:6 0.000568886
*RES
1 *1465:Q *338:6 29.815 
2 *338:6 *1325:A 23 
*END
