*SPEF "ieee 1481-1999"
*DESIGN "rng_top"
*DATE "12:31:27 Wednesday February 18, 2026"
*VENDOR "The OpenROAD Project"
*PROGRAM "OpenROAD"
*VERSION "edf00dff99f6c40d67a30c0e22a8191c5d2ed9d6"
*DESIGN_FLOW "NAME_SCOPE LOCAL" "PIN_CAP NONE"
*DIVIDER /
*DELIMITER :
*BUS_DELIMITER []
*T_UNIT 1 NS
*C_UNIT 1 PF
*R_UNIT 1 OHM
*L_UNIT 1 HENRY

*NAME_MAP
*3 clk_i
*4 num_to_send_o[0]
*5 num_to_send_o[1]
*6 num_to_send_o[2]
*7 req_num_i
*8 rst_i
*9 wr_i
*10 _000_
*11 _001_
*12 _002_
*13 _003_
*14 _004_
*15 _005_
*16 _006_
*17 _007_
*18 _008_
*19 _009_
*20 _010_
*21 _011_
*22 _012_
*23 _013_
*24 _014_
*25 _015_
*26 _016_
*27 _017_
*28 _018_
*29 _019_
*30 _020_
*31 _021_
*32 _022_
*33 _023_
*34 _024_
*35 _025_
*36 _026_
*37 _027_
*38 _028_
*39 _029_
*40 _030_
*41 _031_
*42 _032_
*43 _033_
*44 _034_
*45 _035_
*46 _036_
*47 _037_
*48 _038_
*49 _039_
*50 _040_
*51 _041_
*52 _042_
*53 _043_
*54 _044_
*55 _045_
*56 _046_
*57 _047_
*58 _048_
*59 _049_
*60 _050_
*61 _051_
*62 _052_
*63 _053_
*64 _054_
*65 _055_
*66 _056_
*67 _057_
*68 _058_
*69 _059_
*70 _060_
*71 _061_
*72 _062_
*73 _063_
*74 _064_
*75 _065_
*76 _066_
*77 _067_
*78 _068_
*79 _069_
*80 _070_
*81 _071_
*82 _072_
*83 _073_
*84 _074_
*85 _075_
*86 _076_
*87 _077_
*88 _078_
*89 _079_
*90 _080_
*91 _081_
*92 _082_
*93 _083_
*94 _084_
*95 _085_
*96 _086_
*97 _087_
*98 _088_
*99 _089_
*100 _090_
*101 _091_
*102 _092_
*103 _093_
*104 _094_
*105 _095_
*106 _096_
*107 _097_
*108 _098_
*109 _099_
*110 _100_
*111 _101_
*112 _102_
*113 _103_
*114 _104_
*115 _105_
*116 _106_
*117 _107_
*118 _108_
*119 _109_
*120 _110_
*121 _111_
*122 _112_
*123 clknet_0_clk_i
*124 clknet_2_0__leaf_clk_i
*125 clknet_2_1__leaf_clk_i
*126 clknet_2_2__leaf_clk_i
*127 clknet_2_3__leaf_clk_i
*128 net1
*129 net10
*130 net11
*131 net12
*132 net13
*133 net14
*134 net15
*135 net16
*136 net17
*137 net18
*138 net19
*139 net2
*140 net20
*141 net21
*142 net22
*143 net23
*144 net24
*145 net25
*146 net26
*147 net27
*148 net28
*149 net29
*150 net3
*151 net30
*152 net31
*153 net32
*154 net33
*155 net34
*156 net35
*157 net36
*158 net37
*159 net38
*160 net39
*161 net4
*162 net40
*163 net41
*164 net42
*165 net43
*166 net44
*167 net45
*168 net46
*169 net47
*170 net48
*171 net49
*172 net5
*173 net50
*174 net51
*175 net52
*176 net53
*177 net54
*178 net55
*179 net56
*180 net57
*181 net58
*182 net59
*183 net6
*184 net60
*185 net61
*186 net62
*187 net63
*188 net64
*189 net65
*190 net66
*191 net67
*192 net68
*193 net69
*194 net7
*195 net70
*196 net8
*197 net9
*198 num_i_bar\[0\]
*199 num_i_bar\[1\]
*200 num_i_bar\[2\]
*201 req_num_again
*202 rng_dp\.inst\.next_num_o\[0\]
*203 rng_dp\.inst\.next_num_o\[1\]
*204 rng_dp\.inst\.next_num_o\[2\]
*205 rng_dp\.seed_sel_i\[0\]
*206 rng_dp\.seed_sel_i\[1\]
*207 rng_rd\.mem\[1\]\[0\]
*208 rng_rd\.mem\[1\]\[1\]
*209 rng_rd\.mem\[1\]\[2\]
*210 rng_rd\.mem\[2\]\[0\]
*211 rng_rd\.mem\[2\]\[1\]
*212 rng_rd\.mem\[2\]\[2\]
*213 rng_rd\.mem\[3\]\[0\]
*214 rng_rd\.mem\[3\]\[1\]
*215 rng_rd\.mem\[3\]\[2\]
*216 rng_rd\.mem\[4\]\[0\]
*217 rng_rd\.mem\[4\]\[1\]
*218 rng_rd\.mem\[4\]\[2\]
*219 rng_rd\.mem\[5\]\[0\]
*220 rng_rd\.mem\[5\]\[1\]
*221 rng_rd\.mem\[5\]\[2\]
*222 rng_rd\.mem\[6\]\[0\]
*223 rng_rd\.mem\[6\]\[1\]
*224 rng_rd\.mem\[6\]\[2\]
*225 rng_rd\.mem\[7\]\[0\]
*226 rng_rd\.mem\[7\]\[1\]
*227 rng_rd\.mem\[7\]\[2\]
*228 rng_rd\.vld\[0\]
*229 rng_rd\.vld\[1\]
*230 rng_rd\.vld\[2\]
*231 rng_rd\.vld\[3\]
*232 rng_rd\.vld\[4\]
*233 rng_rd\.vld\[5\]
*234 rng_rd\.vld\[6\]
*235 rng_rd\.vld\[7\]
*236 rng_rd\.wr_ff1
*237 rng_rd\.wr_ff2
*238 rng_rd\.wr_ff2_d
*239 rng_rd\.wr_pulse
*240 FILLER_0_109
*241 FILLER_0_111
*242 FILLER_0_113
*243 FILLER_0_125
*244 FILLER_0_137
*245 FILLER_0_139
*246 FILLER_0_141
*247 FILLER_0_153
*248 FILLER_0_24
*249 FILLER_0_3
*250 FILLER_0_37
*251 FILLER_0_55
*252 FILLER_0_57
*253 FILLER_0_65
*254 FILLER_0_70
*255 FILLER_0_78
*256 FILLER_0_83
*257 FILLER_0_85
*258 FILLER_0_97
*259 FILLER_10_109
*260 FILLER_10_121
*261 FILLER_10_133
*262 FILLER_10_137
*263 FILLER_10_139
*264 FILLER_10_141
*265 FILLER_10_153
*266 FILLER_10_23
*267 FILLER_10_27
*268 FILLER_10_36
*269 FILLER_10_40
*270 FILLER_10_56
*271 FILLER_10_7
*272 FILLER_10_85
*273 FILLER_10_9
*274 FILLER_10_97
*275 FILLER_11_111
*276 FILLER_11_121
*277 FILLER_11_133
*278 FILLER_11_145
*279 FILLER_11_3
*280 FILLER_11_57
*281 FILLER_11_59
*282 FILLER_11_80
*283 FILLER_11_92
*284 FILLER_12_132
*285 FILLER_12_141
*286 FILLER_12_153
*287 FILLER_12_17
*288 FILLER_12_26
*289 FILLER_12_3
*290 FILLER_12_7
*291 FILLER_12_73
*292 FILLER_12_81
*293 FILLER_12_83
*294 FILLER_13_147
*295 FILLER_13_155
*296 FILLER_13_28
*297 FILLER_13_3
*298 FILLER_13_72
*299 FILLER_13_94
*300 FILLER_14_138
*301 FILLER_14_141
*302 FILLER_14_153
*303 FILLER_14_24
*304 FILLER_14_29
*305 FILLER_14_3
*306 FILLER_14_31
*307 FILLER_14_52
*308 FILLER_14_56
*309 FILLER_15_121
*310 FILLER_15_135
*311 FILLER_15_147
*312 FILLER_15_15
*313 FILLER_15_155
*314 FILLER_15_23
*315 FILLER_15_25
*316 FILLER_15_3
*317 FILLER_15_41
*318 FILLER_15_51
*319 FILLER_15_55
*320 FILLER_15_57
*321 FILLER_15_61
*322 FILLER_15_70
*323 FILLER_15_72
*324 FILLER_15_88
*325 FILLER_16_106
*326 FILLER_16_115
*327 FILLER_16_136
*328 FILLER_16_141
*329 FILLER_16_15
*330 FILLER_16_153
*331 FILLER_16_26
*332 FILLER_16_29
*333 FILLER_16_3
*334 FILLER_16_31
*335 FILLER_16_40
*336 FILLER_16_54
*337 FILLER_16_65
*338 FILLER_16_85
*339 FILLER_16_92
*340 FILLER_16_96
*341 FILLER_17_11
*342 FILLER_17_113
*343 FILLER_17_142
*344 FILLER_17_154
*345 FILLER_17_156
*346 FILLER_17_3
*347 FILLER_17_46
*348 FILLER_17_54
*349 FILLER_17_57
*350 FILLER_17_78
*351 FILLER_17_87
*352 FILLER_17_91
*353 FILLER_18_126
*354 FILLER_18_138
*355 FILLER_18_141
*356 FILLER_18_153
*357 FILLER_18_29
*358 FILLER_18_3
*359 FILLER_19_109
*360 FILLER_19_111
*361 FILLER_19_128
*362 FILLER_19_140
*363 FILLER_19_152
*364 FILLER_19_156
*365 FILLER_19_44
*366 FILLER_19_46
*367 FILLER_19_57
*368 FILLER_19_59
*369 FILLER_19_96
*370 FILLER_1_103
*371 FILLER_1_111
*372 FILLER_1_113
*373 FILLER_1_125
*374 FILLER_1_129
*375 FILLER_1_153
*376 FILLER_1_18
*377 FILLER_1_20
*378 FILLER_1_41
*379 FILLER_1_45
*380 FILLER_1_47
*381 FILLER_1_6
*382 FILLER_1_77
*383 FILLER_20_121
*384 FILLER_20_133
*385 FILLER_20_137
*386 FILLER_20_139
*387 FILLER_20_141
*388 FILLER_20_153
*389 FILLER_20_29
*390 FILLER_20_33
*391 FILLER_20_6
*392 FILLER_20_83
*393 FILLER_20_94
*394 FILLER_21_109
*395 FILLER_21_111
*396 FILLER_21_121
*397 FILLER_21_133
*398 FILLER_21_145
*399 FILLER_21_15
*400 FILLER_21_25
*401 FILLER_21_29
*402 FILLER_21_3
*403 FILLER_21_39
*404 FILLER_21_51
*405 FILLER_21_55
*406 FILLER_21_65
*407 FILLER_21_77
*408 FILLER_21_81
*409 FILLER_21_90
*410 FILLER_22_107
*411 FILLER_22_111
*412 FILLER_22_113
*413 FILLER_22_125
*414 FILLER_22_137
*415 FILLER_22_139
*416 FILLER_22_141
*417 FILLER_22_15
*418 FILLER_22_153
*419 FILLER_22_27
*420 FILLER_22_3
*421 FILLER_22_37
*422 FILLER_22_47
*423 FILLER_22_55
*424 FILLER_22_57
*425 FILLER_22_69
*426 FILLER_22_81
*427 FILLER_22_83
*428 FILLER_22_85
*429 FILLER_22_93
*430 FILLER_22_97
*431 FILLER_2_127
*432 FILLER_2_147
*433 FILLER_2_155
*434 FILLER_2_24
*435 FILLER_2_29
*436 FILLER_2_3
*437 FILLER_2_73
*438 FILLER_2_85
*439 FILLER_3_110
*440 FILLER_3_113
*441 FILLER_3_3
*442 FILLER_3_52
*443 FILLER_3_76
*444 FILLER_3_97
*445 FILLER_4_100
*446 FILLER_4_156
*447 FILLER_4_26
*448 FILLER_4_29
*449 FILLER_4_3
*450 FILLER_4_31
*451 FILLER_4_49
*452 FILLER_4_57
*453 FILLER_4_67
*454 FILLER_4_69
*455 FILLER_4_7
*456 FILLER_4_83
*457 FILLER_4_92
*458 FILLER_4_96
*459 FILLER_5_11
*460 FILLER_5_156
*461 FILLER_5_17
*462 FILLER_5_21
*463 FILLER_5_3
*464 FILLER_5_34
*465 FILLER_5_46
*466 FILLER_5_55
*467 FILLER_5_77
*468 FILLER_5_83
*469 FILLER_6_137
*470 FILLER_6_139
*471 FILLER_6_149
*472 FILLER_6_3
*473 FILLER_6_7
*474 FILLER_6_70
*475 FILLER_6_81
*476 FILLER_6_83
*477 FILLER_6_85
*478 FILLER_6_93
*479 FILLER_7_11
*480 FILLER_7_111
*481 FILLER_7_125
*482 FILLER_7_150
*483 FILLER_7_154
*484 FILLER_7_156
*485 FILLER_7_22
*486 FILLER_7_3
*487 FILLER_7_51
*488 FILLER_7_55
*489 FILLER_7_64
*490 FILLER_7_83
*491 FILLER_8_118
*492 FILLER_8_126
*493 FILLER_8_134
*494 FILLER_8_138
*495 FILLER_8_141
*496 FILLER_8_153
*497 FILLER_8_27
*498 FILLER_8_29
*499 FILLER_8_3
*500 FILLER_8_39
*501 FILLER_8_60
*502 FILLER_8_62
*503 FILLER_8_7
*504 FILLER_8_83
*505 FILLER_8_9
*506 FILLER_8_93
*507 FILLER_9_100
*508 FILLER_9_104
*509 FILLER_9_113
*510 FILLER_9_125
*511 FILLER_9_137
*512 FILLER_9_149
*513 FILLER_9_29
*514 FILLER_9_3
*515 FILLER_9_38
*516 FILLER_9_57
*517 FILLER_9_82
*518 FILLER_9_94
*519 FILLER_9_98
*520 PHY_EDGE_ROW_0_Left_23
*521 PHY_EDGE_ROW_0_Right_0
*522 PHY_EDGE_ROW_10_Left_33
*523 PHY_EDGE_ROW_10_Right_10
*524 PHY_EDGE_ROW_11_Left_34
*525 PHY_EDGE_ROW_11_Right_11
*526 PHY_EDGE_ROW_12_Left_35
*527 PHY_EDGE_ROW_12_Right_12
*528 PHY_EDGE_ROW_13_Left_36
*529 PHY_EDGE_ROW_13_Right_13
*530 PHY_EDGE_ROW_14_Left_37
*531 PHY_EDGE_ROW_14_Right_14
*532 PHY_EDGE_ROW_15_Left_38
*533 PHY_EDGE_ROW_15_Right_15
*534 PHY_EDGE_ROW_16_Left_39
*535 PHY_EDGE_ROW_16_Right_16
*536 PHY_EDGE_ROW_17_Left_40
*537 PHY_EDGE_ROW_17_Right_17
*538 PHY_EDGE_ROW_18_Left_41
*539 PHY_EDGE_ROW_18_Right_18
*540 PHY_EDGE_ROW_19_Left_42
*541 PHY_EDGE_ROW_19_Right_19
*542 PHY_EDGE_ROW_1_Left_24
*543 PHY_EDGE_ROW_1_Right_1
*544 PHY_EDGE_ROW_20_Left_43
*545 PHY_EDGE_ROW_20_Right_20
*546 PHY_EDGE_ROW_21_Left_44
*547 PHY_EDGE_ROW_21_Right_21
*548 PHY_EDGE_ROW_22_Left_45
*549 PHY_EDGE_ROW_22_Right_22
*550 PHY_EDGE_ROW_2_Left_25
*551 PHY_EDGE_ROW_2_Right_2
*552 PHY_EDGE_ROW_3_Left_26
*553 PHY_EDGE_ROW_3_Right_3
*554 PHY_EDGE_ROW_4_Left_27
*555 PHY_EDGE_ROW_4_Right_4
*556 PHY_EDGE_ROW_5_Left_28
*557 PHY_EDGE_ROW_5_Right_5
*558 PHY_EDGE_ROW_6_Left_29
*559 PHY_EDGE_ROW_6_Right_6
*560 PHY_EDGE_ROW_7_Left_30
*561 PHY_EDGE_ROW_7_Right_7
*562 PHY_EDGE_ROW_8_Left_31
*563 PHY_EDGE_ROW_8_Right_8
*564 PHY_EDGE_ROW_9_Left_32
*565 PHY_EDGE_ROW_9_Right_9
*566 TAP_TAPCELL_ROW_0_46
*567 TAP_TAPCELL_ROW_0_47
*568 TAP_TAPCELL_ROW_0_48
*569 TAP_TAPCELL_ROW_0_49
*570 TAP_TAPCELL_ROW_0_50
*571 TAP_TAPCELL_ROW_10_73
*572 TAP_TAPCELL_ROW_10_74
*573 TAP_TAPCELL_ROW_10_75
*574 TAP_TAPCELL_ROW_11_76
*575 TAP_TAPCELL_ROW_11_77
*576 TAP_TAPCELL_ROW_12_78
*577 TAP_TAPCELL_ROW_12_79
*578 TAP_TAPCELL_ROW_12_80
*579 TAP_TAPCELL_ROW_13_81
*580 TAP_TAPCELL_ROW_13_82
*581 TAP_TAPCELL_ROW_14_83
*582 TAP_TAPCELL_ROW_14_84
*583 TAP_TAPCELL_ROW_14_85
*584 TAP_TAPCELL_ROW_15_86
*585 TAP_TAPCELL_ROW_15_87
*586 TAP_TAPCELL_ROW_16_88
*587 TAP_TAPCELL_ROW_16_89
*588 TAP_TAPCELL_ROW_16_90
*589 TAP_TAPCELL_ROW_17_91
*590 TAP_TAPCELL_ROW_17_92
*591 TAP_TAPCELL_ROW_18_93
*592 TAP_TAPCELL_ROW_18_94
*593 TAP_TAPCELL_ROW_18_95
*594 TAP_TAPCELL_ROW_19_96
*595 TAP_TAPCELL_ROW_19_97
*596 TAP_TAPCELL_ROW_1_51
*597 TAP_TAPCELL_ROW_1_52
*598 TAP_TAPCELL_ROW_20_100
*599 TAP_TAPCELL_ROW_20_98
*600 TAP_TAPCELL_ROW_20_99
*601 TAP_TAPCELL_ROW_21_101
*602 TAP_TAPCELL_ROW_21_102
*603 TAP_TAPCELL_ROW_22_103
*604 TAP_TAPCELL_ROW_22_104
*605 TAP_TAPCELL_ROW_22_105
*606 TAP_TAPCELL_ROW_22_106
*607 TAP_TAPCELL_ROW_22_107
*608 TAP_TAPCELL_ROW_2_53
*609 TAP_TAPCELL_ROW_2_54
*610 TAP_TAPCELL_ROW_2_55
*611 TAP_TAPCELL_ROW_3_56
*612 TAP_TAPCELL_ROW_3_57
*613 TAP_TAPCELL_ROW_4_58
*614 TAP_TAPCELL_ROW_4_59
*615 TAP_TAPCELL_ROW_4_60
*616 TAP_TAPCELL_ROW_5_61
*617 TAP_TAPCELL_ROW_5_62
*618 TAP_TAPCELL_ROW_6_63
*619 TAP_TAPCELL_ROW_6_64
*620 TAP_TAPCELL_ROW_6_65
*621 TAP_TAPCELL_ROW_7_66
*622 TAP_TAPCELL_ROW_7_67
*623 TAP_TAPCELL_ROW_8_68
*624 TAP_TAPCELL_ROW_8_69
*625 TAP_TAPCELL_ROW_8_70
*626 TAP_TAPCELL_ROW_9_71
*627 TAP_TAPCELL_ROW_9_72
*628 _113_
*629 _114_
*630 _115_
*631 _116_
*632 _117_
*633 _118_
*634 _119_
*635 _120_
*636 _121_
*637 _122_
*638 _123_
*639 _124_
*640 _125_
*641 _126_
*642 _127_
*643 _128_
*644 _129_
*645 _130_
*646 _131_
*647 _132_
*648 _133_
*649 _134_
*650 _135_
*651 _136_
*652 _137_
*653 _138_
*654 _139_
*655 _140_
*656 _141_
*657 _142_
*658 _143_
*659 _144_
*660 _145_
*661 _146_
*662 _147_
*663 _148_
*664 _149_
*665 _150_
*666 _151_
*667 _152_
*668 _153_
*669 _154_
*670 _155_
*671 _156_
*672 _157_
*673 _158_
*674 _159_
*675 _160_
*676 _161_
*677 _162_
*678 _163_
*679 _164_
*680 _165_
*681 _166_
*682 _167_
*683 _168_
*684 _169_
*685 _170_
*686 _171_
*687 _172_
*688 _173_
*689 _174_
*690 _175_
*691 _176_
*692 _177_
*693 _178_
*694 _179_
*695 _180_
*696 _181_
*697 _182_
*698 _183_
*699 _184_
*700 _185_
*701 _186_
*702 _187_
*703 _188_
*704 _189_
*705 _190_
*706 _191_
*707 _192_
*708 _193_
*709 _194_
*710 _195_
*711 _196_
*712 _197_
*713 _198_
*714 _199_
*715 _200_
*716 _201_
*717 _202_
*718 _203_
*719 _204_
*720 _205_
*721 _206_
*722 _207_
*723 _208_
*724 _209_
*725 _210_
*726 _211_
*727 _212_
*728 _213_
*729 _214_
*730 _215_
*731 _216_
*732 _217_
*733 _218_
*734 _219_
*735 _220_
*736 _221_
*737 _222_
*738 _223_
*739 _224_
*740 _225_
*741 _226_
*742 _227_
*743 _228_
*744 _229_
*745 _230_
*746 _231_
*747 _232_
*748 _233_
*749 _234_
*750 _235_
*751 _236_
*752 _237_
*753 _238_
*754 _239_
*755 _240_
*756 _241_
*757 _242_
*758 _243_
*759 _244_
*760 _245_
*761 _246_
*762 _247_
*763 _248_
*764 _249_
*765 _250_
*766 _251_
*767 _252_
*768 _253_
*769 _254_
*770 _255_
*771 _256_
*772 _257_
*773 _258_
*774 _259_
*775 _260_
*776 _261_
*777 _262_
*778 _263_
*779 _264_
*780 _265_
*781 _266_
*782 _267_
*783 _268_
*784 _269_
*785 _270_
*786 clkbuf_0_clk_i
*787 clkbuf_2_0__f_clk_i
*788 clkbuf_2_1__f_clk_i
*789 clkbuf_2_2__f_clk_i
*790 clkbuf_2_3__f_clk_i
*791 clkload0
*792 clkload1
*793 clkload2
*794 fanout10
*795 fanout11
*796 fanout12
*797 fanout13
*798 fanout14
*799 fanout15
*800 fanout16
*801 fanout17
*802 fanout18
*803 fanout19
*804 fanout7
*805 fanout8
*806 fanout9
*807 hold1
*808 hold10
*809 hold11
*810 hold12
*811 hold13
*812 hold14
*813 hold15
*814 hold16
*815 hold17
*816 hold18
*817 hold19
*818 hold2
*819 hold20
*820 hold21
*821 hold22
*822 hold23
*823 hold24
*824 hold25
*825 hold26
*826 hold27
*827 hold28
*828 hold29
*829 hold3
*830 hold30
*831 hold31
*832 hold32
*833 hold33
*834 hold34
*835 hold35
*836 hold36
*837 hold37
*838 hold38
*839 hold39
*840 hold4
*841 hold40
*842 hold41
*843 hold42
*844 hold43
*845 hold44
*846 hold45
*847 hold46
*848 hold47
*849 hold48
*850 hold49
*851 hold5
*852 hold50
*853 hold51
*854 hold6
*855 hold7
*856 hold8
*857 hold9
*858 input1
*859 input2
*860 input3
*861 output4
*862 output5
*863 output6

*PORTS
clk_i I
num_to_send_o[0] O
num_to_send_o[1] O
num_to_send_o[2] O
req_num_i I
rst_i I
wr_i I

*D_NET *3 0.00923572
*CONN
*P clk_i I
*I *786:A I *D sky130_fd_sc_hd__clkbuf_16
*CAP
1 clk_i 0.00339452
2 *786:A 0.00339452
3 *786:A *636:A 0.000126381
4 *786:A *637:B1 0.000521505
5 *786:A *638:A1 6.92626e-05
6 *786:A *638:B1 6.93567e-05
7 *786:A *639:A1 0
8 *786:A *639:A2 9.10431e-06
9 *786:A *639:C1 0.000335201
10 *786:A *643:A2 5.52238e-05
11 *786:A *643:B1 0
12 *786:A *643:C1 0
13 *786:A *644:A 3.98428e-05
14 *786:A *650:A1 0.000236333
15 *786:A *650:A2 0.000144038
16 *786:A *670:A 0
17 *786:A *731:A1 0
18 *786:A *732:A0 6.62911e-05
19 *786:A *755:CLK 0.000118391
20 *786:A *756:D 0.000101545
21 *786:A *803:A 0.000114304
22 *786:A *859:A 8.57347e-05
23 *786:A *59:16 0
24 *786:A *119:16 0.000109792
25 *786:A *130:56 9.69119e-06
26 *786:A *130:62 5.52302e-05
27 *786:A *130:80 0
28 *786:A *132:49 5.54501e-05
29 *786:A *213:10 0.00012401
*RES
1 clk_i *786:A 45.3438 
*END

*D_NET *4 0.000901613
*CONN
*P num_to_send_o[0] O
*I *861:X O *D sky130_fd_sc_hd__buf_2
*CAP
1 num_to_send_o[0] 0.000424135
2 *861:X 0.000424135
3 num_to_send_o[0] *161:18 5.33433e-05
*RES
1 *861:X num_to_send_o[0] 21.6393 
*END

*D_NET *5 0.000653182
*CONN
*P num_to_send_o[1] O
*I *862:X O *D sky130_fd_sc_hd__buf_2
*CAP
1 num_to_send_o[1] 0.00028858
2 *862:X 0.00028858
3 num_to_send_o[1] num_to_send_o[2] 7.60209e-05
*RES
1 *862:X num_to_send_o[1] 19.6044 
*END

*D_NET *6 0.00136438
*CONN
*P num_to_send_o[2] O
*I *863:X O *D sky130_fd_sc_hd__buf_2
*CAP
1 num_to_send_o[2] 0.000601339
2 *863:X 0.000601339
3 num_to_send_o[2] *724:S 1.99737e-05
4 num_to_send_o[2] *133:18 6.57026e-05
5 num_to_send_o[1] num_to_send_o[2] 7.60209e-05
*RES
1 *863:X num_to_send_o[2] 19.9551 
*END

*D_NET *7 0.0009413
*CONN
*P req_num_i I
*I *858:A I *D sky130_fd_sc_hd__clkbuf_1
*CAP
1 req_num_i 0.000469237
2 *858:A 0.000469237
3 *858:A *161:12 2.8266e-06
*RES
1 req_num_i *858:A 22.6571 
*END

*D_NET *8 0.00109199
*CONN
*P rst_i I
*I *859:A I *D sky130_fd_sc_hd__clkbuf_1
*CAP
1 rst_i 0.000325042
2 *859:A 0.000325042
3 *859:A *125:76 0.000214944
4 *859:A *125:93 0.000141226
5 *786:A *859:A 8.57347e-05
*RES
1 rst_i *859:A 22.3729 
*END

*D_NET *9 0.000703119
*CONN
*P wr_i I
*I *860:A I *D sky130_fd_sc_hd__clkbuf_1
*CAP
1 wr_i 0.000351559
2 *860:A 0.000351559
3 *860:A *759:CLK 0
*RES
1 wr_i *860:A 21.6946 
*END

*D_NET *10 0.00114087
*CONN
*I *785:D I *D sky130_fd_sc_hd__dfrtp_1
*I *672:X O *D sky130_fd_sc_hd__and2b_1
*CAP
1 *785:D 0.000440635
2 *672:X 0.000440635
3 *785:D *672:A_N 0.000107267
4 *785:D *672:B 0
5 *785:D *770:CLK 0.000152333
6 *785:D *829:A 0
7 *785:D *161:18 0
*RES
1 *672:X *785:D 34.3679 
*END

*D_NET *11 0.00502461
*CONN
*I *701:C I *D sky130_fd_sc_hd__and3_1
*I *680:B1 I *D sky130_fd_sc_hd__a211o_1
*I *696:C1 I *D sky130_fd_sc_hd__a211o_1
*I *748:D I *D sky130_fd_sc_hd__dfrtp_4
*I *630:Y O *D sky130_fd_sc_hd__inv_2
*CAP
1 *701:C 0.000245649
2 *680:B1 0
3 *696:C1 0.00015806
4 *748:D 0.000249304
5 *630:Y 0.00034152
6 *11:42 0.000281504
7 *11:16 0.00086238
8 *11:10 0.000832392
9 *696:C1 *689:A1 0.000122171
10 *696:C1 *696:B1 2.08452e-05
11 *696:C1 *705:B1 9.25014e-06
12 *696:C1 *93:8 0
13 *696:C1 *112:37 6.84115e-05
14 *696:C1 *204:41 3.27689e-06
15 *701:C *680:C1 5.83233e-05
16 *701:C *687:A 6.04072e-05
17 *701:C *694:A 1.02821e-05
18 *701:C *701:A 0.000297258
19 *701:C *206:18 6.73939e-05
20 *748:D *683:A 5.08481e-05
21 *748:D *689:A1 7.83587e-05
22 *748:D *748:CLK 7.43578e-06
23 *748:D *748:RESET_B 0
24 *748:D *112:18 4.43126e-05
25 *748:D *112:37 0.000164787
26 *11:10 *678:A 0.000136006
27 *11:10 *686:B 0.000108535
28 *11:10 *204:67 7.6644e-05
29 *11:16 *681:A2 0.000136958
30 *11:16 *696:B1 0.000135028
31 *11:16 *83:10 0.000139943
32 *11:16 *203:85 0.000136951
33 *11:42 *678:A 3.34783e-05
34 *11:42 *680:C1 1.02504e-05
35 *11:42 *701:A 9.25014e-06
36 *11:42 *204:67 6.73939e-05
*RES
1 *630:Y *11:10 18.6571 
2 *11:10 *11:16 14.875 
3 *11:16 *748:D 18.925 
4 *11:16 *696:C1 16.7107 
5 *11:10 *11:42 1.03571 
6 *11:42 *680:B1 13.8 
7 *11:42 *701:C 18.1036 
*END

*D_NET *12 0.000547902
*CONN
*I *749:D I *D sky130_fd_sc_hd__dfrtp_4
*I *673:X O *D sky130_fd_sc_hd__xor2_1
*CAP
1 *749:D 0.000162747
2 *673:X 0.000162747
3 *749:D *673:A 7.50601e-05
4 *749:D *684:B 0.000139913
5 *749:D *746:CLK 0
6 *749:D *749:CLK 7.43578e-06
7 *749:D *87:14 0
*RES
1 *673:X *749:D 31.2071 
*END

*D_NET *13 0.00103345
*CONN
*I *815:A I *D sky130_fd_sc_hd__dlygate4sd3_1
*I *675:X O *D sky130_fd_sc_hd__mux2_1
*CAP
1 *815:A 0.000177812
2 *675:X 0.000177812
3 *815:A *742:D 4.66203e-05
4 *815:A *743:CLK 9.80173e-05
5 *815:A *200:23 0.000312743
6 *815:A *223:18 0.000220448
*RES
1 *675:X *815:A 32.6179 
*END

*D_NET *14 0.000647954
*CONN
*I *857:A I *D sky130_fd_sc_hd__dlygate4sd3_1
*I *676:X O *D sky130_fd_sc_hd__mux2_1
*CAP
1 *857:A 7.55268e-05
2 *676:X 7.55268e-05
3 *857:A *664:A2 0.000208891
4 *857:A *664:C1 0.00028801
*RES
1 *676:X *857:A 22.1536 
*END

*D_NET *15 0.000480355
*CONN
*I *855:A I *D sky130_fd_sc_hd__dlygate4sd3_1
*I *677:X O *D sky130_fd_sc_hd__mux2_1
*CAP
1 *855:A 0.00022054
2 *677:X 0.00022054
3 *855:A *744:D 3.92757e-05
*RES
1 *677:X *855:A 31.4214 
*END

*D_NET *16 0.000532932
*CONN
*I *745:D I *D sky130_fd_sc_hd__dfrtp_1
*I *692:X O *D sky130_fd_sc_hd__o22a_1
*CAP
1 *745:D 0.000187786
2 *692:X 0.000187786
3 *745:D *692:A2 0
4 *745:D *692:B2 9.90367e-05
5 *745:D *739:A 5.83233e-05
*RES
1 *692:X *745:D 30.4929 
*END

*D_NET *17 0.00101764
*CONN
*I *746:D I *D sky130_fd_sc_hd__dfrtp_4
*I *699:Y O *D sky130_fd_sc_hd__o21ai_1
*CAP
1 *746:D 0.00032192
2 *699:Y 0.00032192
3 *746:D *692:B2 0
4 *746:D *697:B1 0
5 *746:D *699:A1 9.17495e-05
6 *746:D *699:A2 1.33343e-05
7 *746:D *699:B1 4.0342e-06
8 *746:D *706:A1 0.000128161
9 *746:D *746:CLK 6.95299e-05
10 *746:D *118:25 1.68715e-05
11 *746:D *200:23 5.01213e-05
*RES
1 *699:Y *746:D 34.7429 
*END

*D_NET *18 0.000342771
*CONN
*I *747:D I *D sky130_fd_sc_hd__dfrtp_1
*I *706:X O *D sky130_fd_sc_hd__o21a_1
*CAP
1 *747:D 0.000115668
2 *706:X 0.000115668
3 *747:D *747:CLK 6.05161e-06
4 *747:D *763:CLK 5.66157e-05
5 *747:D *789:A 2.28335e-05
6 *747:D *126:82 0
7 *747:D *126:84 2.59355e-05
*RES
1 *706:X *747:D 29.7786 
*END

*D_NET *19 0.000137058
*CONN
*I *823:A I *D sky130_fd_sc_hd__dlygate4sd3_1
*I *707:X O *D sky130_fd_sc_hd__mux2_1
*CAP
1 *823:A 4.72228e-05
2 *707:X 4.72228e-05
3 *823:A *707:A0 4.26125e-05
*RES
1 *707:X *823:A 19.5643 
*END

*D_NET *20 0.000740383
*CONN
*I *827:A I *D sky130_fd_sc_hd__dlygate4sd3_1
*I *708:X O *D sky130_fd_sc_hd__mux2_1
*CAP
1 *827:A 0.000172896
2 *708:X 0.000172896
3 *827:A *646:B1 0
4 *827:A *751:D 4.75715e-05
5 *827:A *127:95 0
6 *827:A *127:110 8.73652e-05
7 *827:A *127:123 5.52302e-05
8 *827:A *132:22 2.89114e-05
9 *827:A *137:43 0.000175512
*RES
1 *708:X *827:A 32.2071 
*END

*D_NET *21 0.000450514
*CONN
*I *830:A I *D sky130_fd_sc_hd__dlygate4sd3_1
*I *709:X O *D sky130_fd_sc_hd__mux2_1
*CAP
1 *830:A 0.00017531
2 *709:X 0.00017531
3 *830:A *646:B1 5.41494e-05
4 *830:A *752:D 0
5 *830:A *802:A 0
6 *830:A *137:10 4.57445e-05
*RES
1 *709:X *830:A 30.6 
*END

*D_NET *22 0.000743784
*CONN
*I *753:D I *D sky130_fd_sc_hd__dfrtp_1
*I *710:X O *D sky130_fd_sc_hd__mux2_1
*CAP
1 *753:D 0.000237576
2 *710:X 0.000237576
3 *753:D *713:A0 7.3237e-05
4 *753:D *790:A 0
5 *753:D *75:24 0.000195396
6 *753:D *129:55 0
*RES
1 *710:X *753:D 32.9571 
*END

*D_NET *23 0.000443795
*CONN
*I *754:D I *D sky130_fd_sc_hd__dfrtp_1
*I *711:X O *D sky130_fd_sc_hd__mux2_1
*CAP
1 *754:D 0.00011893
2 *711:X 0.00011893
3 *754:D *711:A1 0.00010096
4 *754:D *756:RESET_B 0
5 *754:D *132:49 0.000104974
*RES
1 *711:X *754:D 29.8857 
*END

*D_NET *24 0.000721808
*CONN
*I *755:D I *D sky130_fd_sc_hd__dfrtp_1
*I *712:X O *D sky130_fd_sc_hd__mux2_1
*CAP
1 *755:D 0.000234469
2 *712:X 0.000234469
3 *755:D *636:B 3.70047e-05
4 *755:D *777:D 0
5 *755:D *777:RESET_B 0
6 *755:D *833:A 7.49332e-05
7 *755:D *119:16 0.000140933
*RES
1 *712:X *755:D 32.725 
*END

*D_NET *25 0.000552113
*CONN
*I *756:D I *D sky130_fd_sc_hd__dfrtp_1
*I *713:X O *D sky130_fd_sc_hd__mux2_1
*CAP
1 *756:D 0.000195582
2 *713:X 0.000195582
3 *756:D *650:A1 2.59355e-05
4 *756:D *130:80 3.34672e-05
5 *786:A *756:D 0.000101545
*RES
1 *713:X *756:D 30.8321 
*END

*D_NET *26 0.000156881
*CONN
*I *837:A I *D sky130_fd_sc_hd__dlygate4sd3_1
*I *714:X O *D sky130_fd_sc_hd__mux2_1
*CAP
1 *837:A 2.81274e-05
2 *714:X 2.81274e-05
3 *837:A *718:S 4.44948e-05
4 *837:A *132:49 5.61312e-05
*RES
1 *714:X *837:A 19.5643 
*END

*D_NET *27 0.00065398
*CONN
*I *758:D I *D sky130_fd_sc_hd__dfrtp_1
*I *715:X O *D sky130_fd_sc_hd__mux2_1
*CAP
1 *758:D 0.00032699
2 *715:X 0.00032699
3 *758:D *715:A1 0
4 *758:D *125:93 0
*RES
1 *715:X *758:D 32.0286 
*END

*D_NET *28 0.000897134
*CONN
*I *760:D I *D sky130_fd_sc_hd__dfrtp_1
*I *716:X O *D sky130_fd_sc_hd__mux2_1
*CAP
1 *760:D 0.000217392
2 *716:X 0.000217392
3 *760:D *669:A 7.6644e-05
4 *760:D *669:B 0.000317609
5 *760:D *115:18 6.80966e-05
6 *760:D *131:21 0
*RES
1 *716:X *760:D 32.6179 
*END

*D_NET *29 0.000711031
*CONN
*I *842:A I *D sky130_fd_sc_hd__dlygate4sd3_1
*I *717:X O *D sky130_fd_sc_hd__mux2_1
*CAP
1 *842:A 0.000327999
2 *717:X 0.000327999
3 *842:A *717:A0 5.5033e-05
4 *842:A *135:28 0
5 *842:A *138:27 0
*RES
1 *717:X *842:A 31.8321 
*END

*D_NET *30 0.00080908
*CONN
*I *832:A I *D sky130_fd_sc_hd__dlygate4sd3_1
*I *718:X O *D sky130_fd_sc_hd__mux2_1
*CAP
1 *832:A 0.000344131
2 *718:X 0.000344131
3 *832:A *636:A 0.000113381
4 *832:A *718:A0 7.43578e-06
5 *832:A *762:D 0
*RES
1 *718:X *832:A 33.4393 
*END

*D_NET *31 0.00170038
*CONN
*I *821:A I *D sky130_fd_sc_hd__dlygate4sd3_1
*I *719:X O *D sky130_fd_sc_hd__mux2_1
*CAP
1 *821:A 0.000454951
2 *719:X 0.000454951
3 *821:A *763:CLK 0.00036192
4 *821:A *763:D 9.90431e-05
5 *821:A *789:A 0
6 *821:A *820:A 0.000113083
7 *821:A *80:8 0.000117398
8 *821:A *207:21 9.90367e-05
*RES
1 *719:X *821:A 37.6893 
*END

*D_NET *32 0.000523934
*CONN
*I *845:A I *D sky130_fd_sc_hd__dlygate4sd3_1
*I *720:X O *D sky130_fd_sc_hd__mux2_1
*CAP
1 *845:A 8.48283e-05
2 *720:X 8.48283e-05
3 *845:A *642:B1 0.000114096
4 *845:A *660:C1 0.000143484
5 *845:A *668:B1 9.66977e-05
*RES
1 *720:X *845:A 30.1893 
*END

*D_NET *33 0.000470429
*CONN
*I *765:D I *D sky130_fd_sc_hd__dfrtp_1
*I *721:X O *D sky130_fd_sc_hd__mux2_1
*CAP
1 *765:D 0.000216241
2 *721:X 0.000216241
3 *765:D *125:31 3.79467e-05
*RES
1 *721:X *765:D 30.7071 
*END

*D_NET *34 0.000460144
*CONN
*I *766:D I *D sky130_fd_sc_hd__dfrtp_1
*I *722:X O *D sky130_fd_sc_hd__mux2_1
*CAP
1 *766:D 0.000116655
2 *722:X 0.000116655
3 *766:D *766:CLK 4.48113e-05
4 *766:D *134:36 0.000125724
5 *766:D *194:22 5.62995e-05
*RES
1 *722:X *766:D 30.1893 
*END

*D_NET *35 0.000444115
*CONN
*I *767:D I *D sky130_fd_sc_hd__dfrtp_1
*I *723:X O *D sky130_fd_sc_hd__mux2_1
*CAP
1 *767:D 0.00021676
2 *723:X 0.00021676
3 *767:D *772:CLK 0
4 *767:D *862:A 1.05947e-05
5 *767:D *124:22 0
6 *767:D *194:48 0
*RES
1 *723:X *767:D 30.7964 
*END

*D_NET *36 0.0010224
*CONN
*I *835:A I *D sky130_fd_sc_hd__dlygate4sd3_1
*I *724:X O *D sky130_fd_sc_hd__mux2_1
*CAP
1 *835:A 0.000341903
2 *724:X 0.000341903
3 *835:A *721:A1 0.000117196
4 *835:A *724:A0 0.00021609
5 *835:A *724:A1 5.30637e-06
6 *835:A *768:D 0
*RES
1 *724:X *835:A 33.85 
*END

*D_NET *37 0.00076456
*CONN
*I *770:D I *D sky130_fd_sc_hd__dfrtp_1
*I *725:X O *D sky130_fd_sc_hd__mux2_1
*CAP
1 *770:D 0.000155451
2 *725:X 0.000155451
3 *770:D *766:CLK 4.57538e-05
4 *770:D *770:CLK 5.94737e-05
5 *770:D *770:RESET_B 0.000128154
6 *770:D *129:14 5.33005e-05
7 *770:D *134:36 0.000166976
*RES
1 *725:X *770:D 31.9036 
*END

*D_NET *38 0.000751529
*CONN
*I *771:D I *D sky130_fd_sc_hd__dfrtp_1
*I *726:X O *D sky130_fd_sc_hd__mux2_1
*CAP
1 *771:D 0.000195799
2 *726:X 0.000195799
3 *771:D *659:C1 0.000267814
4 *771:D *124:14 4.63736e-05
5 *771:D *133:20 0
6 *771:D *208:12 4.57445e-05
*RES
1 *726:X *771:D 31.9259 
*END

*D_NET *39 0.000494635
*CONN
*I *772:D I *D sky130_fd_sc_hd__dfrtp_1
*I *727:X O *D sky130_fd_sc_hd__mux2_1
*CAP
1 *772:D 0.000182383
2 *727:X 0.000182383
3 *772:D *724:S 0
4 *772:D *862:A 0.000129868
*RES
1 *727:X *772:D 30.6 
*END

*D_NET *40 0.0012329
*CONN
*I *773:D I *D sky130_fd_sc_hd__dfrtp_1
*I *728:X O *D sky130_fd_sc_hd__or2_1
*CAP
1 *773:D 0.00049028
2 *728:X 0.00049028
3 *773:D *728:A 0
4 *773:D *759:CLK 2.19684e-05
5 *773:D *769:CLK 0
6 *773:D *774:D 3.57163e-05
7 *773:D *124:22 0.000121948
8 *773:D *124:24 7.27028e-05
*RES
1 *728:X *773:D 36.8857 
*END

*D_NET *41 0.00095463
*CONN
*I *774:D I *D sky130_fd_sc_hd__dfrtp_1
*I *729:X O *D sky130_fd_sc_hd__mux2_1
*CAP
1 *774:D 0.000354055
2 *729:X 0.000354055
3 *774:D *729:A1 2.95641e-05
4 *774:D *775:CLK 7.77751e-05
5 *774:D *812:A 3.18676e-05
6 *774:D *154:6 7.15962e-05
7 *774:D *228:10 0
8 *773:D *774:D 3.57163e-05
*RES
1 *729:X *774:D 33.2964 
*END

*D_NET *42 0.000700173
*CONN
*I *775:D I *D sky130_fd_sc_hd__dfrtp_1
*I *730:X O *D sky130_fd_sc_hd__mux2_1
*CAP
1 *775:D 0.000277576
2 *730:X 0.000277576
3 *775:D *730:A1 0.0001216
4 *775:D *133:22 0
5 *775:D *133:24 0
6 *775:D *229:10 2.34204e-05
*RES
1 *730:X *775:D 31.725 
*END

*D_NET *43 0.0014296
*CONN
*I *776:D I *D sky130_fd_sc_hd__dfrtp_1
*I *731:X O *D sky130_fd_sc_hd__mux2_1
*CAP
1 *776:D 0.000327273
2 *731:X 0.000327273
3 *776:D *721:S 0.000347151
4 *776:D *776:RESET_B 0.000119467
5 *776:D *788:A 0.000125724
6 *776:D *81:16 3.69047e-06
7 *776:D *214:8 0.000125724
8 *776:D *231:6 5.33005e-05
*RES
1 *731:X *776:D 36.35 
*END

*D_NET *44 0.000768381
*CONN
*I *809:A I *D sky130_fd_sc_hd__dlygate4sd3_1
*I *732:X O *D sky130_fd_sc_hd__mux2_1
*CAP
1 *809:A 0.000252453
2 *732:X 0.000252453
3 *809:A *732:A0 4.46186e-06
4 *809:A *778:D 0
5 *809:A *843:A 9.11365e-06
6 *809:A *119:16 9.90431e-05
7 *809:A *196:97 0.000150857
*RES
1 *732:X *809:A 32.6179 
*END

*D_NET *45 0.000401812
*CONN
*I *778:D I *D sky130_fd_sc_hd__dfrtp_1
*I *733:X O *D sky130_fd_sc_hd__mux2_1
*CAP
1 *778:D 0.00014217
2 *733:X 0.00014217
3 *778:D *638:B1 3.69697e-05
4 *778:D *732:A0 0
5 *778:D *733:S 1.21258e-05
6 *778:D *808:A 1.31516e-05
7 *778:D *119:16 5.52238e-05
8 *809:A *778:D 0
*RES
1 *733:X *778:D 29.8857 
*END

*D_NET *46 0.000533028
*CONN
*I *779:D I *D sky130_fd_sc_hd__dfrtp_1
*I *734:X O *D sky130_fd_sc_hd__mux2_1
*CAP
1 *779:D 0.00018363
2 *734:X 0.00018363
3 *779:D *709:S 7.32272e-05
4 *779:D *137:29 9.25412e-05
5 *779:D *197:115 0
*RES
1 *734:X *779:D 30.6 
*END

*D_NET *47 0.000621803
*CONN
*I *851:A I *D sky130_fd_sc_hd__dlygate4sd3_1
*I *735:X O *D sky130_fd_sc_hd__mux2_1
*CAP
1 *851:A 0.000148525
2 *735:X 0.000148525
3 *851:A *735:A0 0.000324754
*RES
1 *735:X *851:A 22.3321 
*END

*D_NET *48 0.00071094
*CONN
*I *782:D I *D sky130_fd_sc_hd__dfrtp_2
*I *738:X O *D sky130_fd_sc_hd__and2_1
*CAP
1 *782:D 0.000214016
2 *738:X 0.000214016
3 *782:D *634:A 5.24274e-05
4 *782:D *737:A 0.000230482
*RES
1 *738:X *782:D 31.1179 
*END

*D_NET *49 0.000381983
*CONN
*I *783:D I *D sky130_fd_sc_hd__dfrtp_4
*I *739:Y O *D sky130_fd_sc_hd__xnor2_1
*CAP
1 *783:D 9.36023e-05
2 *739:Y 9.36023e-05
3 *783:D *117:38 9.7659e-05
4 *783:D *202:31 9.71197e-05
*RES
1 *739:Y *783:D 20.7964 
*END

*D_NET *50 0.000804412
*CONN
*I *784:D I *D sky130_fd_sc_hd__dfrtp_2
*I *741:X O *D sky130_fd_sc_hd__a31o_1
*CAP
1 *784:D 0.000253557
2 *741:X 0.000253557
3 *784:D *692:B1 0.000102197
4 *784:D *692:B2 0.000102197
5 *784:D *740:B1 5.52302e-05
6 *784:D *741:A2 5.80706e-06
7 *784:D *741:A3 3.18676e-05
8 *784:D *784:RESET_B 0
9 *784:D *126:10 0
10 *784:D *126:14 0
*RES
1 *741:X *784:D 32.7607 
*END

*D_NET *51 0.00158798
*CONN
*I *642:C1 I *D sky130_fd_sc_hd__o211ai_1
*I *640:Y O *D sky130_fd_sc_hd__xnor2_1
*CAP
1 *642:C1 0.000513632
2 *640:Y 0.000513632
3 *642:C1 *642:B1 5.80706e-06
4 *642:C1 *717:A1 9.91086e-05
5 *642:C1 *761:RESET_B 0.000267218
6 *642:C1 *125:20 0.000188586
7 *642:C1 *138:33 0
*RES
1 *640:Y *642:C1 35.1179 
*END

*D_NET *52 0.000986027
*CONN
*I *643:B1 I *D sky130_fd_sc_hd__a211o_1
*I *641:X O *D sky130_fd_sc_hd__a2bb2o_1
*CAP
1 *643:B1 0.000294234
2 *641:X 0.000294234
3 *643:B1 *643:A2 0
4 *643:B1 *643:C1 1.02504e-05
5 *643:B1 *668:B1 6.07328e-05
6 *643:B1 *115:18 0.000271352
7 *643:B1 *115:41 5.52238e-05
8 *643:B1 *130:56 0
9 *786:A *643:B1 0
*RES
1 *641:X *643:B1 32.2429 
*END

*D_NET *53 0.00161738
*CONN
*I *643:C1 I *D sky130_fd_sc_hd__a211o_1
*I *642:Y O *D sky130_fd_sc_hd__o211ai_1
*CAP
1 *643:C1 0.000368699
2 *642:Y 0.000368699
3 *643:C1 *668:B1 3.34295e-05
4 *643:C1 *731:A1 6.8646e-06
5 *643:C1 *760:RESET_B 0.000132917
6 *643:C1 *764:RESET_B 0.000449155
7 *643:C1 *798:A 0.000183477
8 *643:C1 *819:A 5.17614e-05
9 *643:C1 *211:24 1.21258e-05
10 *643:B1 *643:C1 1.02504e-05
11 *786:A *643:C1 0
*RES
1 *642:Y *643:C1 36.5464 
*END

*D_NET *54 0.0014492
*CONN
*I *669:A I *D sky130_fd_sc_hd__and4_1
*I *643:X O *D sky130_fd_sc_hd__a211o_1
*CAP
1 *669:A 0.000444461
2 *643:X 0.000444461
3 *669:A *643:A2 9.80173e-05
4 *669:A *81:18 9.10431e-06
5 *669:A *129:55 0.000354105
6 *669:A *130:62 2.24079e-05
7 *669:A *131:21 0
8 *760:D *669:A 7.6644e-05
*RES
1 *643:X *669:A 33.9929 
*END

*D_NET *55 0.00223136
*CONN
*I *647:B1 I *D sky130_fd_sc_hd__a211o_1
*I *644:X O *D sky130_fd_sc_hd__xor2_1
*CAP
1 *647:B1 0.000469942
2 *644:X 0.000469942
3 *647:B1 *647:A2 8.01893e-05
4 *647:B1 *677:S 0
5 *647:B1 *711:S 0.000340059
6 *647:B1 *756:RESET_B 0.000183229
7 *647:B1 *115:99 0.000484524
8 *647:B1 *130:97 0.000181511
9 *647:B1 *135:102 2.19684e-05
*RES
1 *644:X *647:B1 41.2964 
*END

*D_NET *56 0.000414527
*CONN
*I *646:C1 I *D sky130_fd_sc_hd__o211ai_1
*I *645:Y O *D sky130_fd_sc_hd__xnor2_1
*CAP
1 *646:C1 5.82208e-05
2 *645:Y 5.82208e-05
3 *646:C1 *645:B 7.77652e-05
4 *646:C1 *708:A1 3.46775e-05
5 *646:C1 *199:67 0.000185643
*RES
1 *645:Y *646:C1 20.7964 
*END

*D_NET *57 0.000242701
*CONN
*I *647:C1 I *D sky130_fd_sc_hd__a211o_1
*I *646:Y O *D sky130_fd_sc_hd__o211ai_1
*CAP
1 *647:C1 9.63982e-05
2 *646:Y 9.63982e-05
3 *647:C1 *646:A1 4.16383e-05
4 *647:C1 *646:A2 4.1331e-06
5 *647:C1 *790:A 0
6 *647:C1 *130:97 4.1331e-06
7 *647:C1 *199:67 0
*RES
1 *646:Y *647:C1 29.2429 
*END

*D_NET *58 0.00270736
*CONN
*I *669:B I *D sky130_fd_sc_hd__and4_1
*I *647:X O *D sky130_fd_sc_hd__a211o_1
*CAP
1 *669:B 0.000474486
2 *647:X 0.000474486
3 *669:B *711:S 0.000125724
4 *669:B *713:S 0.00021286
5 *669:B *753:CLK 0.000107035
6 *669:B *81:18 0.000554415
7 *669:B *129:55 0.000173659
8 *669:B *129:64 8.33559e-05
9 *669:B *130:97 0.000183726
10 *669:B *131:21 0
11 *760:D *669:B 0.000317609
*RES
1 *647:X *669:B 42.85 
*END

*D_NET *59 0.00460959
*CONN
*I *651:B1 I *D sky130_fd_sc_hd__a211o_1
*I *648:X O *D sky130_fd_sc_hd__xor2_1
*CAP
1 *651:B1 0
2 *648:X 0.00160624
3 *59:16 0.00160624
4 *59:16 *649:A 1.59373e-05
5 *59:16 *649:B 6.58992e-05
6 *59:16 *650:C1 0.00102701
7 *59:16 *651:A1 1.97695e-05
8 *59:16 *651:C1 7.17932e-05
9 *59:16 *670:C 0
10 *59:16 *732:A1 0
11 *59:16 *81:16 0.000108538
12 *59:16 *138:71 8.81564e-05
13 *786:A *59:16 0
*RES
1 *648:X *59:16 43.9964 
2 *59:16 *651:B1 9.3 
*END

*D_NET *60 0.00270988
*CONN
*I *650:C1 I *D sky130_fd_sc_hd__o211ai_1
*I *649:Y O *D sky130_fd_sc_hd__xnor2_1
*CAP
1 *650:C1 0.000335364
2 *649:Y 0.000335364
3 *650:C1 *637:B1 0
4 *650:C1 *649:A 0.000332128
5 *650:C1 *649:B 5.33005e-05
6 *650:C1 *650:B1 5.52302e-05
7 *650:C1 *670:A 0.000514337
8 *650:C1 *75:24 5.71472e-05
9 *59:16 *650:C1 0.00102701
*RES
1 *649:Y *650:C1 40.3857 
*END

*D_NET *61 0.000281864
*CONN
*I *651:C1 I *D sky130_fd_sc_hd__a211o_1
*I *650:Y O *D sky130_fd_sc_hd__o211ai_1
*CAP
1 *651:C1 0.000105035
2 *650:Y 0.000105035
3 *651:C1 *650:A2 0
4 *651:C1 *213:10 0
5 *59:16 *651:C1 7.17932e-05
*RES
1 *650:Y *651:C1 29.5464 
*END

*D_NET *62 0.00153366
*CONN
*I *670:B I *D sky130_fd_sc_hd__and4_1
*I *651:X O *D sky130_fd_sc_hd__a211o_1
*CAP
1 *670:B 0.000385213
2 *651:X 0.000385213
3 *670:B *670:C 0.00015234
4 *670:B *731:S 2.44318e-05
5 *670:B *81:16 0.000586464
*RES
1 *651:X *670:B 34.1893 
*END

*D_NET *63 0.00304099
*CONN
*I *654:C1 I *D sky130_fd_sc_hd__o211ai_1
*I *652:Y O *D sky130_fd_sc_hd__xnor2_1
*CAP
1 *654:C1 0.00109793
2 *652:Y 0.00109793
3 *654:C1 *654:A1 3.34366e-05
4 *654:C1 *654:A2 6.81869e-05
5 *654:C1 *677:S 0.000399835
6 *654:C1 *735:A1 1.76135e-05
7 *654:C1 *779:RESET_B 7.33146e-05
8 *654:C1 *127:123 2.44318e-05
9 *654:C1 *132:22 8.93457e-05
10 *654:C1 *234:21 0.000138967
*RES
1 *652:Y *654:C1 43.9571 
*END

*D_NET *64 0.000847277
*CONN
*I *655:B1 I *D sky130_fd_sc_hd__a211o_1
*I *653:X O *D sky130_fd_sc_hd__a2bb2o_1
*CAP
1 *655:B1 0.000132792
2 *653:X 0.000132792
3 *655:B1 *655:A2 0.000183017
4 *655:B1 *707:A1 2.90164e-05
5 *655:B1 *750:RESET_B 0.000123295
6 *655:B1 *131:57 1.74352e-05
7 *655:B1 *138:71 0.000218679
8 *655:B1 *219:21 1.02504e-05
*RES
1 *653:X *655:B1 31.85 
*END

*D_NET *65 0.00462277
*CONN
*I *655:C1 I *D sky130_fd_sc_hd__a211o_1
*I *654:Y O *D sky130_fd_sc_hd__o211ai_1
*CAP
1 *655:C1 0.000120168
2 *654:Y 0.00165802
3 *65:18 0.00177818
4 *655:C1 *790:A 0.00017309
5 *65:18 *653:A2_N 0.000123939
6 *65:18 *653:B1 5.52302e-05
7 *65:18 *653:B2 5.52238e-05
8 *65:18 *654:A1 0
9 *65:18 *662:B 0
10 *65:18 *663:A2 0
11 *65:18 *675:A0 0.000416633
12 *65:18 *735:A1 7.83659e-05
13 *65:18 *742:D 0
14 *65:18 *743:CLK 1.02936e-05
15 *65:18 *743:D 0
16 *65:18 *753:RESET_B 4.35452e-05
17 *65:18 *75:24 9.60939e-05
18 *65:18 *131:78 1.39841e-05
19 *65:18 *197:94 0
20 *65:18 *225:10 0
21 *65:18 *225:23 0
*RES
1 *654:Y *65:18 49.3 
2 *65:18 *655:C1 16.05 
*END

*D_NET *66 0.00141819
*CONN
*I *669:C I *D sky130_fd_sc_hd__and4_1
*I *655:X O *D sky130_fd_sc_hd__a211o_1
*CAP
1 *669:C 0.00055004
2 *655:X 0.00055004
3 *669:C *789:A 0
4 *669:C *790:A 0
5 *669:C *81:18 0
6 *669:C *115:18 0.000318107
7 *669:C *129:55 0
*RES
1 *655:X *669:C 36.4929 
*END

*D_NET *67 0.000741047
*CONN
*I *659:B1 I *D sky130_fd_sc_hd__a221o_1
*I *656:Y O *D sky130_fd_sc_hd__nand2_1
*CAP
1 *659:B1 0.000312207
2 *656:Y 0.000312207
3 *659:B1 *656:A 1.33343e-05
4 *659:B1 *665:A 0.000103299
5 *659:B1 *727:A1 0
6 *659:B1 *132:65 0
*RES
1 *656:Y *659:B1 31.9393 
*END

*D_NET *68 0.00022726
*CONN
*I *659:B2 I *D sky130_fd_sc_hd__a221o_1
*I *657:X O *D sky130_fd_sc_hd__or2_1
*CAP
1 *659:B2 0.00010678
2 *657:X 0.00010678
3 *659:B2 *659:A1 1.3701e-05
*RES
1 *657:X *659:B2 20.5152 
*END

*D_NET *69 0.00271023
*CONN
*I *660:B1 I *D sky130_fd_sc_hd__a211o_1
*I *658:Y O *D sky130_fd_sc_hd__o22ai_1
*CAP
1 *660:B1 0.00036624
2 *658:Y 0.00036624
3 *660:B1 *658:B1 0.000103253
4 *660:B1 *658:B2 6.05161e-06
5 *660:B1 *660:A1 0.000907869
6 *660:B1 *668:B1 5.33005e-05
7 *660:B1 *787:A 0.000534373
8 *660:B1 *161:37 0.000108118
9 *660:B1 *172:27 0.000264782
*RES
1 *658:Y *660:B1 41.5464 
*END

*D_NET *70 0.00114793
*CONN
*I *660:C1 I *D sky130_fd_sc_hd__a211o_1
*I *659:X O *D sky130_fd_sc_hd__a221o_1
*CAP
1 *660:C1 0.000388813
2 *659:X 0.000388813
3 *660:C1 *660:A2 0
4 *660:C1 *668:B1 0.000226821
5 *845:A *660:C1 0.000143484
*RES
1 *659:X *660:C1 34.4214 
*END

*D_NET *71 0.00155932
*CONN
*I *670:C I *D sky130_fd_sc_hd__and4_1
*I *660:X O *D sky130_fd_sc_hd__a211o_1
*CAP
1 *670:C 0.00030692
2 *660:X 0.00030692
3 *670:C *731:A0 8.00806e-05
4 *670:C *731:A1 9.42015e-05
5 *670:C *732:A1 8.07951e-05
6 *670:C *788:A 7.05982e-05
7 *670:C *819:A 0.000313458
8 *670:C *81:16 1.41029e-05
9 *670:C *123:8 0.0001399
10 *670:C *213:10 0
11 *670:B *670:C 0.00015234
12 *59:16 *670:C 0
*RES
1 *660:X *670:C 35.7607 
*END

*D_NET *72 0.00279521
*CONN
*I *664:B1 I *D sky130_fd_sc_hd__a211o_1
*I *661:X O *D sky130_fd_sc_hd__xor2_1
*CAP
1 *664:B1 0.000800886
2 *661:X 0.000800886
3 *664:B1 *661:B 0.000116757
4 *664:B1 *663:A1 0.000108295
5 *664:B1 *708:S 0
6 *664:B1 *734:A0 3.14163e-05
7 *664:B1 *127:80 0
8 *664:B1 *197:57 3.34295e-05
9 *664:B1 *197:115 0
10 *664:B1 *200:23 0.000903545
*RES
1 *661:X *664:B1 43.4929 
*END

*D_NET *73 0.000448862
*CONN
*I *663:C1 I *D sky130_fd_sc_hd__o211ai_1
*I *662:Y O *D sky130_fd_sc_hd__xnor2_1
*CAP
1 *663:C1 0.000132329
2 *662:Y 0.000132329
3 *663:C1 *662:B 9.90367e-05
4 *663:C1 *663:A2 5.33005e-05
5 *663:C1 *663:B1 3.18676e-05
*RES
1 *662:Y *663:C1 21.2071 
*END

*D_NET *74 0.00209188
*CONN
*I *664:C1 I *D sky130_fd_sc_hd__a211o_1
*I *663:Y O *D sky130_fd_sc_hd__o211ai_1
*CAP
1 *664:C1 0.000276705
2 *663:Y 0.000276705
3 *664:C1 *653:B1 9.41642e-05
4 *664:C1 *662:B 0.000126439
5 *664:C1 *664:A2 9.58423e-05
6 *664:C1 *676:A0 0.000575086
7 *664:C1 *676:A1 9.60939e-05
8 *664:C1 *856:A 5.33005e-05
9 *664:C1 *197:81 0.000135028
10 *664:C1 *197:94 4.27935e-05
11 *664:C1 *226:10 3.17148e-05
12 *857:A *664:C1 0.00028801
*RES
1 *663:Y *664:C1 37.475 
*END

*D_NET *75 0.00501275
*CONN
*I *670:D I *D sky130_fd_sc_hd__and4_1
*I *664:X O *D sky130_fd_sc_hd__a211o_1
*CAP
1 *670:D 0
2 *664:X 0.0017511
3 *75:24 0.0017511
4 *75:24 *650:A1 4.10274e-05
5 *75:24 *650:A2 5.52238e-05
6 *75:24 *650:B1 0.000191657
7 *75:24 *653:B1 0.000142856
8 *75:24 *710:A0 5.33005e-05
9 *75:24 *713:A0 7.37837e-05
10 *75:24 *713:S 8.07313e-05
11 *75:24 *753:RESET_B 6.94994e-05
12 *75:24 *790:A 0.000150632
13 *75:24 *793:A 2.59355e-05
14 *75:24 *846:A 9.40156e-05
15 *75:24 *197:45 1.149e-05
16 *75:24 *219:21 0.000148911
17 *75:24 *231:12 2.286e-05
18 *650:C1 *75:24 5.71472e-05
19 *753:D *75:24 0.000195396
20 *65:18 *75:24 9.60939e-05
*RES
1 *664:X *75:24 45.2286 
2 *75:24 *670:D 9.3 
*END

*D_NET *76 0.00286963
*CONN
*I *668:B1 I *D sky130_fd_sc_hd__a211o_1
*I *665:X O *D sky130_fd_sc_hd__xor2_1
*CAP
1 *668:B1 0.000683165
2 *665:X 0.000683165
3 *668:B1 *643:A2 0
4 *668:B1 *658:B2 3.28534e-05
5 *668:B1 *660:A2 6.86693e-05
6 *668:B1 *666:A 5.10822e-05
7 *668:B1 *668:A1 1.97695e-05
8 *668:B1 *731:A1 7.4826e-05
9 *668:B1 *764:RESET_B 0.000413054
10 *668:B1 *123:8 0.000266473
11 *668:B1 *199:16 3.81e-05
12 *668:B1 *211:12 6.74911e-05
13 *643:B1 *668:B1 6.07328e-05
14 *643:C1 *668:B1 3.34295e-05
15 *660:B1 *668:B1 5.33005e-05
16 *660:C1 *668:B1 0.000226821
17 *845:A *668:B1 9.66977e-05
*RES
1 *665:X *668:B1 44.8321 
*END

*D_NET *77 0.000183859
*CONN
*I *667:C1 I *D sky130_fd_sc_hd__o211ai_1
*I *666:Y O *D sky130_fd_sc_hd__xnor2_1
*CAP
1 *667:C1 6.72779e-05
2 *666:Y 6.72779e-05
3 *667:C1 *666:A 3.18676e-05
4 *667:C1 *667:A1 0
5 *667:C1 *667:B1 1.74352e-05
*RES
1 *666:Y *667:C1 19.975 
*END

*D_NET *78 0.000304849
*CONN
*I *668:C1 I *D sky130_fd_sc_hd__a211o_1
*I *667:Y O *D sky130_fd_sc_hd__o211ai_1
*CAP
1 *668:C1 4.60328e-05
2 *667:Y 4.60328e-05
3 *668:C1 *666:A 0.000154762
4 *668:C1 *731:A1 5.80217e-05
*RES
1 *667:Y *668:C1 29.5464 
*END

*D_NET *79 0.00232396
*CONN
*I *669:D I *D sky130_fd_sc_hd__and4_1
*I *668:X O *D sky130_fd_sc_hd__a211o_1
*CAP
1 *669:D 0.000348517
2 *668:X 0.000348517
3 *669:D *668:A1 0.0001399
4 *669:D *668:A2 5.52238e-05
5 *669:D *716:A1 5.52238e-05
6 *669:D *820:A 0.000399841
7 *669:D *80:8 0.000153182
8 *669:D *81:18 0.000369825
9 *669:D *162:6 0.000215096
10 *669:D *207:21 1.69961e-05
11 *669:D *207:30 0.000221641
*RES
1 *668:X *669:D 38.975 
*END

*D_NET *80 0.00181608
*CONN
*I *671:A1 I *D sky130_fd_sc_hd__a21oi_1
*I *674:B I *D sky130_fd_sc_hd__and3_1
*I *669:X O *D sky130_fd_sc_hd__and4_1
*CAP
1 *671:A1 4.91556e-05
2 *674:B 0.000166077
3 *669:X 0.000346081
4 *80:8 0.000561313
5 *671:A1 *850:A 1.58163e-05
6 *674:B *631:A 8.15095e-05
7 *674:B *198:10 0.00012401
8 *80:8 *631:A 0.000118903
9 *80:8 *81:18 8.26359e-05
10 *669:D *80:8 0.000153182
11 *821:A *80:8 0.000117398
*RES
1 *669:X *80:8 22.1214 
2 *80:8 *674:B 16.8893 
3 *80:8 *671:A1 14.3357 
*END

*D_NET *81 0.00689544
*CONN
*I *671:A2 I *D sky130_fd_sc_hd__a21oi_1
*I *674:C I *D sky130_fd_sc_hd__and3_1
*I *670:X O *D sky130_fd_sc_hd__and4_1
*CAP
1 *671:A2 3.8593e-05
2 *674:C 0.00015852
3 *670:X 0.000595039
4 *81:18 0.000753228
5 *81:16 0.00115115
6 *671:A2 *634:B 3.69047e-06
7 *674:C *631:A 1.17968e-05
8 *674:C *634:B 0.000154762
9 *674:C *847:A 6.97972e-05
10 *674:C *129:27 0
11 *674:C *198:10 2.82057e-05
12 *674:C *207:21 4.81157e-05
13 *81:16 *650:B1 0.000181796
14 *81:16 *731:S 5.71472e-05
15 *81:16 *732:A1 1.46624e-05
16 *81:16 *138:71 0.000965223
17 *81:16 *166:8 0.000186669
18 *81:16 *231:6 5.74499e-06
19 *81:18 *631:A 9.24491e-05
20 *81:18 *129:55 0.000460406
21 *81:18 *131:21 0
22 *81:18 *207:21 0.000189664
23 *669:A *81:18 9.10431e-06
24 *669:B *81:18 0.000554415
25 *669:C *81:18 0
26 *669:D *81:18 0.000369825
27 *670:B *81:16 0.000586464
28 *670:C *81:16 1.41029e-05
29 *776:D *81:16 3.69047e-06
30 *59:16 *81:16 0.000108538
31 *80:8 *81:18 8.26359e-05
*RES
1 *670:X *81:16 37.8179 
2 *81:16 *81:18 17.4286 
3 *81:18 *674:C 17.8893 
4 *81:18 *671:A2 14.3357 
*END

*D_NET *82 0.00161035
*CONN
*I *794:A I *D sky130_fd_sc_hd__clkbuf_2
*I *674:X O *D sky130_fd_sc_hd__and3_1
*CAP
1 *794:A 0.000457058
2 *674:X 0.000457058
3 *794:A *634:B 0.000103267
4 *794:A *725:A1 4.69993e-05
5 *794:A *804:A 9.77274e-05
6 *794:A *129:14 4.70078e-05
7 *794:A *129:27 0
8 *794:A *194:6 0.00014183
9 *794:A *194:14 0.000227539
10 *794:A *198:10 3.18676e-05
*RES
1 *674:X *794:A 36.8679 
*END

*D_NET *83 0.00213546
*CONN
*I *681:B1 I *D sky130_fd_sc_hd__a21oi_1
*I *696:B1 I *D sky130_fd_sc_hd__a211o_1
*I *678:Y O *D sky130_fd_sc_hd__nor2_1
*CAP
1 *681:B1 0.000103464
2 *696:B1 9.03075e-05
3 *678:Y 0.000209076
4 *83:10 0.000402847
5 *681:B1 *681:A2 1.69115e-05
6 *681:B1 *683:A 0.000190335
7 *681:B1 *88:12 5.69618e-05
8 *696:B1 *679:B1 2.51343e-06
9 *696:B1 *112:43 2.95693e-05
10 *696:B1 *204:41 1.40389e-06
11 *83:10 *679:B1 3.54279e-05
12 *83:10 *681:A2 0.000136958
13 *83:10 *203:75 9.90367e-05
14 *83:10 *203:85 0.000260574
15 *83:10 *204:41 5.74921e-05
16 *83:10 *204:52 9.34658e-05
17 *83:10 *204:61 5.33005e-05
18 *696:C1 *696:B1 2.08452e-05
19 *11:16 *696:B1 0.000135028
20 *11:16 *83:10 0.000139943
*RES
1 *678:Y *83:10 15.7286 
2 *83:10 *696:B1 11.3893 
3 *83:10 *681:B1 20.8536 
*END

*D_NET *84 0.00105776
*CONN
*I *695:A1 I *D sky130_fd_sc_hd__a21o_1
*I *681:A1 I *D sky130_fd_sc_hd__a21oi_1
*I *679:X O *D sky130_fd_sc_hd__a211o_1
*CAP
1 *695:A1 6.03471e-05
2 *681:A1 0.000166542
3 *679:X 0
4 *84:6 0.000226889
5 *681:A1 *681:A2 2.26424e-05
6 *681:A1 *686:B 0
7 *681:A1 *690:A 0.000136264
8 *681:A1 *88:6 1.33343e-05
9 *681:A1 *113:12 0.000144556
10 *681:A1 *202:89 8.98027e-05
11 *681:A1 *203:75 9.54798e-06
12 *681:A1 *203:85 1.3743e-05
13 *695:A1 *700:A1 0.000101615
14 *695:A1 *113:27 5.18707e-05
15 *695:A1 *203:75 2.06112e-05
*RES
1 *679:X *84:6 13.8 
2 *84:6 *681:A1 18.1393 
3 *84:6 *695:A1 15.4429 
*END

*D_NET *85 0.000787636
*CONN
*I *681:A2 I *D sky130_fd_sc_hd__a21oi_1
*I *680:X O *D sky130_fd_sc_hd__a211o_1
*CAP
1 *681:A2 0.000125201
2 *680:X 0.000125201
3 *681:A2 *690:A 0
4 *681:A2 *88:12 0.000122941
5 *681:A2 *113:12 0.000100823
6 *681:A1 *681:A2 2.26424e-05
7 *681:B1 *681:A2 1.69115e-05
8 *11:16 *681:A2 0.000136958
9 *83:10 *681:A2 0.000136958
*RES
1 *680:X *681:A2 31.2071 
*END

*D_NET *86 0.00108035
*CONN
*I *689:A1 I *D sky130_fd_sc_hd__o221a_1
*I *681:Y O *D sky130_fd_sc_hd__a21oi_1
*CAP
1 *689:A1 0.000249006
2 *681:Y 0.000249006
3 *689:A1 *679:C1 0.000145795
4 *689:A1 *683:A 0.000108912
5 *689:A1 *705:B1 5.4772e-05
6 *689:A1 *88:6 5.33005e-05
7 *689:A1 *202:89 1.55885e-05
8 *689:A1 *204:41 3.43988e-06
9 *696:C1 *689:A1 0.000122171
10 *748:D *689:A1 7.83587e-05
*RES
1 *681:Y *689:A1 32.6179 
*END

*D_NET *87 0.00457247
*CONN
*I *696:A2 I *D sky130_fd_sc_hd__a211o_1
*I *684:B I *D sky130_fd_sc_hd__and3_1
*I *697:A1 I *D sky130_fd_sc_hd__a21oi_1
*I *682:Y O *D sky130_fd_sc_hd__nand2_1
*CAP
1 *696:A2 0.000147935
2 *684:B 0.000806631
3 *697:A1 0
4 *682:Y 0
5 *87:14 0.00119785
6 *87:6 0.000539156
7 *684:B *673:A 0
8 *684:B *673:B 0
9 *684:B *689:A2 5.03772e-05
10 *684:B *697:A2 5.33334e-05
11 *684:B *749:CLK 2.24225e-05
12 *684:B *205:66 0.00014285
13 *684:B *206:66 8.43535e-06
14 *696:A2 *682:B 5.34196e-05
15 *696:A2 *698:A3 6.48154e-05
16 *696:A2 *705:B1 5.23142e-05
17 *696:A2 *93:8 5.25862e-06
18 *696:A2 *112:43 0.00022018
19 *696:A2 *203:19 3.47641e-06
20 *696:A2 *203:63 1.94135e-05
21 *87:14 *673:A 0
22 *87:14 *682:B 3.39401e-05
23 *87:14 *689:C1 0.000216304
24 *87:14 *692:B2 1.18647e-05
25 *87:14 *697:A2 0
26 *87:14 *697:B1 0.000362531
27 *87:14 *698:A3 5.0772e-05
28 *87:14 *698:B1 0.000315165
29 *87:14 *698:C1 3.67548e-05
30 *87:14 *746:CLK 0
31 *87:14 *749:CLK 1.73568e-05
32 *749:D *684:B 0.000139913
33 *749:D *87:14 0
*RES
1 *682:Y *87:6 13.8 
2 *87:6 *87:14 14.5 
3 *87:14 *697:A1 9.3 
4 *87:14 *684:B 29.3179 
5 *87:6 *696:A2 17.9429 
*END

*D_NET *88 0.00335391
*CONN
*I *690:A I *D sky130_fd_sc_hd__nand2_1
*I *684:C I *D sky130_fd_sc_hd__and3_1
*I *704:C I *D sky130_fd_sc_hd__and3_1
*I *683:X O *D sky130_fd_sc_hd__or2_1
*CAP
1 *690:A 0.000115971
2 *684:C 0.000241128
3 *704:C 4.3885e-05
4 *683:X 6.44826e-05
5 *88:12 0.000695023
6 *88:6 0.000590464
7 *684:C *90:20 0.000251982
8 *684:C *206:70 1.54142e-05
9 *684:C *206:74 5.52302e-05
10 *690:A *678:A 0.000128496
11 *690:A *686:B 9.90367e-05
12 *690:A *95:10 9.25014e-06
13 *690:A *113:12 5.52238e-05
14 *690:A *202:89 1.21289e-05
15 *690:A *204:67 2.39779e-05
16 *704:C *206:74 6.28435e-05
17 *88:6 *202:89 5.97074e-05
18 *88:12 *679:B1 2.6725e-05
19 *88:12 *679:C1 2.6804e-05
20 *88:12 *683:A 4.06087e-07
21 *88:12 *691:B1 3.93893e-05
22 *88:12 *695:B1 2.06178e-05
23 *88:12 *700:A1 2.47093e-05
24 *88:12 *700:B1 8.00806e-05
25 *88:12 *705:B1 0
26 *88:12 *90:20 4.78056e-05
27 *88:12 *113:12 1.3409e-05
28 *88:12 *113:27 0.000118986
29 *88:12 *118:42 2.88424e-05
30 *88:12 *204:41 1.90936e-05
31 *681:A1 *690:A 0.000136264
32 *681:A1 *88:6 1.33343e-05
33 *681:A2 *690:A 0
34 *681:A2 *88:12 0.000122941
35 *681:B1 *88:12 5.69618e-05
36 *689:A1 *88:6 5.33005e-05
*RES
1 *683:X *88:6 10.6571 
2 *88:6 *88:12 17.625 
3 *88:12 *704:C 9.90714 
4 *88:12 *684:C 12.5946 
5 *88:6 *690:A 21.6214 
*END

*D_NET *89 0.00215747
*CONN
*I *689:A2 I *D sky130_fd_sc_hd__o221a_1
*I *684:X O *D sky130_fd_sc_hd__and3_1
*CAP
1 *689:A2 0.000454484
2 *684:X 0.000454484
3 *689:A2 *673:B 7.17836e-05
4 *689:A2 *679:C1 0.000161947
5 *689:A2 *695:A2 9.60939e-05
6 *689:A2 *698:A2 0.000230482
7 *689:A2 *700:B1 0.000155807
8 *689:A2 *701:A 6.05161e-06
9 *689:A2 *704:B 0
10 *689:A2 *92:8 1.24368e-05
11 *689:A2 *95:10 0.00019384
12 *689:A2 *113:27 4.16984e-05
13 *689:A2 *205:66 1.18451e-05
14 *689:A2 *206:10 6.8646e-06
15 *689:A2 *206:12 9.56043e-05
16 *689:A2 *206:14 1.65558e-05
17 *689:A2 *206:66 9.71197e-05
18 *684:B *689:A2 5.03772e-05
*RES
1 *684:X *689:A2 39.8321 
*END

*D_NET *90 0.00431345
*CONN
*I *705:A1 I *D sky130_fd_sc_hd__a221o_1
*I *698:A1 I *D sky130_fd_sc_hd__a311o_1
*I *697:B1 I *D sky130_fd_sc_hd__a21oi_1
*I *689:C1 I *D sky130_fd_sc_hd__o221a_1
*I *685:Y O *D sky130_fd_sc_hd__nand2_1
*CAP
1 *705:A1 0
2 *698:A1 0
3 *697:B1 0.000172506
4 *689:C1 0.000152991
5 *685:Y 0.000381468
6 *90:24 0.000325497
7 *90:22 0.000148624
8 *90:20 0.000530092
9 *689:C1 *682:A 3.89749e-05
10 *689:C1 *682:B 5.52238e-05
11 *689:C1 *689:B2 3.08382e-06
12 *689:C1 *692:B2 2.82057e-05
13 *689:C1 *698:A2 0.000352457
14 *697:B1 *692:B2 4.75715e-05
15 *697:B1 *746:CLK 0
16 *90:20 *684:A 1.04232e-05
17 *90:20 *691:A3 0.00027032
18 *90:20 *700:A1 5.52302e-05
19 *90:20 *700:C1 6.09476e-05
20 *90:20 *705:A2 9.88019e-05
21 *90:20 *705:B2 1.28809e-05
22 *90:20 *95:20 8.46829e-05
23 *90:20 *206:64 2.14658e-05
24 *90:20 *206:66 0.000233636
25 *90:20 *206:70 9.71197e-05
26 *90:22 *691:A3 5.71472e-05
27 *90:22 *698:A3 9.0145e-05
28 *90:22 *705:A2 3.31507e-05
29 *90:22 *706:B1 5.71472e-05
30 *90:22 *118:42 1.50319e-05
31 *684:C *90:20 0.000251982
32 *746:D *697:B1 0
33 *87:14 *689:C1 0.000216304
34 *87:14 *697:B1 0.000362531
35 *88:12 *90:20 4.78056e-05
*RES
1 *685:Y *90:20 28.2643 
2 *90:20 *90:22 3 
3 *90:22 *90:24 4.5 
4 *90:24 *689:C1 18.8536 
5 *90:24 *697:B1 18.4786 
6 *90:22 *698:A1 9.3 
7 *90:20 *705:A1 9.3 
*END

*D_NET *91 0.000763704
*CONN
*I *690:B I *D sky130_fd_sc_hd__nand2_1
*I *686:Y O *D sky130_fd_sc_hd__nand2_1
*CAP
1 *690:B 9.83767e-05
2 *686:Y 9.83767e-05
3 *690:B *686:A 0.000227532
4 *690:B *686:B 4.43157e-05
5 *690:B *687:A 0.00018372
6 *690:B *112:18 0.000111383
7 *690:B *202:89 0
*RES
1 *686:Y *690:B 22.0286 
*END

*D_NET *92 0.00172869
*CONN
*I *694:B I *D sky130_fd_sc_hd__or3b_1
*I *700:B1 I *D sky130_fd_sc_hd__a2111oi_1
*I *687:Y O *D sky130_fd_sc_hd__nor2_1
*CAP
1 *694:B 0
2 *700:B1 0.000267394
3 *687:Y 0.000171896
4 *92:8 0.00043929
5 *700:B1 *700:A1 2.9357e-05
6 *92:8 *687:A 2.58821e-05
7 *92:8 *687:B 2.89114e-05
8 *92:8 *694:A 0.000268396
9 *92:8 *701:A 1.02936e-05
10 *92:8 *701:B 0.000181796
11 *92:8 *702:C1 5.71472e-05
12 *689:A2 *700:B1 0.000155807
13 *689:A2 *92:8 1.24368e-05
14 *88:12 *700:B1 8.00806e-05
*RES
1 *687:Y *92:8 13.9607 
2 *92:8 *700:B1 22.3357 
3 *92:8 *694:B 9.3 
*END

*D_NET *93 0.00215365
*CONN
*I *697:A2 I *D sky130_fd_sc_hd__a21oi_1
*I *689:B1 I *D sky130_fd_sc_hd__o221a_1
*I *688:X O *D sky130_fd_sc_hd__or2_1
*CAP
1 *697:A2 0.000318961
2 *689:B1 1.40355e-05
3 *688:X 0.000200596
4 *93:8 0.000533593
5 *689:B1 *682:A 5.52302e-05
6 *689:B1 *698:A2 2.89114e-05
7 *697:A2 *673:A 7.26841e-05
8 *697:A2 *691:A3 0.000129868
9 *697:A2 *698:A3 0.000182371
10 *697:A2 *698:B1 7.35316e-05
11 *697:A2 *698:C1 1.31516e-05
12 *697:A2 *705:B1 7.47949e-05
13 *697:A2 *705:B2 0
14 *697:A2 *706:B1 4.78056e-05
15 *697:A2 *749:CLK 9.90367e-05
16 *93:8 *698:A3 0.000169103
17 *93:8 *705:B1 3.64727e-05
18 *93:8 *112:37 4.49088e-05
19 *93:8 *203:19 0
20 *684:B *697:A2 5.33334e-05
21 *696:A2 *93:8 5.25862e-06
22 *696:C1 *93:8 0
23 *87:14 *697:A2 0
*RES
1 *688:X *93:8 17.8714 
2 *93:8 *689:B1 14.3357 
3 *93:8 *697:A2 22.4607 
*END

*D_NET *94 0.00379784
*CONN
*I *692:B1 I *D sky130_fd_sc_hd__o22a_1
*I *689:X O *D sky130_fd_sc_hd__o221a_1
*CAP
1 *692:B1 0.00143614
2 *689:X 0.00143614
3 *692:B1 *635:A 1.58163e-05
4 *692:B1 *692:B2 0.000222011
5 *692:B1 *698:A2 0.000566251
6 *692:B1 *784:CLK 1.92905e-05
7 *784:D *692:B1 0.000102197
*RES
1 *689:X *692:B1 37.8321 
*END

*D_NET *95 0.00404944
*CONN
*I *702:A2 I *D sky130_fd_sc_hd__a211o_1
*I *700:A2 I *D sky130_fd_sc_hd__a2111oi_1
*I *691:A3 I *D sky130_fd_sc_hd__a31o_1
*I *690:Y O *D sky130_fd_sc_hd__nand2_1
*CAP
1 *702:A2 9.42908e-05
2 *700:A2 0
3 *691:A3 0.00028688
4 *690:Y 0.000307177
5 *95:20 0.000526016
6 *95:10 0.000640604
7 *691:A3 *691:B1 0
8 *691:A3 *705:B2 0
9 *702:A2 *702:A1 5.52302e-05
10 *702:A2 *702:B1 0.000393949
11 *702:A2 *705:A2 0.000123949
12 *702:A2 *853:A 9.90367e-05
13 *95:10 *679:C1 8.359e-05
14 *95:10 *700:A1 3.82255e-05
15 *95:10 *701:A 0.000138939
16 *95:10 *203:75 2.30116e-06
17 *95:10 *203:85 5.41794e-05
18 *95:10 *204:67 0.000168217
19 *95:10 *205:66 4.02462e-05
20 *95:10 *206:14 0
21 *95:10 *206:18 1.00375e-05
22 *95:20 *700:A1 5.22828e-05
23 *95:20 *700:C1 2.6269e-05
24 *95:20 *702:B1 9.71197e-05
25 *95:20 *705:A2 6.57914e-05
26 *689:A2 *95:10 0.00019384
27 *690:A *95:10 9.25014e-06
28 *697:A2 *691:A3 0.000129868
29 *90:20 *691:A3 0.00027032
30 *90:20 *95:20 8.46829e-05
31 *90:22 *691:A3 5.71472e-05
*RES
1 *690:Y *95:10 25.4071 
2 *95:10 *95:20 4.51786 
3 *95:20 *691:A3 22.9429 
4 *95:20 *700:A2 9.3 
5 *95:10 *702:A2 13.1214 
*END

*D_NET *96 0.00364387
*CONN
*I *692:B2 I *D sky130_fd_sc_hd__o22a_1
*I *691:X O *D sky130_fd_sc_hd__a31o_1
*CAP
1 *692:B2 0.00128063
2 *691:X 0.00128063
3 *692:B2 *635:A 5.33005e-05
4 *692:B2 *682:B 1.10866e-05
5 *692:B2 *695:B1 4.38265e-05
6 *692:B2 *698:A2 0.000172375
7 *692:B2 *699:A1 0
8 *692:B2 *706:B1 0.000219711
9 *692:B2 *784:CLK 5.71472e-05
10 *692:B2 *784:RESET_B 5.01876e-06
11 *692:B2 *204:8 9.25014e-06
12 *689:C1 *692:B2 2.82057e-05
13 *692:B1 *692:B2 0.000222011
14 *697:B1 *692:B2 4.75715e-05
15 *745:D *692:B2 9.90367e-05
16 *746:D *692:B2 0
17 *784:D *692:B2 0.000102197
18 *87:14 *692:B2 1.18647e-05
*RES
1 *691:X *692:B2 49.0107 
*END

*D_NET *97 0.00313053
*CONN
*I *695:B1 I *D sky130_fd_sc_hd__a21o_1
*I *741:A3 I *D sky130_fd_sc_hd__a31o_1
*I *693:X O *D sky130_fd_sc_hd__and2_1
*CAP
1 *695:B1 0.000703727
2 *741:A3 0.000411084
3 *693:X 0
4 *97:6 0.00111481
5 *695:B1 *700:A1 5.7903e-06
6 *695:B1 *784:RESET_B 5.27109e-05
7 *695:B1 *203:69 0.000233349
8 *695:B1 *204:8 2.90068e-05
9 *695:B1 *204:14 1.55773e-05
10 *741:A3 *703:A2 7.83659e-05
11 *741:A3 *740:B1 9.9305e-05
12 *741:A3 *741:B1 1.21812e-05
13 *741:A3 *784:RESET_B 4.46186e-06
14 *741:A3 *112:43 0.00018372
15 *741:A3 *136:83 6.19181e-05
16 *741:A3 *204:14 2.82057e-05
17 *692:B2 *695:B1 4.38265e-05
18 *784:D *741:A3 3.18676e-05
19 *88:12 *695:B1 2.06178e-05
*RES
1 *693:X *97:6 13.8 
2 *97:6 *741:A3 20.8179 
3 *97:6 *695:B1 23.7321 
*END

*D_NET *98 0.000293325
*CONN
*I *695:A2 I *D sky130_fd_sc_hd__a21o_1
*I *694:X O *D sky130_fd_sc_hd__or3b_1
*CAP
1 *695:A2 7.19651e-05
2 *694:X 7.19651e-05
3 *695:A2 *679:C1 5.33005e-05
4 *689:A2 *695:A2 9.60939e-05
*RES
1 *694:X *695:A2 20.2786 
*END

*D_NET *99 0.00179839
*CONN
*I *698:A2 I *D sky130_fd_sc_hd__a311o_1
*I *695:X O *D sky130_fd_sc_hd__a21o_1
*CAP
1 *698:A2 0.00020728
2 *695:X 0.00020728
3 *698:A2 *682:A 2.58706e-05
4 *698:A2 *113:27 7.48301e-06
5 *689:A2 *698:A2 0.000230482
6 *689:B1 *698:A2 2.89114e-05
7 *689:C1 *698:A2 0.000352457
8 *692:B1 *698:A2 0.000566251
9 *692:B2 *698:A2 0.000172375
*RES
1 *695:X *698:A2 35.725 
*END

*D_NET *100 0.00140397
*CONN
*I *698:A3 I *D sky130_fd_sc_hd__a311o_1
*I *696:X O *D sky130_fd_sc_hd__a211o_1
*CAP
1 *698:A3 0.000325091
2 *696:X 0.000325091
3 *698:A3 *698:C1 5.66157e-05
4 *698:A3 *699:A2 0
5 *698:A3 *699:B1 3.99614e-06
6 *698:A3 *118:25 0.000110029
7 *698:A3 *118:42 2.59355e-05
8 *696:A2 *698:A3 6.48154e-05
9 *697:A2 *698:A3 0.000182371
10 *87:14 *698:A3 5.0772e-05
11 *90:22 *698:A3 9.0145e-05
12 *93:8 *698:A3 0.000169103
*RES
1 *696:X *698:A3 35.2964 
*END

*D_NET *101 0.00096399
*CONN
*I *698:B1 I *D sky130_fd_sc_hd__a311o_1
*I *697:Y O *D sky130_fd_sc_hd__a21oi_1
*CAP
1 *698:B1 0.000190272
2 *697:Y 0.000190272
3 *698:B1 *698:C1 1.02504e-05
4 *698:B1 *706:B1 0.000100823
5 *698:B1 *749:CLK 8.36743e-05
6 *697:A2 *698:B1 7.35316e-05
7 *87:14 *698:B1 0.000315165
*RES
1 *697:Y *698:B1 32.6179 
*END

*D_NET *102 0.000143136
*CONN
*I *699:B1 I *D sky130_fd_sc_hd__o21ai_1
*I *698:X O *D sky130_fd_sc_hd__a311o_1
*CAP
1 *699:B1 3.37677e-05
2 *698:X 3.37677e-05
3 *699:B1 *118:25 6.75704e-05
4 *698:A3 *699:B1 3.99614e-06
5 *746:D *699:B1 4.0342e-06
*RES
1 *698:X *699:B1 19.5643 
*END

*D_NET *103 0.0011978
*CONN
*I *702:B1 I *D sky130_fd_sc_hd__a211o_1
*I *700:Y O *D sky130_fd_sc_hd__a2111oi_1
*CAP
1 *702:B1 0.000338265
2 *700:Y 0.000338265
3 *702:B1 *702:A1 3.01979e-05
4 *702:A2 *702:B1 0.000393949
5 *95:20 *702:B1 9.71197e-05
*RES
1 *700:Y *702:B1 24.9036 
*END

*D_NET *104 0.000533834
*CONN
*I *702:C1 I *D sky130_fd_sc_hd__a211o_1
*I *701:X O *D sky130_fd_sc_hd__and3_1
*CAP
1 *702:C1 0.000225088
2 *701:X 0.000225088
3 *702:C1 *687:A 2.65105e-05
4 *702:C1 *205:84 0
5 *92:8 *702:C1 5.71472e-05
*RES
1 *701:X *702:C1 30.9036 
*END

*D_NET *105 0.00192622
*CONN
*I *705:A2 I *D sky130_fd_sc_hd__a221o_1
*I *702:X O *D sky130_fd_sc_hd__a211o_1
*CAP
1 *705:A2 0.000338104
2 *702:X 0.000338104
3 *705:A2 *700:A1 4.59075e-05
4 *705:A2 *700:C1 9.80173e-05
5 *705:A2 *700:D1 9.71197e-05
6 *705:A2 *705:B2 7.70134e-06
7 *705:A2 *853:A 5.71472e-05
8 *705:A2 *118:42 0.00022848
9 *705:A2 *205:34 0.000393949
10 *702:A2 *705:A2 0.000123949
11 *90:20 *705:A2 9.88019e-05
12 *90:22 *705:A2 3.31507e-05
13 *95:20 *705:A2 6.57914e-05
*RES
1 *702:X *705:A2 28.6402 
*END

*D_NET *106 0.00108583
*CONN
*I *705:B1 I *D sky130_fd_sc_hd__a221o_1
*I *703:X O *D sky130_fd_sc_hd__a21o_1
*CAP
1 *705:B1 0.000394794
2 *703:X 0.000394794
3 *705:B1 *705:B2 5.80706e-06
4 *705:B1 *112:37 2.89016e-05
5 *705:B1 *112:43 9.22103e-06
6 *705:B1 *118:42 2.47093e-05
7 *689:A1 *705:B1 5.4772e-05
8 *696:A2 *705:B1 5.23142e-05
9 *696:C1 *705:B1 9.25014e-06
10 *697:A2 *705:B1 7.47949e-05
11 *88:12 *705:B1 0
12 *93:8 *705:B1 3.64727e-05
*RES
1 *703:X *705:B1 34.1536 
*END

*D_NET *107 0.000447792
*CONN
*I *705:B2 I *D sky130_fd_sc_hd__a221o_1
*I *704:X O *D sky130_fd_sc_hd__and3_1
*CAP
1 *705:B2 0.000123265
2 *704:X 0.000123265
3 *705:B2 *691:B1 0.000112323
4 *705:B2 *118:42 9.25014e-06
5 *705:B2 *206:74 5.33005e-05
6 *691:A3 *705:B2 0
7 *697:A2 *705:B2 0
8 *705:A2 *705:B2 7.70134e-06
9 *705:B1 *705:B2 5.80706e-06
10 *90:20 *705:B2 1.28809e-05
*RES
1 *704:X *705:B2 29.908 
*END

*D_NET *108 0.00221458
*CONN
*I *706:B1 I *D sky130_fd_sc_hd__o21a_1
*I *705:X O *D sky130_fd_sc_hd__a221o_1
*CAP
1 *706:B1 0.000717407
2 *705:X 0.000717407
3 *706:B1 *706:A1 0.000317555
4 *706:B1 *706:A2 3.67257e-05
5 *692:B2 *706:B1 0.000219711
6 *697:A2 *706:B1 4.78056e-05
7 *698:B1 *706:B1 0.000100823
8 *90:22 *706:B1 5.71472e-05
*RES
1 *705:X *706:B1 41.1179 
*END

*D_NET *109 0.00130713
*CONN
*I *739:B I *D sky130_fd_sc_hd__xnor2_1
*I *738:A I *D sky130_fd_sc_hd__and2_1
*I *736:Y O *D sky130_fd_sc_hd__nand2_1
*CAP
1 *739:B 0
2 *738:A 2.93912e-05
3 *736:Y 0.000191564
4 *109:14 0.000220955
5 *738:A *737:A 0.000105163
6 *738:A *117:34 0.000185643
7 *109:14 *737:A 0.000200706
8 *109:14 *739:A 1.76039e-05
9 *109:14 *748:CLK 2.44318e-05
10 *109:14 *782:CLK 0.000137983
11 *109:14 *782:RESET_B 2.54632e-05
12 *109:14 *117:34 5.52238e-05
13 *109:14 *126:16 7.79781e-06
14 *109:14 *126:18 9.11365e-06
15 *109:14 *202:23 9.60875e-05
*RES
1 *736:Y *109:14 23.2643 
2 *109:14 *738:A 11.0679 
3 *109:14 *739:B 9.3 
*END

*D_NET *110 0.000561461
*CONN
*I *738:B I *D sky130_fd_sc_hd__and2_1
*I *737:X O *D sky130_fd_sc_hd__or2_1
*CAP
1 *738:B 3.35905e-05
2 *737:X 3.35905e-05
3 *738:B *737:A 0.000276211
4 *738:B *117:19 0.000144773
5 *738:B *117:34 7.32955e-05
*RES
1 *737:X *738:B 21.1893 
*END

*D_NET *111 0.000216101
*CONN
*I *741:B1 I *D sky130_fd_sc_hd__a31o_1
*I *740:Y O *D sky130_fd_sc_hd__a31oi_1
*CAP
1 *741:B1 6.11702e-05
2 *740:Y 6.11702e-05
3 *741:B1 *740:A1 5.71472e-05
4 *741:B1 *740:B1 2.44318e-05
5 *741:B1 *745:CLK 0
6 *741:A3 *741:B1 1.21812e-05
*RES
1 *740:Y *741:B1 19.975 
*END

*D_NET *112 0.00691029
*CONN
*I *687:A I *D sky130_fd_sc_hd__nor2_1
*I *696:A1 I *D sky130_fd_sc_hd__a211o_1
*I *693:A I *D sky130_fd_sc_hd__and2_1
*I *740:B1 I *D sky130_fd_sc_hd__a31oi_1
*I *688:A I *D sky130_fd_sc_hd__or2_1
*I *628:Y O *D sky130_fd_sc_hd__inv_2
*CAP
1 *687:A 0.000451159
2 *696:A1 0
3 *693:A 0
4 *740:B1 0.000110085
5 *688:A 0.00015383
6 *628:Y 0
7 *112:43 0.000415281
8 *112:37 0.000459071
9 *112:18 0.000807448
10 *112:4 0.000950902
11 *687:A *687:B 5.52302e-05
12 *687:A *694:A 2.59355e-05
13 *687:A *136:53 0.000203364
14 *687:A *205:10 0.000242913
15 *687:A *205:19 0.000162832
16 *688:A *688:B 0
17 *688:A *202:70 0.00010096
18 *740:B1 *740:A1 5.71472e-05
19 *740:B1 *203:34 0.000536146
20 *112:18 *683:A 9.90431e-05
21 *112:18 *686:B 8.05572e-05
22 *112:18 *703:A2 0
23 *112:18 *202:89 0.000304561
24 *112:37 *688:B 0
25 *112:37 *203:19 0
26 *112:43 *703:B1 4.27935e-05
27 *112:43 *203:25 0.000242436
28 *112:43 *203:34 2.77173e-05
29 *690:B *687:A 0.00018372
30 *690:B *112:18 0.000111383
31 *696:A2 *112:43 0.00022018
32 *696:B1 *112:43 2.95693e-05
33 *696:C1 *112:37 6.84115e-05
34 *701:C *687:A 6.04072e-05
35 *702:C1 *687:A 2.65105e-05
36 *705:B1 *112:37 2.89016e-05
37 *705:B1 *112:43 9.22103e-06
38 *741:A3 *740:B1 9.9305e-05
39 *741:A3 *112:43 0.00018372
40 *741:B1 *740:B1 2.44318e-05
41 *748:D *112:18 4.43126e-05
42 *748:D *112:37 0.000164787
43 *784:D *740:B1 5.52302e-05
44 *92:8 *687:A 2.58821e-05
45 *93:8 *112:37 4.49088e-05
*RES
1 *628:Y *112:4 9.3 
2 *112:4 *112:18 12.8839 
3 *112:18 *688:A 16.3804 
4 *112:18 *112:37 8.04464 
5 *112:37 *112:43 7.33929 
6 *112:43 *740:B1 14.3536 
7 *112:43 *693:A 9.3 
8 *112:37 *696:A1 9.3 
9 *112:4 *687:A 28.3714 
*END

*D_NET *113 0.0033372
*CONN
*I *678:A I *D sky130_fd_sc_hd__nor2_1
*I *689:B2 I *D sky130_fd_sc_hd__o221a_1
*I *682:A I *D sky130_fd_sc_hd__nand2_1
*I *679:A2 I *D sky130_fd_sc_hd__a211o_1
*I *629:Y O *D sky130_fd_sc_hd__inv_2
*CAP
1 *678:A 0.000291463
2 *689:B2 1.64811e-05
3 *682:A 0.000107982
4 *679:A2 0
5 *629:Y 0
6 *113:27 0.000477352
7 *113:12 0.000494442
8 *113:4 0.000433017
9 *678:A *680:C1 1.02504e-05
10 *678:A *686:B 0.00018113
11 *678:A *136:53 0.000170661
12 *678:A *204:67 6.8646e-06
13 *682:A *682:B 1.05731e-05
14 *113:27 *679:C1 0.000181796
15 *681:A1 *113:12 0.000144556
16 *681:A2 *113:12 0.000100823
17 *689:A2 *113:27 4.16984e-05
18 *689:B1 *682:A 5.52302e-05
19 *689:C1 *682:A 3.89749e-05
20 *689:C1 *689:B2 3.08382e-06
21 *690:A *678:A 0.000128496
22 *690:A *113:12 5.52238e-05
23 *695:A1 *113:27 5.18707e-05
24 *698:A2 *682:A 2.58706e-05
25 *698:A2 *113:27 7.48301e-06
26 *11:10 *678:A 0.000136006
27 *11:42 *678:A 3.34783e-05
28 *88:12 *113:12 1.3409e-05
29 *88:12 *113:27 0.000118986
*RES
1 *629:Y *113:4 9.3 
2 *113:4 *113:12 7.51786 
3 *113:12 *679:A2 13.8 
4 *113:12 *113:27 9.98214 
5 *113:27 *682:A 11.4964 
6 *113:27 *689:B2 9.72857 
7 *113:4 *678:A 24.5143 
*END

*D_NET *114 0.000648259
*CONN
*I *796:A I *D sky130_fd_sc_hd__clkbuf_2
*I *631:Y O *D sky130_fd_sc_hd__inv_2
*CAP
1 *796:A 0.000303854
2 *631:Y 0.000303854
3 *796:A *131:21 4.0552e-05
*RES
1 *631:Y *796:A 23.2429 
*END

*D_NET *115 0.020342
*CONN
*I *699:A1 I *D sky130_fd_sc_hd__o21ai_1
*I *654:A1 I *D sky130_fd_sc_hd__o211ai_1
*I *638:A1 I *D sky130_fd_sc_hd__o211ai_1
*I *637:B2 I *D sky130_fd_sc_hd__a2bb2o_1
*I *653:B2 I *D sky130_fd_sc_hd__a2bb2o_1
*I *641:B2 I *D sky130_fd_sc_hd__a2bb2o_1
*I *642:A1 I *D sky130_fd_sc_hd__o211ai_1
*I *659:A2 I *D sky130_fd_sc_hd__a221o_1
*I *658:B2 I *D sky130_fd_sc_hd__o22ai_1
*I *632:Y O *D sky130_fd_sc_hd__inv_2
*CAP
1 *699:A1 0.00086346
2 *654:A1 0.000926994
3 *638:A1 0.000272061
4 *637:B2 6.8877e-05
5 *653:B2 1.42885e-05
6 *641:B2 0
7 *642:A1 0.00025323
8 *659:A2 0.000267638
9 *658:B2 0.000639492
10 *632:Y 0
11 *115:99 0.00138886
12 *115:93 0.00225056
13 *115:80 0.000734944
14 *115:41 0.000918934
15 *115:18 0.00194909
16 *115:6 0.00146674
17 *115:4 0.000973653
18 *638:A1 *639:A2 0.000171375
19 *638:A1 *639:C1 0.000388501
20 *638:A1 *754:CLK 2.89114e-05
21 *638:A1 *132:49 0.00020042
22 *638:A1 *135:102 1.95646e-05
23 *638:A1 *217:19 3.57366e-05
24 *642:A1 *642:B1 1.10802e-05
25 *642:A1 *798:A 5.49489e-05
26 *642:A1 *138:33 9.11048e-06
27 *642:A1 *211:24 0.000362203
28 *653:B2 *653:A2_N 5.33005e-05
29 *654:A1 *654:A2 2.05938e-05
30 *654:A1 *662:A 0.000161947
31 *654:A1 *663:A1 0.000481575
32 *654:A1 *735:A1 3.06406e-05
33 *654:A1 *780:D 0.000153047
34 *654:A1 *132:22 2.84494e-05
35 *654:A1 *197:94 0
36 *654:A1 *199:67 4.43256e-05
37 *654:A1 *223:10 0
38 *658:B2 *643:A2 0
39 *658:B2 *658:A1 8.61138e-05
40 *658:B2 *658:A2 9.97963e-05
41 *658:B2 *666:A 0.000344917
42 *658:B2 *667:A2 0
43 *658:B2 *731:A1 0
44 *658:B2 *766:RESET_B 0
45 *658:B2 *134:36 4.46186e-06
46 *658:B2 *199:16 7.90803e-05
47 *658:B2 *210:10 0
48 *658:B2 *211:12 0.000126439
49 *659:A2 *659:A1 0.000120034
50 *659:A2 *720:A0 2.36643e-05
51 *659:A2 *720:A1 5.65955e-05
52 *659:A2 *720:S 5.99974e-05
53 *699:A1 *699:A2 9.90431e-05
54 *699:A1 *706:A1 6.75007e-05
55 *699:A1 *747:RESET_B 0
56 *699:A1 *118:25 5.62995e-05
57 *699:A1 *126:82 0
58 *699:A1 *199:44 0
59 *699:A1 *199:57 0
60 *699:A1 *200:23 0.00039299
61 *115:6 *632:A 2.89016e-05
62 *115:18 *641:A1_N 4.43256e-05
63 *115:18 *641:A2_N 9.90367e-05
64 *115:18 *716:A0 0.00010096
65 *115:41 *720:A0 2.6269e-05
66 *115:41 *720:A1 8.2607e-05
67 *115:41 *211:14 9.0145e-05
68 *115:41 *211:24 0.000128419
69 *115:80 *789:A 0
70 *115:80 *790:A 0
71 *115:80 *127:14 7.89133e-05
72 *115:80 *127:20 3.34783e-05
73 *115:80 *131:57 0.000128233
74 *115:80 *138:71 8.32171e-05
75 *115:80 *199:57 0.000135245
76 *115:93 *750:RESET_B 0
77 *115:93 *127:10 0.00013966
78 *115:93 *127:12 0.000138939
79 *115:93 *127:14 5.41794e-05
80 *115:93 *127:80 0
81 *115:93 *131:57 1.00375e-05
82 *115:93 *137:45 0
83 *115:93 *199:57 4.00025e-05
84 *115:99 *647:A2 0.000111442
85 *115:99 *130:97 2.77289e-05
86 *115:99 *199:67 0.00016345
87 *115:99 *216:14 0.000249501
88 *643:B1 *115:18 0.000271352
89 *643:B1 *115:41 5.52238e-05
90 *647:B1 *115:99 0.000484524
91 *654:C1 *654:A1 3.34366e-05
92 *660:B1 *658:B2 6.05161e-06
93 *668:B1 *658:B2 3.28534e-05
94 *669:C *115:18 0.000318107
95 *692:B2 *699:A1 0
96 *746:D *699:A1 9.17495e-05
97 *760:D *115:18 6.80966e-05
98 *786:A *638:A1 6.92626e-05
99 *65:18 *653:B2 5.52238e-05
100 *65:18 *654:A1 0
*RES
1 *632:Y *115:4 9.3 
2 *115:4 *115:6 1.35714 
3 *115:6 *115:18 18.0893 
4 *115:18 *658:B2 31.9964 
5 *115:18 *115:41 6.42857 
6 *115:41 *659:A2 14.1839 
7 *115:41 *642:A1 23.8714 
8 *115:18 *641:B2 9.3 
9 *115:6 *115:80 13.9643 
10 *115:80 *653:B2 14.3357 
11 *115:80 *115:93 10.3929 
12 *115:93 *115:99 15.0536 
13 *115:99 *637:B2 10.2464 
14 *115:99 *638:A1 26.3 
15 *115:93 *654:A1 33.1393 
16 *115:4 *699:A1 33.5143 
*END

*D_NET *116 0.00150261
*CONN
*I *659:C1 I *D sky130_fd_sc_hd__a221o_1
*I *633:Y O *D sky130_fd_sc_hd__inv_2
*CAP
1 *659:C1 0.000554138
2 *633:Y 0.000554138
3 *659:C1 *633:A 7.43578e-06
4 *659:C1 *642:B1 0
5 *659:C1 *659:A1 0
6 *659:C1 *667:B1 7.83587e-05
7 *659:C1 *727:A1 0
8 *659:C1 *133:20 0
9 *659:C1 *133:22 0
10 *659:C1 *172:41 4.07257e-05
11 *771:D *659:C1 0.000267814
*RES
1 *633:Y *659:C1 38.0286 
*END

*D_NET *117 0.00734796
*CONN
*I *635:A I *D sky130_fd_sc_hd__inv_2
*I *706:A2 I *D sky130_fd_sc_hd__o21a_1
*I *699:A2 I *D sky130_fd_sc_hd__o21ai_1
*I *740:A3 I *D sky130_fd_sc_hd__a31oi_1
*I *741:A2 I *D sky130_fd_sc_hd__a31o_1
*I *736:B I *D sky130_fd_sc_hd__nand2_1
*I *692:A2 I *D sky130_fd_sc_hd__o22a_1
*I *737:B I *D sky130_fd_sc_hd__or2_1
*I *634:X O *D sky130_fd_sc_hd__or2_2
*CAP
1 *635:A 2.25053e-05
2 *706:A2 0.000189807
3 *699:A2 0.000379514
4 *740:A3 0
5 *741:A2 0.000193167
6 *736:B 0.00011486
7 *692:A2 0.000270778
8 *737:B 0.000184188
9 *634:X 0
10 *117:79 0.000749361
11 *117:75 0.00030178
12 *117:66 0.00019324
13 *117:38 0.00041366
14 *117:34 0.000481734
15 *117:19 0.000717356
16 *117:4 0.000348672
17 *692:A2 *634:B 0
18 *692:A2 *674:A 0
19 *692:A2 *725:A1 0.000202842
20 *692:A2 *739:A 0
21 *692:A2 *192:10 3.51442e-05
22 *699:A2 *671:B1 5.52302e-05
23 *699:A2 *118:25 0.000231654
24 *706:A2 *789:A 0
25 *706:A2 *126:71 5.26277e-05
26 *706:A2 *126:82 0
27 *736:B *126:16 1.19309e-05
28 *736:B *126:18 1.69115e-05
29 *736:B *202:31 6.19181e-05
30 *736:B *202:35 2.66026e-05
31 *737:B *634:A 8.07313e-05
32 *741:A2 *136:83 0
33 *741:A2 *202:31 4.70078e-05
34 *741:A2 *202:35 0.000177948
35 *741:A2 *202:55 1.92905e-05
36 *117:19 *634:A 0.000183713
37 *117:19 *674:A 0.000198352
38 *117:19 *737:A 4.88637e-05
39 *117:34 *737:A 4.16899e-05
40 *117:66 *739:A 0
41 *117:66 *126:14 4.73656e-05
42 *117:66 *126:16 0.000128161
43 *117:75 *739:A 0
44 *117:75 *126:14 0.000170654
45 *117:79 *789:A 0
46 *117:79 *118:10 0.000127439
47 *117:79 *126:10 1.5942e-05
48 *117:79 *126:71 2.46999e-05
49 *692:B1 *635:A 1.58163e-05
50 *692:B2 *635:A 5.33005e-05
51 *698:A3 *699:A2 0
52 *699:A1 *699:A2 9.90431e-05
53 *706:B1 *706:A2 3.67257e-05
54 *738:A *117:34 0.000185643
55 *738:B *117:19 0.000144773
56 *738:B *117:34 7.32955e-05
57 *745:D *692:A2 0
58 *746:D *699:A2 1.33343e-05
59 *783:D *117:38 9.7659e-05
60 *784:D *741:A2 5.80706e-06
61 *109:14 *117:34 5.52238e-05
*RES
1 *634:X *117:4 9.3 
2 *117:4 *737:B 12.3357 
3 *117:4 *117:19 5.78571 
4 *117:19 *692:A2 23.2821 
5 *117:19 *117:34 5.48214 
6 *117:34 *117:38 2.19643 
7 *117:38 *736:B 20.8536 
8 *117:38 *741:A2 22.3179 
9 *117:34 *117:66 6.75 
10 *117:66 *740:A3 13.8 
11 *117:66 *117:75 2.25 
12 *117:75 *117:79 3.69643 
13 *117:79 *699:A2 21.3357 
14 *117:79 *706:A2 17.3 
15 *117:75 *635:A 14.3357 
*END

*D_NET *118 0.00487503
*CONN
*I *691:B1 I *D sky130_fd_sc_hd__a31o_1
*I *705:C1 I *D sky130_fd_sc_hd__a221o_1
*I *698:C1 I *D sky130_fd_sc_hd__a311o_1
*I *671:B1 I *D sky130_fd_sc_hd__a21oi_1
*I *635:Y O *D sky130_fd_sc_hd__inv_2
*CAP
1 *691:B1 0.000117903
2 *705:C1 0
3 *698:C1 2.75203e-05
4 *671:B1 0.00036988
5 *635:Y 5.29867e-05
6 *118:42 0.000405886
7 *118:25 0.000914674
8 *118:10 0.00102204
9 *671:B1 *850:A 0.00010096
10 *671:B1 *192:10 0.000106467
11 *691:B1 *691:A2 5.33334e-05
12 *691:B1 *206:74 9.90367e-05
13 *118:10 *126:10 5.24274e-05
14 *118:10 *126:71 1.17968e-05
15 *118:25 *126:8 0.000274294
16 *691:A3 *691:B1 0
17 *697:A2 *698:C1 1.31516e-05
18 *698:A3 *698:C1 5.66157e-05
19 *698:A3 *118:25 0.000110029
20 *698:A3 *118:42 2.59355e-05
21 *698:B1 *698:C1 1.02504e-05
22 *699:A1 *118:25 5.62995e-05
23 *699:A2 *671:B1 5.52302e-05
24 *699:A2 *118:25 0.000231654
25 *699:B1 *118:25 6.75704e-05
26 *705:A2 *118:42 0.00022848
27 *705:B1 *118:42 2.47093e-05
28 *705:B2 *691:B1 0.000112323
29 *705:B2 *118:42 9.25014e-06
30 *746:D *118:25 1.68715e-05
31 *87:14 *698:C1 3.67548e-05
32 *88:12 *691:B1 3.93893e-05
33 *88:12 *118:42 2.88424e-05
34 *90:22 *118:42 1.50319e-05
35 *117:79 *118:10 0.000127439
*RES
1 *635:Y *118:10 19.9429 
2 *118:10 *671:B1 16.7286 
3 *118:10 *118:25 11.3571 
4 *118:25 *698:C1 19.3357 
5 *118:25 *118:42 8.94643 
6 *118:42 *705:C1 13.8 
7 *118:42 *691:B1 16.9964 
*END

*D_NET *119 0.00500912
*CONN
*I *638:C1 I *D sky130_fd_sc_hd__o211ai_1
*I *636:Y O *D sky130_fd_sc_hd__xnor2_1
*CAP
1 *638:C1 0
2 *636:Y 0.00161413
3 *119:16 0.00161413
4 *119:16 *636:B 3.70556e-05
5 *119:16 *638:B1 0.000237634
6 *119:16 *732:A0 0
7 *119:16 *732:A1 0
8 *119:16 *733:S 0.000143625
9 *119:16 *755:CLK 0.000664293
10 *119:16 *196:79 0.000271352
11 *119:16 *221:6 1.36511e-05
12 *119:16 *221:21 8.25843e-06
13 *755:D *119:16 0.000140933
14 *778:D *119:16 5.52238e-05
15 *786:A *119:16 0.000109792
16 *809:A *119:16 9.90431e-05
*RES
1 *636:Y *119:16 42.675 
2 *119:16 *638:C1 9.3 
*END

*D_NET *120 0.000751673
*CONN
*I *639:B1 I *D sky130_fd_sc_hd__a211o_1
*I *637:X O *D sky130_fd_sc_hd__a2bb2o_1
*CAP
1 *639:B1 0.000168986
2 *637:X 0.000168986
3 *639:B1 *639:A1 0.000253859
4 *639:B1 *639:A2 7.71257e-05
5 *639:B1 *756:RESET_B 3.5707e-05
6 *639:B1 *805:A 4.70078e-05
*RES
1 *637:X *639:B1 31.9571 
*END

*D_NET *121 0.00142392
*CONN
*I *639:C1 I *D sky130_fd_sc_hd__a211o_1
*I *638:Y O *D sky130_fd_sc_hd__o211ai_1
*CAP
1 *639:C1 0.000274468
2 *638:Y 0.000274468
3 *639:C1 *754:CLK 8.43535e-06
4 *639:C1 *217:19 0.00014285
5 *638:A1 *639:C1 0.000388501
6 *786:A *639:C1 0.000335201
*RES
1 *638:Y *639:C1 34.1536 
*END

*D_NET *122 0.00130012
*CONN
*I *670:A I *D sky130_fd_sc_hd__and4_1
*I *639:X O *D sky130_fd_sc_hd__a211o_1
*CAP
1 *670:A 0.000323453
2 *639:X 0.000323453
3 *670:A *637:B1 0
4 *670:A *650:B1 0.000138881
5 *650:C1 *670:A 0.000514337
6 *786:A *670:A 0
*RES
1 *639:X *670:A 35.4571 
*END

*D_NET *123 0.0108323
*CONN
*I *790:A I *D sky130_fd_sc_hd__clkbuf_16
*I *789:A I *D sky130_fd_sc_hd__clkbuf_16
*I *788:A I *D sky130_fd_sc_hd__clkbuf_16
*I *787:A I *D sky130_fd_sc_hd__clkbuf_16
*I *786:X O *D sky130_fd_sc_hd__clkbuf_16
*CAP
1 *790:A 0.000548496
2 *789:A 0.000672603
3 *788:A 0.000782478
4 *787:A 0.000239087
5 *786:X 0
6 *123:32 0.00161742
7 *123:8 0.0016187
8 *123:4 0.000993456
9 *787:A *720:A1 1.40849e-05
10 *787:A *764:D 0.000132516
11 *787:A *172:27 0.000175512
12 *787:A *211:24 0
13 *788:A *731:A1 0
14 *788:A *731:S 1.78447e-05
15 *788:A *732:A1 0.000209483
16 *788:A *819:A 0.000313458
17 *788:A *125:10 0.00078169
18 *788:A *138:27 0
19 *788:A *211:24 0
20 *788:A *214:8 8.89385e-05
21 *789:A *763:CLK 0.000149812
22 *789:A *126:82 0
23 *789:A *199:44 0
24 *789:A *199:57 0
25 *790:A *646:A2 7.34455e-06
26 *790:A *707:A1 0.000284699
27 *790:A *130:97 0
28 *790:A *199:67 1.02504e-05
29 *790:A *219:21 5.72222e-05
30 *790:A *219:32 8.66324e-05
31 *123:8 *660:A2 5.73015e-05
32 *123:8 *129:55 0.000165264
33 *123:8 *130:62 0.000312209
34 *123:32 *129:55 1.21258e-05
35 *647:C1 *790:A 0
36 *655:C1 *790:A 0.00017309
37 *660:B1 *787:A 0.000534373
38 *668:B1 *123:8 0.000266473
39 *669:C *789:A 0
40 *669:C *790:A 0
41 *670:C *788:A 7.05982e-05
42 *670:C *123:8 0.0001399
43 *706:A2 *789:A 0
44 *747:D *789:A 2.28335e-05
45 *753:D *790:A 0
46 *776:D *788:A 0.000125724
47 *821:A *789:A 0
48 *75:24 *790:A 0.000150632
49 *115:80 *789:A 0
50 *115:80 *790:A 0
51 *117:79 *789:A 0
*RES
1 *786:X *123:4 9.3 
2 *123:4 *123:8 16.125 
3 *123:8 *787:A 21.2107 
4 *123:8 *788:A 30.2464 
5 *123:4 *123:32 10.375 
6 *123:32 *789:A 26.0679 
7 *123:32 *790:A 25.7643 
*END

*D_NET *124 0.0116629
*CONN
*I *764:CLK I *D sky130_fd_sc_hd__dfrtp_1
*I *771:CLK I *D sky130_fd_sc_hd__dfrtp_1
*I *767:CLK I *D sky130_fd_sc_hd__dfrtp_1
*I *772:CLK I *D sky130_fd_sc_hd__dfrtp_1
*I *774:CLK I *D sky130_fd_sc_hd__dfrtp_1
*I *775:CLK I *D sky130_fd_sc_hd__dfrtp_1
*I *766:CLK I *D sky130_fd_sc_hd__dfrtp_1
*I *770:CLK I *D sky130_fd_sc_hd__dfrtp_1
*I *785:CLK I *D sky130_fd_sc_hd__dfrtp_1
*I *781:CLK I *D sky130_fd_sc_hd__dfrtp_1
*I *769:CLK I *D sky130_fd_sc_hd__dfrtp_1
*I *773:CLK I *D sky130_fd_sc_hd__dfrtp_1
*I *759:CLK I *D sky130_fd_sc_hd__dfrtp_1
*I *787:X O *D sky130_fd_sc_hd__clkbuf_16
*CAP
1 *764:CLK 7.25459e-05
2 *771:CLK 0
3 *767:CLK 0
4 *772:CLK 0.000328105
5 *774:CLK 0
6 *775:CLK 0.000491772
7 *766:CLK 0.000360067
8 *770:CLK 9.90494e-05
9 *785:CLK 0
10 *781:CLK 0
11 *769:CLK 0.000305757
12 *773:CLK 0
13 *759:CLK 0.000241169
14 *787:X 0.00013965
15 *124:93 0.000491772
16 *124:73 0.000543058
17 *124:64 0.000477115
18 *124:57 0.000811565
19 *124:42 0.00101509
20 *124:35 0.000290946
21 *124:24 0.000376033
22 *124:22 0.000486367
23 *124:20 0.000790197
24 *124:16 0.000593373
25 *124:14 0.000804988
26 *124:8 0.000534402
27 *759:CLK *759:D 4.79842e-05
28 *764:CLK *642:B1 0.000116474
29 *766:CLK *730:A0 0
30 *766:CLK *731:A1 4.03318e-05
31 *766:CLK *134:36 0
32 *766:CLK *141:8 0
33 *766:CLK *161:37 0
34 *769:CLK *759:RESET_B 0
35 *769:CLK *769:RESET_B 1.24368e-05
36 *769:CLK *133:24 0
37 *769:CLK *133:26 0
38 *770:CLK *141:8 0
39 *770:CLK *161:18 0
40 *772:CLK *862:A 0.000176096
41 *775:CLK *774:RESET_B 2.29097e-05
42 *775:CLK *775:RESET_B 7.17235e-05
43 *124:8 *208:21 6.38037e-05
44 *124:14 *642:B1 0.000248493
45 *124:14 *667:B1 4.79384e-05
46 *124:14 *771:RESET_B 0.000182977
47 *124:16 *771:RESET_B 0.000250163
48 *124:22 *728:A 0
49 *124:57 *773:RESET_B 2.51837e-05
50 *124:57 *228:10 7.61932e-05
51 *124:64 *781:D 0.000209798
52 *124:64 *781:RESET_B 9.69072e-05
53 *124:73 *781:RESET_B 7.73232e-05
54 *766:D *766:CLK 4.48113e-05
55 *767:D *772:CLK 0
56 *767:D *124:22 0
57 *770:D *766:CLK 4.57538e-05
58 *770:D *770:CLK 5.94737e-05
59 *771:D *124:14 4.63736e-05
60 *773:D *759:CLK 2.19684e-05
61 *773:D *769:CLK 0
62 *773:D *124:22 0.000121948
63 *773:D *124:24 7.27028e-05
64 *774:D *775:CLK 7.77751e-05
65 *785:D *770:CLK 0.000152333
66 *860:A *759:CLK 0
*RES
1 *787:X *124:8 15.5679 
2 *124:8 *124:14 12.3036 
3 *124:14 *124:16 8.75 
4 *124:16 *124:20 6.26786 
5 *124:20 *124:22 7.41071 
6 *124:22 *124:24 2.55357 
7 *124:24 *759:CLK 18.7821 
8 *124:24 *124:35 4.5 
9 *124:35 *773:CLK 9.3 
10 *124:35 *124:42 4.64286 
11 *124:42 *769:CLK 23.4429 
12 *124:42 *124:57 7.51786 
13 *124:57 *781:CLK 9.3 
14 *124:57 *124:64 8.33929 
15 *124:64 *785:CLK 9.3 
16 *124:64 *124:73 6.26786 
17 *124:73 *770:CLK 16.3536 
18 *124:73 *766:CLK 20.9071 
19 *124:22 *124:93 4.5 
20 *124:93 *775:CLK 18.0679 
21 *124:93 *774:CLK 9.3 
22 *124:20 *772:CLK 20.9071 
23 *124:16 *767:CLK 9.3 
24 *124:14 *771:CLK 9.3 
25 *124:8 *764:CLK 15.4429 
*END

*D_NET *125 0.0174276
*CONN
*I *756:CLK I *D sky130_fd_sc_hd__dfrtp_1
*I *776:CLK I *D sky130_fd_sc_hd__dfrtp_1
*I *761:CLK I *D sky130_fd_sc_hd__dfrtp_1
*I *778:CLK I *D sky130_fd_sc_hd__dfrtp_1
*I *777:CLK I *D sky130_fd_sc_hd__dfrtp_1
*I *758:CLK I *D sky130_fd_sc_hd__dfrtp_1
*I *755:CLK I *D sky130_fd_sc_hd__dfrtp_1
*I *754:CLK I *D sky130_fd_sc_hd__dfrtp_1
*I *757:CLK I *D sky130_fd_sc_hd__dfrtp_1
*I *762:CLK I *D sky130_fd_sc_hd__dfrtp_1
*I *791:A I *D sky130_fd_sc_hd__clkbuf_4
*I *765:CLK I *D sky130_fd_sc_hd__dfrtp_1
*I *768:CLK I *D sky130_fd_sc_hd__dfrtp_1
*I *788:X O *D sky130_fd_sc_hd__clkbuf_16
*CAP
1 *756:CLK 0.000200793
2 *776:CLK 0
3 *761:CLK 0
4 *778:CLK 0.000410405
5 *777:CLK 0
6 *758:CLK 0
7 *755:CLK 0.00024405
8 *754:CLK 0.000349812
9 *757:CLK 0
10 *762:CLK 0
11 *791:A 0.000641819
12 *765:CLK 0
13 *768:CLK 9.56757e-05
14 *788:X 0
15 *125:102 0.00101639
16 *125:93 0.000765842
17 *125:76 0.000544802
18 *125:62 0.000892156
19 *125:53 0.000542344
20 *125:51 0.000522351
21 *125:40 0.00119535
22 *125:31 0.000443982
23 *125:20 0.000973023
24 *125:14 0.000687118
25 *125:10 0.00054838
26 *125:4 0.00066749
27 *754:CLK *757:D 6.74893e-05
28 *754:CLK *135:24 2.89016e-05
29 *754:CLK *135:58 0.000164847
30 *754:CLK *135:83 0.000158169
31 *754:CLK *135:102 0.000826186
32 *754:CLK *138:25 0.000173951
33 *754:CLK *217:8 0.000198352
34 *754:CLK *217:19 0.000126629
35 *755:CLK *636:A 0.000624791
36 *755:CLK *636:B 6.94242e-05
37 *768:CLK *768:D 3.79467e-05
38 *778:CLK *777:RESET_B 9.58026e-05
39 *778:CLK *778:RESET_B 0.000235164
40 *778:CLK *232:8 2.27416e-05
41 *125:10 *761:RESET_B 1.99099e-05
42 *125:10 *765:RESET_B 9.71197e-05
43 *125:10 *135:28 1.08359e-05
44 *125:10 *135:30 6.1684e-05
45 *125:10 *212:25 6.07626e-05
46 *125:14 *640:B 7.27028e-05
47 *125:14 *761:RESET_B 0.000108848
48 *125:14 *212:25 4.1331e-06
49 *125:20 *640:A 9.90431e-05
50 *125:20 *640:B 0.000105163
51 *125:20 *768:D 9.90431e-05
52 *125:51 *762:D 0
53 *125:62 *757:D 2.89114e-05
54 *125:62 *762:D 7.77652e-05
55 *125:62 *762:RESET_B 0.000172629
56 *125:62 *800:A 7.32955e-05
57 *125:62 *135:24 0.000170964
58 *125:62 *138:25 4.51526e-05
59 *125:76 *762:D 0
60 *125:93 *803:A 8.07313e-05
61 *125:102 *803:A 0.00028234
62 *638:A1 *754:CLK 2.89114e-05
63 *639:C1 *754:CLK 8.43535e-06
64 *642:C1 *125:20 0.000188586
65 *758:D *125:93 0
66 *765:D *125:31 3.79467e-05
67 *786:A *755:CLK 0.000118391
68 *788:A *125:10 0.00078169
69 *859:A *125:76 0.000214944
70 *859:A *125:93 0.000141226
71 *119:16 *755:CLK 0.000664293
*RES
1 *788:X *125:4 9.3 
2 *125:4 *125:10 15.9107 
3 *125:10 *125:14 7.05357 
4 *125:14 *125:20 15.625 
5 *125:20 *768:CLK 15.7464 
6 *125:20 *125:31 5.28571 
7 *125:31 *765:CLK 13.8 
8 *125:31 *125:40 3.16071 
9 *125:40 *791:A 23.3714 
10 *125:40 *125:51 6.80357 
11 *125:51 *125:53 4.5 
12 *125:53 *762:CLK 9.3 
13 *125:53 *125:62 11.2321 
14 *125:62 *757:CLK 9.3 
15 *125:62 *754:CLK 23.3893 
16 *125:51 *125:76 3.16071 
17 *125:76 *755:CLK 22.5679 
18 *125:76 *125:93 8.21429 
19 *125:93 *758:CLK 9.3 
20 *125:93 *125:102 11.6429 
21 *125:102 *777:CLK 9.3 
22 *125:102 *778:CLK 17.6393 
23 *125:14 *761:CLK 9.3 
24 *125:10 *776:CLK 13.8 
25 *125:4 *756:CLK 12.3 
*END

*D_NET *126 0.011681
*CONN
*I *749:CLK I *D sky130_fd_sc_hd__dfrtp_4
*I *746:CLK I *D sky130_fd_sc_hd__dfrtp_4
*I *763:CLK I *D sky130_fd_sc_hd__dfrtp_1
*I *747:CLK I *D sky130_fd_sc_hd__dfrtp_1
*I *792:A I *D sky130_fd_sc_hd__bufinv_16
*I *784:CLK I *D sky130_fd_sc_hd__dfrtp_2
*I *745:CLK I *D sky130_fd_sc_hd__dfrtp_1
*I *783:CLK I *D sky130_fd_sc_hd__dfrtp_4
*I *782:CLK I *D sky130_fd_sc_hd__dfrtp_2
*I *748:CLK I *D sky130_fd_sc_hd__dfrtp_4
*I *789:X O *D sky130_fd_sc_hd__clkbuf_16
*CAP
1 *749:CLK 0.000231434
2 *746:CLK 0.000138821
3 *763:CLK 0.000238289
4 *747:CLK 0.000162742
5 *792:A 0
6 *784:CLK 1.29046e-05
7 *745:CLK 9.24465e-05
8 *783:CLK 0
9 *782:CLK 0.000735345
10 *748:CLK 0.000632277
11 *789:X 0.000172884
12 *126:112 0.000868946
13 *126:84 0.000656768
14 *126:82 0.00086953
15 *126:71 0.000305302
16 *126:18 0.00143418
17 *126:16 0.000172619
18 *126:14 0.000369275
19 *126:10 0.000274428
20 *126:8 0.000453841
21 *745:CLK *739:A 7.32173e-05
22 *746:CLK *200:23 0
23 *748:CLK *737:A 2.61337e-05
24 *748:CLK *782:RESET_B 0.000756229
25 *748:CLK *202:23 5.52302e-05
26 *748:CLK *202:31 5.41794e-05
27 *749:CLK *811:A 5.33433e-05
28 *763:CLK *763:D 2.28499e-05
29 *763:CLK *199:16 0.000534222
30 *782:CLK *782:RESET_B 4.51458e-05
31 *126:14 *202:35 0
32 *126:16 *202:35 0
33 *126:18 *737:A 4.66203e-05
34 *126:18 *202:31 7.83659e-05
35 *126:112 *811:A 0.000122091
36 *126:112 *200:6 2.15245e-05
37 *684:B *749:CLK 2.24225e-05
38 *692:B1 *784:CLK 1.92905e-05
39 *692:B2 *784:CLK 5.71472e-05
40 *697:A2 *749:CLK 9.90367e-05
41 *697:B1 *746:CLK 0
42 *698:B1 *749:CLK 8.36743e-05
43 *699:A1 *126:82 0
44 *706:A2 *126:71 5.26277e-05
45 *706:A2 *126:82 0
46 *736:B *126:16 1.19309e-05
47 *736:B *126:18 1.69115e-05
48 *741:B1 *745:CLK 0
49 *746:D *746:CLK 6.95299e-05
50 *747:D *747:CLK 6.05161e-06
51 *747:D *763:CLK 5.66157e-05
52 *747:D *126:82 0
53 *747:D *126:84 2.59355e-05
54 *748:D *748:CLK 7.43578e-06
55 *749:D *746:CLK 0
56 *749:D *749:CLK 7.43578e-06
57 *784:D *126:10 0
58 *784:D *126:14 0
59 *789:A *763:CLK 0.000149812
60 *789:A *126:82 0
61 *821:A *763:CLK 0.00036192
62 *87:14 *746:CLK 0
63 *87:14 *749:CLK 1.73568e-05
64 *109:14 *748:CLK 2.44318e-05
65 *109:14 *782:CLK 0.000137983
66 *109:14 *126:16 7.79781e-06
67 *109:14 *126:18 9.11365e-06
68 *117:66 *126:14 4.73656e-05
69 *117:66 *126:16 0.000128161
70 *117:75 *126:14 0.000170654
71 *117:79 *126:10 1.5942e-05
72 *117:79 *126:71 2.46999e-05
73 *118:10 *126:10 5.24274e-05
74 *118:10 *126:71 1.17968e-05
75 *118:25 *126:8 0.000274294
*RES
1 *789:X *126:8 16.3893 
2 *126:8 *126:10 1.94643 
3 *126:10 *126:14 3.39286 
4 *126:14 *126:16 2.25 
5 *126:16 *126:18 1.64286 
6 *126:18 *748:CLK 27.6929 
7 *126:18 *782:CLK 22.8714 
8 *126:16 *783:CLK 13.8 
9 *126:14 *745:CLK 15.5857 
10 *126:10 *784:CLK 14.3357 
11 *126:8 *126:71 3.69643 
12 *126:71 *792:A 13.8 
13 *126:71 *126:82 6.44643 
14 *126:82 *126:84 3 
15 *126:84 *747:CLK 11.3893 
16 *126:84 *763:CLK 26.8179 
17 *126:82 *126:112 7.25 
18 *126:112 *746:CLK 21.1571 
19 *126:112 *749:CLK 14.0857 
*END

*D_NET *127 0.0128026
*CONN
*I *744:CLK I *D sky130_fd_sc_hd__dfrtp_1
*I *752:CLK I *D sky130_fd_sc_hd__dfrtp_1
*I *779:CLK I *D sky130_fd_sc_hd__dfrtp_1
*I *751:CLK I *D sky130_fd_sc_hd__dfrtp_1
*I *780:CLK I *D sky130_fd_sc_hd__dfrtp_1
*I *793:A I *D sky130_fd_sc_hd__clkinv_2
*I *743:CLK I *D sky130_fd_sc_hd__dfrtp_1
*I *742:CLK I *D sky130_fd_sc_hd__dfrtp_1
*I *750:CLK I *D sky130_fd_sc_hd__dfrtp_1
*I *760:CLK I *D sky130_fd_sc_hd__dfrtp_1
*I *753:CLK I *D sky130_fd_sc_hd__dfrtp_1
*I *790:X O *D sky130_fd_sc_hd__clkbuf_16
*CAP
1 *744:CLK 5.9502e-05
2 *752:CLK 0.000646675
3 *779:CLK 0
4 *751:CLK 0.000327259
5 *780:CLK 0.000193233
6 *793:A 2.3932e-05
7 *743:CLK 0.000180968
8 *742:CLK 2.78957e-05
9 *750:CLK 0
10 *760:CLK 3.82418e-05
11 *753:CLK 0.000407496
12 *790:X 0
13 *127:123 0.000915113
14 *127:110 0.000352215
15 *127:95 0.00076094
16 *127:80 0.000684651
17 *127:44 0.000205085
18 *127:20 0.00124442
19 *127:14 0.0010613
20 *127:12 0.000318722
21 *127:10 0.000295365
22 *127:4 0.000420122
23 *742:CLK *801:A 1.39726e-05
24 *743:CLK *653:A2_N 0.000221641
25 *743:CLK *675:A0 0.000149489
26 *743:CLK *131:78 0.000268396
27 *744:CLK *677:S 0
28 *744:CLK *734:A1 4.78056e-05
29 *744:CLK *224:25 0.000114045
30 *751:CLK *751:RESET_B 8.73973e-06
31 *751:CLK *137:37 4.66989e-07
32 *751:CLK *137:43 3.55552e-05
33 *752:CLK *709:A1 0.000183027
34 *752:CLK *709:S 2.79421e-05
35 *752:CLK *752:D 0.00014285
36 *753:CLK *713:A1 0
37 *753:CLK *713:S 9.25014e-06
38 *753:CLK *716:A0 0
39 *753:CLK *131:21 3.5707e-05
40 *780:CLK *708:S 5.52302e-05
41 *780:CLK *780:RESET_B 0.000277898
42 *793:A *197:45 2.59355e-05
43 *127:10 *662:A 6.4443e-05
44 *127:10 *199:57 0.000148911
45 *127:10 *199:67 1.58163e-05
46 *127:12 *199:57 0.000146474
47 *127:14 *199:57 0.000216304
48 *127:20 *707:A0 2.44318e-05
49 *127:20 *707:A1 0.000186669
50 *127:20 *707:S 0.000109325
51 *127:20 *138:71 8.15095e-05
52 *127:20 *199:57 0.000148903
53 *127:44 *801:A 0.000154993
54 *127:44 *222:29 0.000114577
55 *127:80 *663:A1 3.88892e-05
56 *127:80 *137:45 0
57 *127:80 *199:57 0
58 *127:95 *708:S 0.000101545
59 *127:95 *137:37 1.05947e-05
60 *127:95 *137:43 0
61 *127:110 *708:S 0
62 *127:110 *137:29 1.41029e-05
63 *127:110 *137:37 5.01213e-05
64 *127:110 *197:115 0
65 *127:123 *652:B 0.000121573
66 *127:123 *677:S 0.000186669
67 *127:123 *734:A1 4.46186e-06
68 *127:123 *132:22 9.88371e-05
69 *127:123 *224:25 0.000128875
70 *654:C1 *127:123 2.44318e-05
71 *664:B1 *127:80 0
72 *669:B *753:CLK 0.000107035
73 *815:A *743:CLK 9.80173e-05
74 *827:A *127:95 0
75 *827:A *127:110 8.73652e-05
76 *827:A *127:123 5.52302e-05
77 *65:18 *743:CLK 1.02936e-05
78 *75:24 *793:A 2.59355e-05
79 *115:80 *127:14 7.89133e-05
80 *115:80 *127:20 3.34783e-05
81 *115:93 *127:10 0.00013966
82 *115:93 *127:12 0.000138939
83 *115:93 *127:14 5.41794e-05
84 *115:93 *127:80 0
*RES
1 *790:X *127:4 9.3 
2 *127:4 *127:10 8.625 
3 *127:10 *127:12 1.94643 
4 *127:12 *127:14 2.85714 
5 *127:14 *127:20 15.6071 
6 *127:20 *753:CLK 24.55 
7 *127:20 *760:CLK 10.0321 
8 *127:14 *127:44 8.73214 
9 *127:44 *750:CLK 9.3 
10 *127:44 *742:CLK 9.83571 
11 *127:12 *743:CLK 19.2821 
12 *127:10 *793:A 14.3357 
13 *127:4 *127:80 7.96429 
14 *127:80 *780:CLK 18.0321 
15 *127:80 *127:95 8.73214 
16 *127:95 *751:CLK 13.4429 
17 *127:95 *127:110 12.1607 
18 *127:110 *779:CLK 9.3 
19 *127:110 *127:123 10.2679 
20 *127:123 *752:CLK 22.4607 
21 *127:123 *744:CLK 15.4429 
*END

*D_NET *128 0.000917514
*CONN
*I *634:A I *D sky130_fd_sc_hd__or2_2
*I *858:X O *D sky130_fd_sc_hd__clkbuf_1
*CAP
1 *634:A 0.000283606
2 *858:X 0.000283606
3 *634:A *634:B 3.34295e-05
4 *634:A *161:12 0
5 *737:B *634:A 8.07313e-05
6 *782:D *634:A 5.24274e-05
7 *117:19 *634:A 0.000183713
*RES
1 *858:X *634:A 33.4393 
*END

*D_NET *129 0.0140246
*CONN
*I *677:S I *D sky130_fd_sc_hd__mux2_1
*I *805:A I *D sky130_fd_sc_hd__clkbuf_4
*I *806:A I *D sky130_fd_sc_hd__clkbuf_4
*I *716:S I *D sky130_fd_sc_hd__mux2_1
*I *719:S I *D sky130_fd_sc_hd__mux2_1
*I *804:A I *D sky130_fd_sc_hd__clkbuf_4
*I *794:X O *D sky130_fd_sc_hd__clkbuf_2
*CAP
1 *677:S 0.00102223
2 *805:A 0.000449385
3 *806:A 0
4 *716:S 0
5 *719:S 0
6 *804:A 6.23423e-05
7 *794:X 0.000338839
8 *129:64 0.00170554
9 *129:55 0.000951339
10 *129:38 0.000894112
11 *129:27 0.000659503
12 *129:14 0.000883993
13 *677:S *646:B1 0
14 *677:S *652:B 0.000272371
15 *677:S *677:A0 2.44318e-05
16 *677:S *677:A1 0.000274294
17 *677:S *711:S 4.97825e-05
18 *677:S *734:A1 4.78056e-05
19 *677:S *744:D 0.000154762
20 *677:S *132:22 3.24102e-05
21 *677:S *132:37 0.00036192
22 *677:S *137:29 0.000143025
23 *677:S *220:10 0
24 *677:S *220:14 0
25 *677:S *224:25 0
26 *804:A *725:A1 0.000274294
27 *804:A *725:S 0
28 *804:A *194:6 9.90431e-05
29 *805:A *639:A2 0.000298228
30 *805:A *649:A 0.00114142
31 *805:A *711:S 1.05524e-05
32 *129:14 *725:A1 0.00010946
33 *129:14 *161:18 1.88048e-05
34 *129:14 *194:14 8.80589e-05
35 *129:27 *658:A2 0.000160657
36 *129:27 *847:A 0
37 *129:27 *130:30 8.16036e-05
38 *129:27 *131:21 4.57445e-05
39 *129:27 *134:36 0
40 *129:27 *161:18 2.37761e-05
41 *129:27 *161:31 4.25716e-05
42 *129:27 *207:21 0
43 *129:38 *716:A1 0.000319316
44 *129:38 *820:A 2.26424e-05
45 *129:38 *130:30 3.34687e-05
46 *129:38 *130:43 0.000157231
47 *129:38 *130:56 0
48 *129:38 *131:21 9.10431e-06
49 *129:55 *713:A0 0.000153054
50 *129:55 *716:A0 0.000100823
51 *129:55 *130:43 9.25014e-06
52 *129:55 *130:56 0.000173097
53 *129:55 *130:62 6.05161e-06
54 *129:55 *131:21 0
55 *129:64 *646:A1 0
56 *129:64 *711:S 8.54149e-05
57 *129:64 *713:A0 1.02504e-05
58 *129:64 *130:97 0
59 *129:64 *167:8 0.00014209
60 *129:64 *220:14 0
61 *639:B1 *805:A 4.70078e-05
62 *647:B1 *677:S 0
63 *654:C1 *677:S 0.000399835
64 *669:A *129:55 0.000354105
65 *669:B *129:55 0.000173659
66 *669:B *129:64 8.33559e-05
67 *669:C *129:55 0
68 *674:C *129:27 0
69 *744:CLK *677:S 0
70 *753:D *129:55 0
71 *770:D *129:14 5.33005e-05
72 *794:A *804:A 9.77274e-05
73 *794:A *129:14 4.70078e-05
74 *794:A *129:27 0
75 *81:18 *129:55 0.000460406
76 *123:8 *129:55 0.000165264
77 *123:32 *129:55 1.21258e-05
78 *127:123 *677:S 0.000186669
*RES
1 *794:X *129:14 19.7286 
2 *129:14 *804:A 16.8179 
3 *129:14 *129:27 9.83929 
4 *129:27 *719:S 13.8 
5 *129:27 *129:38 5.51786 
6 *129:38 *716:S 13.8 
7 *129:38 *129:55 26.4464 
8 *129:55 *806:A 13.8 
9 *129:55 *129:64 5.4375 
10 *129:64 *805:A 26.2732 
11 *129:64 *677:S 46.2018 
*END

*D_NET *130 0.0108924
*CONN
*I *639:A1 I *D sky130_fd_sc_hd__a211o_1
*I *646:A1 I *D sky130_fd_sc_hd__o211ai_1
*I *647:A1 I *D sky130_fd_sc_hd__a211o_1
*I *637:A1_N I *D sky130_fd_sc_hd__a2bb2o_1
*I *643:A1 I *D sky130_fd_sc_hd__a211o_1
*I *660:A2 I *D sky130_fd_sc_hd__a211o_1
*I *641:A1_N I *D sky130_fd_sc_hd__a2bb2o_1
*I *668:A1 I *D sky130_fd_sc_hd__a211o_1
*I *658:A2 I *D sky130_fd_sc_hd__o22ai_1
*I *667:A1 I *D sky130_fd_sc_hd__o211ai_1
*I *795:X O *D sky130_fd_sc_hd__buf_2
*CAP
1 *639:A1 0.000300664
2 *646:A1 0.000255339
3 *647:A1 0
4 *637:A1_N 0
5 *643:A1 0
6 *660:A2 0.000205666
7 *641:A1_N 6.76074e-05
8 *668:A1 0.000221261
9 *658:A2 0.000549642
10 *667:A1 7.90666e-05
11 *795:X 0
12 *130:97 0.000613102
13 *130:82 0.000357763
14 *130:80 0.000824927
15 *130:62 0.000295775
16 *130:56 0.000744156
17 *130:43 0.000322437
18 *130:30 0.000423415
19 *130:17 0.000699081
20 *130:4 0.000151399
21 *639:A1 *639:A2 0.000193435
22 *639:A1 *756:RESET_B 0
23 *641:A1_N *641:A2_N 5.52238e-05
24 *646:A1 *645:B 9.90431e-05
25 *646:A1 *646:A2 5.52302e-05
26 *646:A1 *708:A1 0.00018153
27 *658:A2 *766:RESET_B 0.000198705
28 *658:A2 *134:36 5.17901e-05
29 *660:A2 *643:A2 3.57366e-05
30 *667:A1 *667:A2 3.48705e-05
31 *667:A1 *795:A 0
32 *668:A1 *668:A2 4.88637e-05
33 *130:17 *667:A2 5.71472e-05
34 *130:17 *795:A 2.59355e-05
35 *130:30 *766:RESET_B 0.000211913
36 *130:43 *766:RESET_B 8.98585e-05
37 *130:43 *210:10 0.000113887
38 *130:56 *643:A2 6.94775e-05
39 *130:56 *716:A0 2.14378e-05
40 *130:56 *210:10 1.08359e-05
41 *130:62 *643:A2 8.21467e-05
42 *130:80 *650:A1 7.78278e-05
43 *130:80 *713:A1 0.000117189
44 *130:80 *713:S 0
45 *130:80 *716:A0 0.000437227
46 *130:80 *756:RESET_B 0
47 *130:97 *647:A2 6.5647e-05
48 *130:97 *216:14 0.000269422
49 *639:B1 *639:A1 0.000253859
50 *643:B1 *130:56 0
51 *647:B1 *130:97 0.000181511
52 *647:C1 *646:A1 4.16383e-05
53 *647:C1 *130:97 4.1331e-06
54 *658:B2 *658:A2 9.97963e-05
55 *660:C1 *660:A2 0
56 *667:C1 *667:A1 0
57 *668:B1 *660:A2 6.86693e-05
58 *668:B1 *668:A1 1.97695e-05
59 *669:A *130:62 2.24079e-05
60 *669:B *130:97 0.000183726
61 *669:D *668:A1 0.0001399
62 *756:D *130:80 3.34672e-05
63 *786:A *639:A1 0
64 *786:A *130:56 9.69119e-06
65 *786:A *130:62 5.52302e-05
66 *786:A *130:80 0
67 *790:A *130:97 0
68 *115:18 *641:A1_N 4.43256e-05
69 *115:99 *130:97 2.77289e-05
70 *123:8 *660:A2 5.73015e-05
71 *123:8 *130:62 0.000312209
72 *129:27 *658:A2 0.000160657
73 *129:27 *130:30 8.16036e-05
74 *129:38 *130:30 3.34687e-05
75 *129:38 *130:43 0.000157231
76 *129:38 *130:56 0
77 *129:55 *130:43 9.25014e-06
78 *129:55 *130:56 0.000173097
79 *129:55 *130:62 6.05161e-06
80 *129:64 *646:A1 0
81 *129:64 *130:97 0
*RES
1 *795:X *130:4 9.3 
2 *130:4 *667:A1 10.9786 
3 *130:4 *130:17 5.85714 
4 *130:17 *658:A2 23.0321 
5 *130:17 *130:30 2.85714 
6 *130:30 *668:A1 17.1214 
7 *130:30 *130:43 4.07143 
8 *130:43 *641:A1_N 15.1571 
9 *130:43 *130:56 3.39286 
10 *130:56 *130:62 7.92857 
11 *130:62 *660:A2 13.1571 
12 *130:62 *643:A1 9.3 
13 *130:56 *130:80 11.9643 
14 *130:80 *130:82 4.5 
15 *130:82 *637:A1_N 9.3 
16 *130:82 *130:97 12.8929 
17 *130:97 *647:A1 13.8 
18 *130:97 *646:A1 19.175 
19 *130:80 *639:A1 19.1929 
*END

*D_NET *131 0.0102531
*CONN
*I *655:A1 I *D sky130_fd_sc_hd__a211o_1
*I *663:A1 I *D sky130_fd_sc_hd__o211ai_1
*I *664:A1 I *D sky130_fd_sc_hd__a211o_1
*I *653:A1_N I *D sky130_fd_sc_hd__a2bb2o_1
*I *650:A1 I *D sky130_fd_sc_hd__o211ai_1
*I *651:A1 I *D sky130_fd_sc_hd__a211o_1
*I *795:A I *D sky130_fd_sc_hd__buf_2
*I *796:X O *D sky130_fd_sc_hd__clkbuf_2
*CAP
1 *655:A1 1.17582e-05
2 *663:A1 0.000402309
3 *664:A1 0
4 *653:A1_N 0
5 *650:A1 0.000162087
6 *651:A1 9.44962e-05
7 *795:A 0.000113097
8 *796:X 0
9 *131:78 0.000859477
10 *131:57 0.000857783
11 *131:47 0.000785199
12 *131:23 0.000417198
13 *131:21 0.00129155
14 *131:4 0.000871201
15 *651:A1 *824:A 9.41642e-05
16 *651:A1 *138:71 2.28499e-05
17 *655:A1 *655:A2 4.61598e-05
18 *663:A1 *662:A 0.000654909
19 *663:A1 *662:B 0.000105163
20 *663:A1 *664:A2 7.05375e-05
21 *663:A1 *197:57 3.51442e-05
22 *663:A1 *199:57 0
23 *131:21 *716:A0 0.000171885
24 *131:21 *716:A1 0.000130296
25 *131:21 *820:A 0.000121573
26 *131:21 *207:21 0
27 *131:23 *824:A 5.52302e-05
28 *131:23 *138:71 0.000134539
29 *131:47 *655:A2 3.18676e-05
30 *131:47 *138:71 0.000315674
31 *131:57 *655:A2 0.000256866
32 *131:57 *750:RESET_B 0.000219734
33 *131:57 *138:71 2.85e-05
34 *131:78 *653:A2_N 0.000112869
35 *131:78 *664:A2 1.02504e-05
36 *131:78 *197:57 0.000143919
37 *131:78 *199:57 0
38 *654:A1 *663:A1 0.000481575
39 *655:B1 *131:57 1.74352e-05
40 *664:B1 *663:A1 0.000108295
41 *667:A1 *795:A 0
42 *669:A *131:21 0
43 *669:B *131:21 0
44 *743:CLK *131:78 0.000268396
45 *753:CLK *131:21 3.5707e-05
46 *756:D *650:A1 2.59355e-05
47 *760:D *131:21 0
48 *786:A *650:A1 0.000236333
49 *796:A *131:21 4.0552e-05
50 *59:16 *651:A1 1.97695e-05
51 *65:18 *131:78 1.39841e-05
52 *75:24 *650:A1 4.10274e-05
53 *81:18 *131:21 0
54 *115:80 *131:57 0.000128233
55 *115:93 *131:57 1.00375e-05
56 *127:80 *663:A1 3.88892e-05
57 *129:27 *131:21 4.57445e-05
58 *129:38 *131:21 9.10431e-06
59 *129:55 *131:21 0
60 *130:17 *795:A 2.59355e-05
61 *130:80 *650:A1 7.78278e-05
*RES
1 *796:X *131:4 9.3 
2 *131:4 *795:A 11.2821 
3 *131:4 *131:21 24.25 
4 *131:21 *131:23 3 
5 *131:23 *651:A1 11.0857 
6 *131:23 *650:A1 22.4071 
7 *131:21 *131:47 7.10714 
8 *131:47 *131:57 16.7143 
9 *131:57 *653:A1_N 9.3 
10 *131:57 *131:78 12.4286 
11 *131:78 *664:A1 13.8 
12 *131:78 *663:A1 25.7286 
13 *131:47 *655:A1 9.72857 
*END

*D_NET *132 0.0183562
*CONN
*I *661:A I *D sky130_fd_sc_hd__xor2_1
*I *644:A I *D sky130_fd_sc_hd__xor2_1
*I *636:A I *D sky130_fd_sc_hd__xnor2_1
*I *648:A I *D sky130_fd_sc_hd__xor2_1
*I *640:A I *D sky130_fd_sc_hd__xnor2_1
*I *665:A I *D sky130_fd_sc_hd__xor2_1
*I *656:B I *D sky130_fd_sc_hd__nand2_1
*I *657:B I *D sky130_fd_sc_hd__or2_1
*I *727:A1 I *D sky130_fd_sc_hd__mux2_1
*I *652:A I *D sky130_fd_sc_hd__xnor2_1
*I *797:X O *D sky130_fd_sc_hd__clkbuf_4
*CAP
1 *661:A 0.000183671
2 *644:A 0.000141767
3 *636:A 0.000324294
4 *648:A 7.00058e-05
5 *640:A 3.75792e-05
6 *665:A 0.000133368
7 *656:B 0
8 *657:B 0
9 *727:A1 0.00027148
10 *652:A 0
11 *797:X 6.3685e-05
12 *132:65 0.000376519
13 *132:61 0.000123342
14 *132:59 0.000428174
15 *132:53 0.000758845
16 *132:51 0.000595497
17 *132:49 0.00209752
18 *132:37 0.00244608
19 *132:22 0.00169406
20 *132:8 0.00132959
21 *636:A *636:B 0.000317546
22 *636:A *715:A1 0.000178111
23 *636:A *718:A1 0.000101545
24 *636:A *215:8 0
25 *644:A *732:A0 5.59013e-05
26 *644:A *733:A0 0.000274294
27 *644:A *733:S 5.52302e-05
28 *644:A *221:21 8.71761e-05
29 *661:A *661:B 0.00032853
30 *665:A *656:A 5.12878e-05
31 *727:A1 *727:A0 0.000185643
32 *727:A1 *849:A 0.000280531
33 *727:A1 *133:20 7.80714e-06
34 *727:A1 *194:74 0.000165416
35 *132:8 *661:B 3.38136e-05
36 *132:8 *854:A 4.1331e-06
37 *132:22 *652:B 0.000274294
38 *132:22 *654:A2 8.50152e-05
39 *132:22 *661:B 1.19402e-05
40 *132:22 *751:D 7.77652e-05
41 *132:22 *779:RESET_B 0.000264685
42 *132:22 *813:A 7.25605e-05
43 *132:22 *200:23 0
44 *132:22 *234:21 0
45 *132:37 *135:102 0.000178922
46 *132:37 *220:10 5.41494e-05
47 *132:49 *711:A1 0.000183852
48 *132:49 *714:A0 2.47833e-05
49 *132:49 *714:A1 1.21258e-05
50 *132:49 *718:S 0.000542631
51 *132:49 *756:RESET_B 0
52 *132:49 *135:102 0
53 *132:49 *196:51 6.47486e-05
54 *132:51 *718:A1 0.000151333
55 *132:53 *640:B 0
56 *132:53 *718:A1 0.000320031
57 *132:53 *721:A1 7.39637e-05
58 *132:53 *212:25 0
59 *132:59 *656:A 2.59355e-05
60 *132:59 *721:A1 4.25809e-05
61 *132:59 *724:A0 9.1799e-05
62 *132:59 *724:A1 0.00014183
63 *132:59 *724:S 5.80706e-06
64 *132:59 *133:18 0.000123912
65 *132:59 *183:25 2.14658e-05
66 *132:61 *656:A 5.7661e-06
67 *132:61 *183:25 5.7661e-06
68 *132:65 *849:A 2.31791e-05
69 *132:65 *133:18 7.79781e-06
70 *132:65 *183:21 0.000101545
71 *638:A1 *132:49 0.00020042
72 *654:A1 *132:22 2.84494e-05
73 *654:C1 *132:22 8.93457e-05
74 *659:B1 *665:A 0.000103299
75 *659:B1 *727:A1 0
76 *659:B1 *132:65 0
77 *659:C1 *727:A1 0
78 *677:S *132:22 3.24102e-05
79 *677:S *132:37 0.00036192
80 *754:D *132:49 0.000104974
81 *755:CLK *636:A 0.000624791
82 *786:A *636:A 0.000126381
83 *786:A *644:A 3.98428e-05
84 *786:A *132:49 5.54501e-05
85 *827:A *132:22 2.89114e-05
86 *832:A *636:A 0.000113381
87 *837:A *132:49 5.61312e-05
88 *125:20 *640:A 9.90431e-05
89 *127:123 *132:22 9.88371e-05
*RES
1 *797:X *132:8 15.1393 
2 *132:8 *132:22 22.6429 
3 *132:22 *652:A 9.3 
4 *132:22 *132:37 14.9464 
5 *132:37 *132:49 33.1607 
6 *132:49 *132:51 1.94643 
7 *132:51 *132:53 9.83929 
8 *132:53 *132:59 11.3571 
9 *132:59 *132:61 0.428571 
10 *132:61 *132:65 6.44643 
11 *132:65 *727:A1 20.7821 
12 *132:65 *657:B 13.8 
13 *132:61 *656:B 9.3 
14 *132:59 *665:A 12.8536 
15 *132:53 *640:A 14.7464 
16 *132:51 *648:A 14.7464 
17 *132:49 *636:A 25.5679 
18 *132:37 *644:A 18.3357 
19 *132:8 *661:A 17.6393 
*END

*D_NET *133 0.00995885
*CONN
*I *760:RESET_B I *D sky130_fd_sc_hd__dfrtp_1
*I *772:RESET_B I *D sky130_fd_sc_hd__dfrtp_1
*I *771:RESET_B I *D sky130_fd_sc_hd__dfrtp_1
*I *767:RESET_B I *D sky130_fd_sc_hd__dfrtp_1
*I *775:RESET_B I *D sky130_fd_sc_hd__dfrtp_1
*I *774:RESET_B I *D sky130_fd_sc_hd__dfrtp_1
*I *773:RESET_B I *D sky130_fd_sc_hd__dfrtp_1
*I *769:RESET_B I *D sky130_fd_sc_hd__dfrtp_1
*I *759:RESET_B I *D sky130_fd_sc_hd__dfrtp_1
*I *768:RESET_B I *D sky130_fd_sc_hd__dfrtp_1
*I *798:X O *D sky130_fd_sc_hd__clkbuf_4
*CAP
1 *760:RESET_B 0.00072801
2 *772:RESET_B 3.59957e-05
3 *771:RESET_B 0.000196964
4 *767:RESET_B 0.000257588
5 *775:RESET_B 0.000182496
6 *774:RESET_B 3.25948e-05
7 *773:RESET_B 2.80259e-05
8 *769:RESET_B 0.000246588
9 *759:RESET_B 0.00024237
10 *768:RESET_B 2.11316e-05
11 *798:X 0
12 *133:56 0.00021509
13 *133:26 0.000566573
14 *133:24 0.000268826
15 *133:22 0.000461511
16 *133:20 0.000800517
17 *133:18 0.000688546
18 *133:8 0.000540582
19 *133:4 0.00103647
20 *759:RESET_B *769:D 4.79842e-05
21 *760:RESET_B *717:A1 0.000182598
22 *760:RESET_B *731:A0 9.80173e-05
23 *760:RESET_B *798:A 3.23989e-05
24 *760:RESET_B *819:A 9.60875e-05
25 *760:RESET_B *211:24 0.000182592
26 *760:RESET_B *213:10 0.00010096
27 *768:RESET_B *176:8 4.85567e-05
28 *771:RESET_B *667:B1 0.000306165
29 *775:RESET_B *229:10 0.000317082
30 *133:8 *176:8 0.000142856
31 *133:8 *209:6 0.000175493
32 *133:18 *665:B 0
33 *133:18 *724:S 0
34 *133:18 *849:A 1.76135e-05
35 *133:18 *183:21 4.98872e-05
36 *133:20 *724:S 0
37 *133:20 *849:A 0.000120645
38 *133:20 *194:48 0
39 *133:20 *194:61 0
40 *133:20 *208:12 0
41 *133:22 *633:A 0.000221163
42 *133:22 *667:B1 0
43 *133:22 *158:12 4.94455e-05
44 *133:22 *194:37 0
45 *133:22 *194:48 0
46 *133:22 *228:10 0.00014209
47 *133:22 *229:10 0
48 *133:24 *228:10 0.000173804
49 num_to_send_o[2] *133:18 6.57026e-05
50 *643:C1 *760:RESET_B 0.000132917
51 *659:C1 *133:20 0
52 *659:C1 *133:22 0
53 *727:A1 *133:20 7.80714e-06
54 *769:CLK *759:RESET_B 0
55 *769:CLK *769:RESET_B 1.24368e-05
56 *769:CLK *133:24 0
57 *769:CLK *133:26 0
58 *771:D *133:20 0
59 *775:CLK *774:RESET_B 2.29097e-05
60 *775:CLK *775:RESET_B 7.17235e-05
61 *775:D *133:22 0
62 *775:D *133:24 0
63 *124:14 *771:RESET_B 0.000182977
64 *124:16 *771:RESET_B 0.000250163
65 *124:57 *773:RESET_B 2.51837e-05
66 *132:59 *133:18 0.000123912
67 *132:65 *133:18 7.79781e-06
*RES
1 *798:X *133:4 9.3 
2 *133:4 *133:8 6.30357 
3 *133:8 *768:RESET_B 0.473214 
4 *133:8 *133:18 9.48214 
5 *133:18 *133:20 8.01786 
6 *133:20 *133:22 6.80357 
7 *133:22 *133:24 3.46429 
8 *133:24 *133:26 1.33929 
9 *133:26 *759:RESET_B 8.74107 
10 *133:26 *769:RESET_B 8.27679 
11 *133:24 *773:RESET_B 4.97321 
12 *133:22 *133:56 4.5 
13 *133:56 *774:RESET_B 0.473214 
14 *133:56 *775:RESET_B 4.58036 
15 *133:20 *767:RESET_B 5.44643 
16 *767:RESET_B *771:RESET_B 6.30357 
17 *133:18 *772:RESET_B 4.97321 
18 *133:4 *760:RESET_B 12.1161 
*END

*D_NET *134 0.00720949
*CONN
*I *763:RESET_B I *D sky130_fd_sc_hd__dfrtp_1
*I *781:RESET_B I *D sky130_fd_sc_hd__dfrtp_1
*I *785:RESET_B I *D sky130_fd_sc_hd__dfrtp_1
*I *770:RESET_B I *D sky130_fd_sc_hd__dfrtp_1
*I *766:RESET_B I *D sky130_fd_sc_hd__dfrtp_1
*I *764:RESET_B I *D sky130_fd_sc_hd__dfrtp_1
*I *799:X O *D sky130_fd_sc_hd__clkbuf_2
*CAP
1 *763:RESET_B 1.60797e-05
2 *781:RESET_B 0.000323367
3 *785:RESET_B 0.000323367
4 *770:RESET_B 0.000186124
5 *766:RESET_B 0.000694066
6 *764:RESET_B 0.000664656
7 *799:X 0.000447409
8 *134:36 0.000645648
9 *134:21 0.000467869
10 *763:RESET_B *820:A 3.46453e-05
11 *763:RESET_B *199:16 2.29097e-05
12 *764:RESET_B *731:A1 0.000527085
13 *766:RESET_B *667:A2 0.000151333
14 *766:RESET_B *210:10 3.17148e-05
15 *770:RESET_B *161:18 0
16 *781:RESET_B *781:D 9.23695e-05
17 *134:21 *726:A1 6.95093e-05
18 *134:21 *820:A 5.33005e-05
19 *134:21 *199:16 0.000190805
20 *134:21 *210:6 5.52238e-05
21 *134:36 *731:A1 0
22 *134:36 *161:18 0
23 *134:36 *194:14 0.000197984
24 *643:C1 *764:RESET_B 0.000449155
25 *658:A2 *766:RESET_B 0.000198705
26 *658:A2 *134:36 5.17901e-05
27 *658:B2 *766:RESET_B 0
28 *658:B2 *134:36 4.46186e-06
29 *668:B1 *764:RESET_B 0.000413054
30 *766:CLK *134:36 0
31 *766:D *134:36 0.000125724
32 *770:D *770:RESET_B 0.000128154
33 *770:D *134:36 0.000166976
34 *124:64 *781:RESET_B 9.69072e-05
35 *124:73 *781:RESET_B 7.73232e-05
36 *129:27 *134:36 0
37 *130:30 *766:RESET_B 0.000211913
38 *130:43 *766:RESET_B 8.98585e-05
*RES
1 *799:X *764:RESET_B 28.925 
2 *764:RESET_B *134:21 4.72321 
3 *134:21 *766:RESET_B 15.5 
4 *766:RESET_B *134:36 14.5268 
5 *134:36 *770:RESET_B 7.84821 
6 *134:36 *785:RESET_B 4.5 
7 *785:RESET_B *781:RESET_B 6.03571 
8 *134:21 *763:RESET_B 0.473214 
*END

*D_NET *135 0.0118282
*CONN
*I *758:RESET_B I *D sky130_fd_sc_hd__dfrtp_1
*I *754:RESET_B I *D sky130_fd_sc_hd__dfrtp_1
*I *756:RESET_B I *D sky130_fd_sc_hd__dfrtp_1
*I *757:RESET_B I *D sky130_fd_sc_hd__dfrtp_1
*I *777:RESET_B I *D sky130_fd_sc_hd__dfrtp_1
*I *755:RESET_B I *D sky130_fd_sc_hd__dfrtp_1
*I *765:RESET_B I *D sky130_fd_sc_hd__dfrtp_1
*I *776:RESET_B I *D sky130_fd_sc_hd__dfrtp_1
*I *761:RESET_B I *D sky130_fd_sc_hd__dfrtp_1
*I *762:RESET_B I *D sky130_fd_sc_hd__dfrtp_1
*I *800:X O *D sky130_fd_sc_hd__clkbuf_4
*CAP
1 *758:RESET_B 0.000125784
2 *754:RESET_B 0
3 *756:RESET_B 0.000453212
4 *757:RESET_B 4.00351e-05
5 *777:RESET_B 0.00023123
6 *755:RESET_B 0
7 *765:RESET_B 0.000262087
8 *776:RESET_B 0.000139293
9 *761:RESET_B 0.000227893
10 *762:RESET_B 0.000101063
11 *800:X 7.70325e-05
12 *135:102 0.00104135
13 *135:83 0.000862412
14 *135:62 0.000361629
15 *135:58 0.000577823
16 *135:30 0.00041092
17 *135:28 0.000838998
18 *135:24 0.000997308
19 *135:10 0.000388095
20 *135:8 0.000238907
21 *756:RESET_B *639:A2 0
22 *756:RESET_B *711:S 0
23 *756:RESET_B *713:S 0
24 *756:RESET_B *216:12 0.000150618
25 *757:RESET_B *778:RESET_B 5.48715e-05
26 *758:RESET_B *715:A1 7.76348e-05
27 *758:RESET_B *800:A 7.15449e-05
28 *758:RESET_B *803:A 8.75715e-05
29 *758:RESET_B *833:A 0
30 *761:RESET_B *717:A1 0
31 *761:RESET_B *761:D 0.0002253
32 *762:RESET_B *800:A 0.000136025
33 *762:RESET_B *803:A 4.02462e-05
34 *765:RESET_B *718:A1 4.17828e-05
35 *765:RESET_B *212:25 3.65069e-05
36 *776:RESET_B *721:S 8.25843e-06
37 *777:RESET_B *777:D 1.02504e-05
38 *777:RESET_B *778:RESET_B 0
39 *135:8 *636:B 9.41642e-05
40 *135:10 *800:A 6.81083e-05
41 *135:10 *803:A 3.69697e-05
42 *135:28 *648:B 0
43 *135:28 *757:D 5.01117e-05
44 *135:28 *761:D 0.000394712
45 *135:28 *803:A 0
46 *135:28 *212:25 0
47 *135:28 *215:8 0
48 *135:30 *761:D 0.000126446
49 *135:62 *778:RESET_B 0
50 *638:A1 *135:102 1.95646e-05
51 *639:A1 *756:RESET_B 0
52 *639:B1 *756:RESET_B 3.5707e-05
53 *642:C1 *761:RESET_B 0.000267218
54 *647:B1 *756:RESET_B 0.000183229
55 *647:B1 *135:102 2.19684e-05
56 *754:CLK *135:24 2.89016e-05
57 *754:CLK *135:58 0.000164847
58 *754:CLK *135:83 0.000158169
59 *754:CLK *135:102 0.000826186
60 *754:D *756:RESET_B 0
61 *755:D *777:RESET_B 0
62 *776:D *776:RESET_B 0.000119467
63 *778:CLK *777:RESET_B 9.58026e-05
64 *842:A *135:28 0
65 *125:10 *761:RESET_B 1.99099e-05
66 *125:10 *765:RESET_B 9.71197e-05
67 *125:10 *135:28 1.08359e-05
68 *125:10 *135:30 6.1684e-05
69 *125:14 *761:RESET_B 0.000108848
70 *125:62 *762:RESET_B 0.000172629
71 *125:62 *135:24 0.000170964
72 *130:80 *756:RESET_B 0
73 *132:37 *135:102 0.000178922
74 *132:49 *756:RESET_B 0
75 *132:49 *135:102 0
*RES
1 *800:X *135:8 14.7464 
2 *135:8 *135:10 1.03571 
3 *135:10 *762:RESET_B 7.24107 
4 *135:10 *135:24 7.91071 
5 *135:24 *135:28 15.5536 
6 *135:28 *135:30 1.64286 
7 *135:30 *761:RESET_B 10.4911 
8 *135:30 *776:RESET_B 7.02679 
9 *135:28 *765:RESET_B 9.08036 
10 *135:24 *135:58 3 
11 *135:58 *135:62 6.75 
12 *135:62 *755:RESET_B 4.5 
13 *135:62 *777:RESET_B 8.38393 
14 *135:58 *135:83 3.42857 
15 *135:83 *757:RESET_B 9.73214 
16 *135:83 *135:102 17 
17 *135:102 *756:RESET_B 14.3393 
18 *135:102 *754:RESET_B 4.5 
19 *135:8 *758:RESET_B 7.66071 
*END

*D_NET *136 0.0179661
*CONN
*I *742:RESET_B I *D sky130_fd_sc_hd__dfrtp_1
*I *749:RESET_B I *D sky130_fd_sc_hd__dfrtp_4
*I *748:RESET_B I *D sky130_fd_sc_hd__dfrtp_4
*I *784:RESET_B I *D sky130_fd_sc_hd__dfrtp_2
*I *745:RESET_B I *D sky130_fd_sc_hd__dfrtp_1
*I *783:RESET_B I *D sky130_fd_sc_hd__dfrtp_4
*I *782:RESET_B I *D sky130_fd_sc_hd__dfrtp_2
*I *746:RESET_B I *D sky130_fd_sc_hd__dfrtp_4
*I *747:RESET_B I *D sky130_fd_sc_hd__dfrtp_1
*I *743:RESET_B I *D sky130_fd_sc_hd__dfrtp_1
*I *801:X O *D sky130_fd_sc_hd__clkbuf_4
*CAP
1 *742:RESET_B 0.000269154
2 *749:RESET_B 0.000112098
3 *748:RESET_B 7.64443e-05
4 *784:RESET_B 7.97272e-05
5 *745:RESET_B 0.000818378
6 *783:RESET_B 2.11316e-05
7 *782:RESET_B 0.00056572
8 *746:RESET_B 3.49756e-05
9 *747:RESET_B 0.000243959
10 *743:RESET_B 0.000168142
11 *801:X 0.000169153
12 *136:83 0.0011165
13 *136:73 0.000280885
14 *136:57 0.00145662
15 *136:53 0.00186995
16 *136:47 0.00142457
17 *136:22 0.00128145
18 *136:20 0.00192318
19 *136:16 0.00104537
20 *136:6 0.000561348
21 *742:RESET_B *801:A 9.23695e-05
22 *742:RESET_B *225:10 2.55587e-05
23 *743:RESET_B *675:A0 1.68581e-05
24 *743:RESET_B *801:A 0.00040381
25 *743:RESET_B *226:10 0.00010096
26 *745:RESET_B *739:A 0.000225609
27 *745:RESET_B *203:34 0.00075137
28 *749:RESET_B *206:10 2.59355e-05
29 *782:RESET_B *737:A 3.18676e-05
30 *782:RESET_B *202:6 1.97695e-05
31 *782:RESET_B *202:23 1.69961e-05
32 *783:RESET_B *202:55 4.85567e-05
33 *136:6 *801:A 0.000130419
34 *136:16 *801:A 0
35 *136:16 *225:23 0
36 *136:20 *673:A 0
37 *136:20 *673:B 4.35131e-05
38 *136:22 *673:A 5.33433e-05
39 *136:22 *673:B 0.00012389
40 *136:47 *673:B 3.32631e-05
41 *136:53 *673:B 0
42 *136:53 *680:C1 2.58997e-05
43 *136:53 *685:B 6.76272e-05
44 *136:53 *203:69 0
45 *136:53 *204:67 0
46 *136:53 *205:10 2.30116e-06
47 *136:53 *205:19 1.37292e-05
48 *136:53 *205:30 3.4323e-05
49 *136:53 *205:84 1.59782e-05
50 *136:53 *206:10 0.000201127
51 *136:53 *206:12 0.000308599
52 *136:53 *206:14 7.6644e-05
53 *136:53 *206:18 5.51502e-05
54 *136:57 *203:69 0
55 *136:57 *204:14 9.32128e-05
56 *136:57 *204:41 1.48659e-05
57 *136:73 *703:A2 8.11028e-06
58 *136:83 *703:A2 6.07532e-05
59 *678:A *136:53 0.000170661
60 *687:A *136:53 0.000203364
61 *692:B2 *784:RESET_B 5.01876e-06
62 *695:B1 *784:RESET_B 5.27109e-05
63 *699:A1 *747:RESET_B 0
64 *741:A2 *136:83 0
65 *741:A3 *784:RESET_B 4.46186e-06
66 *741:A3 *136:83 6.19181e-05
67 *748:CLK *782:RESET_B 0.000756229
68 *748:D *748:RESET_B 0
69 *782:CLK *782:RESET_B 4.51458e-05
70 *784:D *784:RESET_B 0
71 *109:14 *782:RESET_B 2.54632e-05
*RES
1 *801:X *136:6 12.3 
2 *136:6 *743:RESET_B 4.16964 
3 *136:6 *136:16 7.96429 
4 *136:16 *136:20 14.6429 
5 *136:20 *136:22 12.0357 
6 *136:22 *747:RESET_B 12.4107 
7 *136:22 *746:RESET_B 0.901786 
8 *136:20 *136:47 9.25 
9 *136:47 *136:53 17.7395 
10 *136:53 *136:57 5.04247 
11 *136:57 *782:RESET_B 16.5536 
12 *136:57 *136:73 0.580357 
13 *136:73 *783:RESET_B 4.97321 
14 *136:73 *136:83 3.76786 
15 *136:83 *745:RESET_B 16.6161 
16 *136:83 *784:RESET_B 6.14286 
17 *136:53 *748:RESET_B 9.0975 
18 *136:47 *749:RESET_B 6.20536 
19 *136:16 *742:RESET_B 9.08036 
*END

*D_NET *137 0.00861275
*CONN
*I *744:RESET_B I *D sky130_fd_sc_hd__dfrtp_1
*I *779:RESET_B I *D sky130_fd_sc_hd__dfrtp_1
*I *751:RESET_B I *D sky130_fd_sc_hd__dfrtp_1
*I *780:RESET_B I *D sky130_fd_sc_hd__dfrtp_1
*I *753:RESET_B I *D sky130_fd_sc_hd__dfrtp_1
*I *750:RESET_B I *D sky130_fd_sc_hd__dfrtp_1
*I *752:RESET_B I *D sky130_fd_sc_hd__dfrtp_1
*I *802:X O *D sky130_fd_sc_hd__buf_2
*CAP
1 *744:RESET_B 7.70594e-05
2 *779:RESET_B 6.29271e-05
3 *751:RESET_B 1.07854e-05
4 *780:RESET_B 0.000588418
5 *753:RESET_B 0.00015283
6 *750:RESET_B 0.000118885
7 *752:RESET_B 4.75705e-05
8 *802:X 0.000252569
9 *137:45 0.000597401
10 *137:43 0.0011214
11 *137:37 0.000424871
12 *137:29 0.000527718
13 *137:21 0.000683751
14 *137:10 0.000648835
15 *750:RESET_B *655:A2 1.3142e-05
16 *750:RESET_B *219:21 5.08481e-05
17 *752:RESET_B *709:A1 0.000127439
18 *752:RESET_B *709:S 6.42145e-05
19 *780:RESET_B *708:A0 0.000273269
20 *780:RESET_B *708:A1 0.000274294
21 *780:RESET_B *708:S 4.72818e-05
22 *137:10 *646:B1 1.46624e-05
23 *137:10 *709:A0 0.000150625
24 *137:10 *709:S 2.16719e-05
25 *137:10 *744:D 0
26 *137:10 *752:D 0
27 *137:10 *802:A 2.89016e-05
28 *137:10 *224:25 2.00751e-05
29 *137:21 *734:A1 0.00026353
30 *137:29 *197:115 0
31 *137:43 *646:B1 0
32 *137:43 *751:D 1.02504e-05
33 *137:43 *199:67 2.47093e-05
34 *137:45 *646:A2 7.2754e-05
35 *137:45 *199:67 1.91512e-05
36 *137:45 *219:21 8.24047e-05
37 *137:45 *219:32 9.01334e-05
38 *654:C1 *779:RESET_B 7.33146e-05
39 *655:B1 *750:RESET_B 0.000123295
40 *677:S *137:29 0.000143025
41 *751:CLK *751:RESET_B 8.73973e-06
42 *751:CLK *137:37 4.66989e-07
43 *751:CLK *137:43 3.55552e-05
44 *779:D *137:29 9.25412e-05
45 *780:CLK *780:RESET_B 0.000277898
46 *827:A *137:43 0.000175512
47 *830:A *137:10 4.57445e-05
48 *65:18 *753:RESET_B 4.35452e-05
49 *75:24 *753:RESET_B 6.94994e-05
50 *115:93 *750:RESET_B 0
51 *115:93 *137:45 0
52 *127:80 *137:45 0
53 *127:95 *137:37 1.05947e-05
54 *127:95 *137:43 0
55 *127:110 *137:29 1.41029e-05
56 *127:110 *137:37 5.01213e-05
57 *131:57 *750:RESET_B 0.000219734
58 *132:22 *779:RESET_B 0.000264685
*RES
1 *802:X *137:10 19.3179 
2 *137:10 *752:RESET_B 6.14286 
3 *137:10 *137:21 8.73214 
4 *137:21 *137:29 9.83929 
5 *137:29 *137:37 7.625 
6 *137:37 *137:43 9.01786 
7 *137:43 *137:45 6.80357 
8 *137:45 *750:RESET_B 7.66071 
9 *137:45 *753:RESET_B 7.02679 
10 *137:43 *780:RESET_B 16.6161 
11 *137:37 *751:RESET_B 0.473214 
12 *137:29 *779:RESET_B 7.02679 
13 *137:21 *744:RESET_B 1.3125 
*END

*D_NET *138 0.0194115
*CONN
*I *802:A I *D sky130_fd_sc_hd__buf_2
*I *778:RESET_B I *D sky130_fd_sc_hd__dfrtp_1
*I *801:A I *D sky130_fd_sc_hd__clkbuf_4
*I *799:A I *D sky130_fd_sc_hd__clkbuf_2
*I *798:A I *D sky130_fd_sc_hd__clkbuf_4
*I *800:A I *D sky130_fd_sc_hd__clkbuf_4
*I *803:X O *D sky130_fd_sc_hd__clkbuf_2
*CAP
1 *802:A 0.000762784
2 *778:RESET_B 0.00183992
3 *801:A 0.00131388
4 *799:A 0
5 *798:A 0.000175414
6 *800:A 0.000187348
7 *803:X 0
8 *138:71 0.00224981
9 *138:33 0.000343528
10 *138:27 0.00168926
11 *138:25 0.00226558
12 *138:4 0.000790584
13 *778:RESET_B *777:D 0
14 *778:RESET_B *843:A 0.00031198
15 *778:RESET_B *196:73 0.000158021
16 *778:RESET_B *232:8 6.99031e-05
17 *778:RESET_B *233:8 1.3701e-05
18 *798:A *642:A2 3.41517e-06
19 *798:A *642:B1 5.49489e-05
20 *798:A *717:A1 7.09559e-05
21 *798:A *211:24 3.6346e-05
22 *800:A *715:A1 0.000244628
23 *801:A *675:A0 0.000142856
24 *801:A *814:A 0.000143625
25 *801:A *222:29 2.13481e-06
26 *801:A *225:10 0.000101545
27 *801:A *225:23 5.59013e-05
28 *802:A *734:A1 0.000142856
29 *802:A *752:D 0
30 *802:A *233:8 0.000186662
31 *138:25 *757:D 0.000183027
32 *138:27 *717:A1 0
33 *138:27 *731:S 0.000128146
34 *138:27 *196:10 0.000168698
35 *138:27 *196:12 0.000428691
36 *138:27 *196:47 0.000207769
37 *138:27 *196:73 0.000138946
38 *138:33 *717:A1 0
39 *138:33 *211:24 3.27461e-05
40 *138:71 *655:A2 0.000113089
41 *138:71 *731:S 0.000354996
42 *138:71 *824:A 0.000136958
43 *138:71 *222:6 9.41642e-05
44 *138:71 *222:29 0.000165821
45 *642:A1 *798:A 5.49489e-05
46 *642:A1 *138:33 9.11048e-06
47 *642:C1 *138:33 0
48 *643:C1 *798:A 0.000183477
49 *651:A1 *138:71 2.28499e-05
50 *655:B1 *138:71 0.000218679
51 *742:CLK *801:A 1.39726e-05
52 *742:RESET_B *801:A 9.23695e-05
53 *743:RESET_B *801:A 0.00040381
54 *754:CLK *138:25 0.000173951
55 *757:RESET_B *778:RESET_B 5.48715e-05
56 *758:RESET_B *800:A 7.15449e-05
57 *760:RESET_B *798:A 3.23989e-05
58 *762:RESET_B *800:A 0.000136025
59 *777:RESET_B *778:RESET_B 0
60 *778:CLK *778:RESET_B 0.000235164
61 *788:A *138:27 0
62 *830:A *802:A 0
63 *842:A *138:27 0
64 *59:16 *138:71 8.81564e-05
65 *81:16 *138:71 0.000965223
66 *115:80 *138:71 8.32171e-05
67 *125:62 *800:A 7.32955e-05
68 *125:62 *138:25 4.51526e-05
69 *127:20 *138:71 8.15095e-05
70 *127:44 *801:A 0.000154993
71 *131:23 *138:71 0.000134539
72 *131:47 *138:71 0.000315674
73 *131:57 *138:71 2.85e-05
74 *135:10 *800:A 6.81083e-05
75 *135:62 *778:RESET_B 0
76 *136:6 *801:A 0.000130419
77 *136:16 *801:A 0
78 *137:10 *802:A 2.89016e-05
*RES
1 *803:X *138:4 9.3 
2 *138:4 *800:A 23.6571 
3 *138:4 *138:25 12.9643 
4 *138:25 *138:27 14.0893 
5 *138:27 *138:33 7.28571 
6 *138:33 *798:A 13.9786 
7 *138:33 *799:A 9.3 
8 *138:27 *138:71 38.5 
9 *138:71 *801:A 39.2643 
10 *138:25 *778:RESET_B 23.9911 
11 *778:RESET_B *802:A 32.3982 
*END

*D_NET *139 0.00241152
*CONN
*I *803:A I *D sky130_fd_sc_hd__clkbuf_2
*I *859:X O *D sky130_fd_sc_hd__clkbuf_1
*CAP
1 *803:A 0.000849589
2 *859:X 0.000849589
3 *803:A *636:B 7.01788e-05
4 *758:RESET_B *803:A 8.75715e-05
5 *762:RESET_B *803:A 4.02462e-05
6 *786:A *803:A 0.000114304
7 *125:93 *803:A 8.07313e-05
8 *125:102 *803:A 0.00028234
9 *135:10 *803:A 3.69697e-05
10 *135:28 *803:A 0
*RES
1 *859:X *803:A 40.3143 
*END

*D_NET *140 0.000624013
*CONN
*I *769:D I *D sky130_fd_sc_hd__dfrtp_1
*I *807:X O *D sky130_fd_sc_hd__dlygate4sd3_1
*CAP
1 *769:D 0.000223217
2 *807:X 0.000223217
3 *769:D *807:A 0.000129595
4 *759:RESET_B *769:D 4.79842e-05
*RES
1 *807:X *769:D 31.4214 
*END

*D_NET *141 0.00209683
*CONN
*I *781:D I *D sky130_fd_sc_hd__dfrtp_1
*I *672:B I *D sky130_fd_sc_hd__and2b_1
*I *818:X O *D sky130_fd_sc_hd__dlygate4sd3_1
*CAP
1 *781:D 0.000479989
2 *672:B 0.000196661
3 *818:X 0.000152839
4 *141:8 0.000829489
5 *672:B *672:A_N 0
6 *672:B *829:A 0.000126439
7 *141:8 *829:A 9.25014e-06
8 *766:CLK *141:8 0
9 *770:CLK *141:8 0
10 *781:RESET_B *781:D 9.23695e-05
11 *785:D *672:B 0
12 *124:64 *781:D 0.000209798
*RES
1 *818:X *141:8 16.3536 
2 *141:8 *672:B 17.5679 
3 *141:8 *781:D 20.5143 
*END

*D_NET *142 0.000323094
*CONN
*I *672:A_N I *D sky130_fd_sc_hd__and2b_1
*I *829:X O *D sky130_fd_sc_hd__dlygate4sd3_1
*CAP
1 *672:A_N 0.000107913
2 *829:X 0.000107913
3 *672:A_N *161:18 0
4 *672:B *672:A_N 0
5 *785:D *672:A_N 0.000107267
*RES
1 *829:X *672:A_N 29.7786 
*END

*D_NET *143 0.0010102
*CONN
*I *735:A0 I *D sky130_fd_sc_hd__mux2_1
*I *840:X O *D sky130_fd_sc_hd__dlygate4sd3_1
*CAP
1 *735:A0 0.000216133
2 *840:X 0.000216133
3 *735:A0 *735:A1 5.28012e-05
4 *735:A0 *735:S 0
5 *735:A0 *780:D 0.000200384
6 *851:A *735:A0 0.000324754
*RES
1 *840:X *735:A0 24.6179 
*END

*D_NET *144 0.000864745
*CONN
*I *780:D I *D sky130_fd_sc_hd__dfrtp_1
*I *851:X O *D sky130_fd_sc_hd__dlygate4sd3_1
*CAP
1 *780:D 0.000223877
2 *851:X 0.000223877
3 *780:D *735:A1 1.00073e-05
4 *780:D *197:94 5.35516e-05
5 *654:A1 *780:D 0.000153047
6 *735:A0 *780:D 0.000200384
*RES
1 *851:X *780:D 32.5464 
*END

*D_NET *145 0.000496631
*CONN
*I *677:A0 I *D sky130_fd_sc_hd__mux2_1
*I *854:X O *D sky130_fd_sc_hd__dlygate4sd3_1
*CAP
1 *677:A0 0.000207526
2 *854:X 0.000207526
3 *677:A0 *677:A1 5.71472e-05
4 *677:S *677:A0 2.44318e-05
*RES
1 *854:X *677:A0 22.4214 
*END

*D_NET *146 0.000663557
*CONN
*I *744:D I *D sky130_fd_sc_hd__dfrtp_1
*I *855:X O *D sky130_fd_sc_hd__dlygate4sd3_1
*CAP
1 *744:D 0.00023476
2 *855:X 0.00023476
3 *744:D *224:25 0
4 *677:S *744:D 0.000154762
5 *855:A *744:D 3.92757e-05
6 *137:10 *744:D 0
*RES
1 *855:X *744:D 32.2071 
*END

*D_NET *147 0.00115932
*CONN
*I *676:A0 I *D sky130_fd_sc_hd__mux2_1
*I *856:X O *D sky130_fd_sc_hd__dlygate4sd3_1
*CAP
1 *676:A0 0.000220688
2 *856:X 0.000220688
3 *676:A0 *743:D 0.000142856
4 *664:C1 *676:A0 0.000575086
*RES
1 *856:X *676:A0 24.0643 
*END

*D_NET *148 0.000705903
*CONN
*I *743:D I *D sky130_fd_sc_hd__dfrtp_1
*I *857:X O *D sky130_fd_sc_hd__dlygate4sd3_1
*CAP
1 *743:D 0.000241158
2 *857:X 0.000241158
3 *743:D *675:A0 8.07313e-05
4 *743:D *742:D 0
5 *676:A0 *743:D 0.000142856
6 *65:18 *743:D 0
*RES
1 *857:X *743:D 31.6536 
*END

*D_NET *149 0.0023481
*CONN
*I *733:A1 I *D sky130_fd_sc_hd__mux2_1
*I *732:A0 I *D sky130_fd_sc_hd__mux2_1
*I *808:X O *D sky130_fd_sc_hd__dlygate4sd3_1
*CAP
1 *733:A1 3.92213e-05
2 *732:A0 0.000269233
3 *808:X 0.000209438
4 *149:8 0.000517892
5 *732:A0 *638:B1 0
6 *732:A0 *732:A1 3.34366e-05
7 *732:A0 *733:S 0.000484511
8 *732:A0 *196:73 0
9 *732:A0 *196:79 4.13595e-05
10 *732:A0 *196:97 0
11 *732:A0 *221:21 0.000571124
12 *733:A1 *733:A0 5.52302e-05
13 *149:8 *808:A 0
14 *644:A *732:A0 5.59013e-05
15 *778:D *732:A0 0
16 *786:A *732:A0 6.62911e-05
17 *809:A *732:A0 4.46186e-06
18 *119:16 *732:A0 0
*RES
1 *808:X *149:8 17.2643 
2 *149:8 *732:A0 30.9429 
3 *149:8 *733:A1 14.3357 
*END

*D_NET *150 0.000367536
*CONN
*I *759:D I *D sky130_fd_sc_hd__dfrtp_1
*I *860:X O *D sky130_fd_sc_hd__clkbuf_1
*CAP
1 *759:D 0.000159776
2 *860:X 0.000159776
3 *759:CLK *759:D 4.79842e-05
*RES
1 *860:X *759:D 30.1893 
*END

*D_NET *151 0.00079492
*CONN
*I *777:D I *D sky130_fd_sc_hd__dfrtp_1
*I *809:X O *D sky130_fd_sc_hd__dlygate4sd3_1
*CAP
1 *777:D 0.000277867
2 *809:X 0.000277867
3 *777:D *843:A 0
4 *777:D *196:97 0.000228937
5 *755:D *777:D 0
6 *777:RESET_B *777:D 1.02504e-05
7 *778:RESET_B *777:D 0
*RES
1 *809:X *777:D 32.0286 
*END

*D_NET *152 0.00391015
*CONN
*I *734:A1 I *D sky130_fd_sc_hd__mux2_1
*I *733:A0 I *D sky130_fd_sc_hd__mux2_1
*I *810:X O *D sky130_fd_sc_hd__dlygate4sd3_1
*CAP
1 *734:A1 0.000821699
2 *733:A0 0.000316652
3 *810:X 0
4 *152:4 0.00113835
5 *733:A0 *709:A1 8.07313e-05
6 *733:A0 *733:S 1.98839e-05
7 *733:A0 *752:D 0
8 *733:A0 *221:21 9.22103e-06
9 *734:A1 *646:B1 0.000259934
10 *734:A1 *709:A0 0.00014183
11 *734:A1 *709:S 0.000132917
12 *734:A1 *734:A0 3.18676e-05
13 *734:A1 *233:8 0.000121084
14 *644:A *733:A0 0.000274294
15 *677:S *734:A1 4.78056e-05
16 *733:A1 *733:A0 5.52302e-05
17 *744:CLK *734:A1 4.78056e-05
18 *802:A *734:A1 0.000142856
19 *127:123 *734:A1 4.46186e-06
20 *137:21 *734:A1 0.00026353
*RES
1 *810:X *152:4 9.3 
2 *152:4 *733:A0 24.7107 
3 *152:4 *734:A1 32.7643 
*END

*D_NET *153 0.00107445
*CONN
*I *706:A1 I *D sky130_fd_sc_hd__o21a_1
*I *811:X O *D sky130_fd_sc_hd__dlygate4sd3_1
*CAP
1 *706:A1 0.000280615
2 *811:X 0.000280615
3 *699:A1 *706:A1 6.75007e-05
4 *706:B1 *706:A1 0.000317555
5 *746:D *706:A1 0.000128161
*RES
1 *811:X *706:A1 34.7071 
*END

*D_NET *154 0.00127399
*CONN
*I *729:A1 I *D sky130_fd_sc_hd__mux2_1
*I *728:A I *D sky130_fd_sc_hd__or2_1
*I *812:X O *D sky130_fd_sc_hd__dlygate4sd3_1
*CAP
1 *729:A1 9.94099e-05
2 *728:A 0.000112113
3 *812:X 0.000106664
4 *154:6 0.000318186
5 *728:A *633:A 0
6 *728:A *194:37 6.80593e-05
7 *729:A1 *729:A0 5.52302e-05
8 *729:A1 *812:A 0.000186662
9 *729:A1 *194:37 0.000226507
10 *773:D *728:A 0
11 *774:D *729:A1 2.95641e-05
12 *774:D *154:6 7.15962e-05
13 *124:22 *728:A 0
*RES
1 *812:X *154:6 11.4786 
2 *154:6 *728:A 20.8536 
3 *154:6 *729:A1 12.7107 
*END

*D_NET *155 0.000583429
*CONN
*I *734:A0 I *D sky130_fd_sc_hd__mux2_1
*I *813:X O *D sky130_fd_sc_hd__dlygate4sd3_1
*CAP
1 *734:A0 0.000188648
2 *813:X 0.000188648
3 *734:A0 *709:S 0.00014285
4 *664:B1 *734:A0 3.14163e-05
5 *734:A1 *734:A0 3.18676e-05
*RES
1 *813:X *734:A0 22.4214 
*END

*D_NET *156 0.00179119
*CONN
*I *675:A0 I *D sky130_fd_sc_hd__mux2_1
*I *814:X O *D sky130_fd_sc_hd__dlygate4sd3_1
*CAP
1 *675:A0 0.000382967
2 *814:X 0.000382967
3 *675:A0 *653:A2_N 3.49717e-05
4 *675:A0 *814:A 0.00018372
5 *743:CLK *675:A0 0.000149489
6 *743:D *675:A0 8.07313e-05
7 *743:RESET_B *675:A0 1.68581e-05
8 *801:A *675:A0 0.000142856
9 *65:18 *675:A0 0.000416633
*RES
1 *814:X *675:A0 29.8321 
*END

*D_NET *157 0.00139723
*CONN
*I *742:D I *D sky130_fd_sc_hd__dfrtp_1
*I *815:X O *D sky130_fd_sc_hd__dlygate4sd3_1
*CAP
1 *742:D 0.000445428
2 *815:X 0.000445428
3 *742:D *662:A 8.3722e-05
4 *742:D *197:94 0.00012401
5 *742:D *200:23 8.13657e-05
6 *742:D *223:18 0.000170661
7 *743:D *742:D 0
8 *815:A *742:D 4.66203e-05
9 *65:18 *742:D 0
*RES
1 *815:X *742:D 36.2786 
*END

*D_NET *158 0.00170456
*CONN
*I *730:A1 I *D sky130_fd_sc_hd__mux2_1
*I *729:A0 I *D sky130_fd_sc_hd__mux2_1
*I *816:X O *D sky130_fd_sc_hd__dlygate4sd3_1
*CAP
1 *730:A1 0.000157426
2 *729:A0 5.93202e-05
3 *816:X 0.000160521
4 *158:12 0.000377267
5 *729:A0 *194:24 5.52238e-05
6 *729:A0 *194:37 1.69961e-05
7 *730:A1 *730:A0 5.65955e-05
8 *730:A1 *194:24 0.000575651
9 *158:12 *633:A 1.92789e-05
10 *158:12 *229:10 0
11 *729:A1 *729:A0 5.52302e-05
12 *775:D *730:A1 0.0001216
13 *133:22 *158:12 4.94455e-05
*RES
1 *816:X *158:12 20.7821 
2 *158:12 *729:A0 10.6571 
3 *158:12 *730:A1 14.7643 
*END

*D_NET *159 0.00432846
*CONN
*I *731:A1 I *D sky130_fd_sc_hd__mux2_1
*I *730:A0 I *D sky130_fd_sc_hd__mux2_1
*I *817:X O *D sky130_fd_sc_hd__dlygate4sd3_1
*CAP
1 *731:A1 0.000867963
2 *730:A0 0.000362062
3 *817:X 0
4 *159:4 0.00123003
5 *730:A0 *642:B1 0
6 *730:A0 *817:A 5.20751e-05
7 *730:A0 *161:37 0
8 *730:A0 *194:22 0.000131979
9 *730:A0 *194:24 2.41665e-05
10 *730:A0 *230:10 0
11 *731:A1 *660:A1 0.000490492
12 *731:A1 *666:A 0
13 *731:A1 *731:A0 7.83659e-05
14 *731:A1 *161:37 8.68665e-05
15 *731:A1 *194:22 0.000146533
16 *731:A1 *213:10 0
17 *643:C1 *731:A1 6.8646e-06
18 *658:B2 *731:A1 0
19 *668:B1 *731:A1 7.4826e-05
20 *668:C1 *731:A1 5.80217e-05
21 *670:C *731:A1 9.42015e-05
22 *730:A1 *730:A0 5.65955e-05
23 *764:RESET_B *731:A1 0.000527085
24 *766:CLK *730:A0 0
25 *766:CLK *731:A1 4.03318e-05
26 *786:A *731:A1 0
27 *788:A *731:A1 0
28 *134:36 *731:A1 0
*RES
1 *817:X *159:4 9.3 
2 *159:4 *730:A0 24.6929 
3 *159:4 *731:A1 38.925 
*END

*D_NET *160 0.000450096
*CONN
*I *731:A0 I *D sky130_fd_sc_hd__mux2_1
*I *819:X O *D sky130_fd_sc_hd__dlygate4sd3_1
*CAP
1 *731:A0 9.68163e-05
2 *819:X 9.68163e-05
3 *670:C *731:A0 8.00806e-05
4 *731:A1 *731:A0 7.83659e-05
5 *760:RESET_B *731:A0 9.80173e-05
*RES
1 *819:X *731:A0 29.5821 
*END

*D_NET *161 0.00583454
*CONN
*I *861:A I *D sky130_fd_sc_hd__buf_2
*I *722:A1 I *D sky130_fd_sc_hd__mux2_1
*I *660:A1 I *D sky130_fd_sc_hd__a211o_1
*I *658:A1 I *D sky130_fd_sc_hd__o22ai_1
*I *725:A0 I *D sky130_fd_sc_hd__mux2_1
*I *770:Q O *D sky130_fd_sc_hd__dfrtp_1
*CAP
1 *861:A 0
2 *722:A1 0
3 *660:A1 0.000276792
4 *658:A1 7.01899e-05
5 *725:A0 0
6 *770:Q 0.0002888
7 *161:37 0.000671199
8 *161:31 0.00041377
9 *161:18 0.000676956
10 *161:12 0.000876204
11 *161:18 *194:14 1.88048e-05
12 *161:31 *722:A0 8.57023e-05
13 *161:31 *722:S 5.71472e-05
14 *161:31 *194:14 3.84385e-05
15 *161:37 *722:A0 5.52302e-05
16 *161:37 *722:S 4.27935e-05
17 *161:37 *194:22 0.000441731
18 num_to_send_o[0] *161:18 5.33433e-05
19 *634:A *161:12 0
20 *658:B2 *658:A1 8.61138e-05
21 *660:B1 *660:A1 0.000907869
22 *660:B1 *161:37 0.000108118
23 *672:A_N *161:18 0
24 *730:A0 *161:37 0
25 *731:A1 *660:A1 0.000490492
26 *731:A1 *161:37 8.68665e-05
27 *766:CLK *161:37 0
28 *770:CLK *161:18 0
29 *770:RESET_B *161:18 0
30 *785:D *161:18 0
31 *858:A *161:12 2.8266e-06
32 *129:14 *161:18 1.88048e-05
33 *129:27 *161:18 2.37761e-05
34 *129:27 *161:31 4.25716e-05
35 *134:36 *161:18 0
*RES
1 *770:Q *161:12 23.2464 
2 *161:12 *161:18 14.5893 
3 *161:18 *725:A0 13.8 
4 *161:18 *161:31 7.08929 
5 *161:31 *161:37 12.3036 
6 *161:37 *658:A1 15.175 
7 *161:37 *660:A1 25.4607 
8 *161:31 *722:A1 9.3 
9 *161:12 *861:A 9.3 
*END

*D_NET *162 0.00137571
*CONN
*I *719:A0 I *D sky130_fd_sc_hd__mux2_1
*I *716:A1 I *D sky130_fd_sc_hd__mux2_1
*I *820:X O *D sky130_fd_sc_hd__dlygate4sd3_1
*CAP
1 *719:A0 0
2 *716:A1 0.000138699
3 *820:X 0.00015087
4 *162:6 0.000289569
5 *716:A1 *820:A 7.6644e-05
6 *669:D *716:A1 5.52238e-05
7 *669:D *162:6 0.000215096
8 *129:38 *716:A1 0.000319316
9 *131:21 *716:A1 0.000130296
*RES
1 *820:X *162:6 11.4786 
2 *162:6 *716:A1 22.9071 
3 *162:6 *719:A0 9.3 
*END

*D_NET *163 0.000467054
*CONN
*I *763:D I *D sky130_fd_sc_hd__dfrtp_1
*I *821:X O *D sky130_fd_sc_hd__dlygate4sd3_1
*CAP
1 *763:D 0.000142245
2 *821:X 0.000142245
3 *763:D *199:16 6.06709e-05
4 *763:CLK *763:D 2.28499e-05
5 *821:A *763:D 9.90431e-05
*RES
1 *821:X *763:D 21.1893 
*END

*D_NET *164 0.00174842
*CONN
*I *707:A0 I *D sky130_fd_sc_hd__mux2_1
*I *822:X O *D sky130_fd_sc_hd__dlygate4sd3_1
*CAP
1 *707:A0 0.00037202
2 *822:X 0.00037202
3 *707:A0 *707:A1 0.00010096
4 *707:A0 *707:S 0.000519296
5 *707:A0 *822:A 0.000317082
6 *823:A *707:A0 4.26125e-05
7 *127:20 *707:A0 2.44318e-05
*RES
1 *822:X *707:A0 29.0643 
*END

*D_NET *165 0.000415693
*CONN
*I *750:D I *D sky130_fd_sc_hd__dfrtp_1
*I *823:X O *D sky130_fd_sc_hd__dlygate4sd3_1
*CAP
1 *750:D 0.000131153
2 *823:X 0.000131153
3 *750:D *822:A 0.000153387
4 *750:D *200:23 0
*RES
1 *823:X *750:D 29.8857 
*END

*D_NET *166 0.00210668
*CONN
*I *713:A1 I *D sky130_fd_sc_hd__mux2_1
*I *716:A0 I *D sky130_fd_sc_hd__mux2_1
*I *824:X O *D sky130_fd_sc_hd__dlygate4sd3_1
*CAP
1 *713:A1 7.04149e-05
2 *716:A0 0.000295411
3 *824:X 0.000119419
4 *166:8 0.000485244
5 *713:A1 *713:S 0
6 *753:CLK *713:A1 0
7 *753:CLK *716:A0 0
8 *81:16 *166:8 0.000186669
9 *115:18 *716:A0 0.00010096
10 *129:55 *716:A0 0.000100823
11 *130:56 *716:A0 2.14378e-05
12 *130:80 *713:A1 0.000117189
13 *130:80 *716:A0 0.000437227
14 *131:21 *716:A0 0.000171885
*RES
1 *824:X *166:8 15.5679 
2 *166:8 *716:A0 22.1571 
3 *166:8 *713:A1 15.4429 
*END

*D_NET *167 0.00211054
*CONN
*I *710:A1 I *D sky130_fd_sc_hd__mux2_1
*I *713:A0 I *D sky130_fd_sc_hd__mux2_1
*I *825:X O *D sky130_fd_sc_hd__dlygate4sd3_1
*CAP
1 *710:A1 0.00016548
2 *713:A0 0.000392088
3 *825:X 7.96372e-05
4 *167:8 0.000637206
5 *710:A1 *710:A0 5.71472e-05
6 *710:A1 *197:8 5.33433e-05
7 *710:A1 *197:34 0.000195455
8 *713:A0 *713:S 7.77652e-05
9 *753:D *713:A0 7.3237e-05
10 *75:24 *713:A0 7.37837e-05
11 *129:55 *713:A0 0.000153054
12 *129:64 *713:A0 1.02504e-05
13 *129:64 *167:8 0.00014209
*RES
1 *825:X *167:8 15.7464 
2 *167:8 *713:A0 21.2107 
3 *167:8 *710:A1 18.0321 
*END

*D_NET *168 0.000516451
*CONN
*I *708:A0 I *D sky130_fd_sc_hd__mux2_1
*I *826:X O *D sky130_fd_sc_hd__dlygate4sd3_1
*CAP
1 *708:A0 0.000121591
2 *826:X 0.000121591
3 *780:RESET_B *708:A0 0.000273269
*RES
1 *826:X *708:A0 21.1893 
*END

*D_NET *169 0.000451878
*CONN
*I *751:D I *D sky130_fd_sc_hd__dfrtp_1
*I *827:X O *D sky130_fd_sc_hd__dlygate4sd3_1
*CAP
1 *751:D 0.000158145
2 *827:X 0.000158145
3 *751:D *646:B1 0
4 *827:A *751:D 4.75715e-05
5 *132:22 *751:D 7.77652e-05
6 *137:43 *751:D 1.02504e-05
*RES
1 *827:X *751:D 30.2964 
*END

*D_NET *170 0.000633971
*CONN
*I *709:A0 I *D sky130_fd_sc_hd__mux2_1
*I *828:X O *D sky130_fd_sc_hd__dlygate4sd3_1
*CAP
1 *709:A0 9.67308e-05
2 *828:X 9.67308e-05
3 *709:A0 *709:S 8.50152e-05
4 *709:A0 *224:25 6.30388e-05
5 *734:A1 *709:A0 0.00014183
6 *137:10 *709:A0 0.000150625
*RES
1 *828:X *709:A0 30.9036 
*END

*D_NET *171 0.000733797
*CONN
*I *752:D I *D sky130_fd_sc_hd__dfrtp_1
*I *830:X O *D sky130_fd_sc_hd__dlygate4sd3_1
*CAP
1 *752:D 0.000255108
2 *830:X 0.000255108
3 *752:D *646:B1 0
4 *752:D *709:A1 8.07313e-05
5 *733:A0 *752:D 0
6 *752:CLK *752:D 0.00014285
7 *802:A *752:D 0
8 *830:A *752:D 0
9 *137:10 *752:D 0
*RES
1 *830:X *752:D 32.725 
*END

*D_NET *172 0.00650069
*CONN
*I *659:A1 I *D sky130_fd_sc_hd__a221o_1
*I *726:A0 I *D sky130_fd_sc_hd__mux2_1
*I *723:A1 I *D sky130_fd_sc_hd__mux2_1
*I *862:A I *D sky130_fd_sc_hd__buf_2
*I *658:B1 I *D sky130_fd_sc_hd__o22ai_1
*I *771:Q O *D sky130_fd_sc_hd__dfrtp_1
*CAP
1 *659:A1 0.000210646
2 *726:A0 0
3 *723:A1 0
4 *862:A 0.000704581
5 *658:B1 5.78116e-05
6 *771:Q 6.59684e-05
7 *172:41 0.00131195
8 *172:33 0.000679301
9 *172:27 0.000644352
10 *172:8 0.000485553
11 *659:A1 *642:B1 0.000173804
12 *862:A *723:A0 2.89114e-05
13 *862:A *724:A0 0
14 *172:8 *667:B1 9.90367e-05
15 *172:27 *666:B 6.72294e-05
16 *172:27 *720:A1 0.000118339
17 *172:27 *720:S 9.58181e-05
18 *172:27 *726:A1 0.000160676
19 *172:27 *764:D 0.000126367
20 *172:33 *720:S 7.1411e-05
21 *172:33 *726:A1 7.14482e-05
22 *172:33 *726:S 1.02132e-05
23 *172:33 *194:74 5.20751e-05
24 *172:41 *723:A0 0.000117621
25 *172:41 *208:12 5.06983e-05
26 *172:41 *208:21 6.23141e-05
27 *659:A2 *659:A1 0.000120034
28 *659:B2 *659:A1 1.3701e-05
29 *659:C1 *659:A1 0
30 *659:C1 *172:41 4.07257e-05
31 *660:B1 *658:B1 0.000103253
32 *660:B1 *172:27 0.000264782
33 *767:D *862:A 1.05947e-05
34 *772:CLK *862:A 0.000176096
35 *772:D *862:A 0.000129868
36 *787:A *172:27 0.000175512
*RES
1 *771:Q *172:8 14.7464 
2 *172:8 *658:B1 15.1393 
3 *172:8 *172:27 15.6964 
4 *172:27 *172:33 2.32143 
5 *172:33 *172:41 17.3393 
6 *172:41 *862:A 29.8536 
7 *172:41 *723:A1 9.3 
8 *172:33 *726:A0 9.3 
9 *172:27 *659:A1 22.7464 
*END

*D_NET *173 0.00180866
*CONN
*I *715:A1 I *D sky130_fd_sc_hd__mux2_1
*I *718:A0 I *D sky130_fd_sc_hd__mux2_1
*I *831:X O *D sky130_fd_sc_hd__dlygate4sd3_1
*CAP
1 *715:A1 0.000385995
2 *718:A0 0.000125635
3 *831:X 0
4 *173:4 0.00051163
5 *715:A1 *757:D 0
6 *715:A1 *833:A 0
7 *715:A1 *215:8 4.15914e-05
8 *718:A0 *718:A1 0.0001399
9 *718:A0 *718:S 9.60939e-05
10 *636:A *715:A1 0.000178111
11 *758:D *715:A1 0
12 *758:RESET_B *715:A1 7.76348e-05
13 *800:A *715:A1 0.000244628
14 *832:A *718:A0 7.43578e-06
*RES
1 *831:X *173:4 9.3 
2 *173:4 *718:A0 12.2107 
3 *173:4 *715:A1 27.2286 
*END

*D_NET *174 0.000481193
*CONN
*I *762:D I *D sky130_fd_sc_hd__dfrtp_1
*I *832:X O *D sky130_fd_sc_hd__dlygate4sd3_1
*CAP
1 *762:D 0.000201714
2 *832:X 0.000201714
3 *832:A *762:D 0
4 *125:51 *762:D 0
5 *125:62 *762:D 7.77652e-05
6 *125:76 *762:D 0
*RES
1 *832:X *762:D 31.2071 
*END

*D_NET *175 0.00119638
*CONN
*I *712:A1 I *D sky130_fd_sc_hd__mux2_1
*I *715:A0 I *D sky130_fd_sc_hd__mux2_1
*I *833:X O *D sky130_fd_sc_hd__dlygate4sd3_1
*CAP
1 *712:A1 0
2 *715:A0 0.000328592
3 *833:X 0.000140244
4 *175:12 0.000468836
5 *715:A0 *712:A0 5.49489e-05
6 *715:A0 *715:S 0.000203761
7 *175:12 *833:A 0
*RES
1 *833:X *175:12 20.175 
2 *175:12 *715:A0 15.5857 
3 *175:12 *712:A1 9.3 
*END

*D_NET *176 0.00199972
*CONN
*I *721:A1 I *D sky130_fd_sc_hd__mux2_1
*I *724:A0 I *D sky130_fd_sc_hd__mux2_1
*I *834:X O *D sky130_fd_sc_hd__dlygate4sd3_1
*CAP
1 *721:A1 0.000150002
2 *724:A0 0.000152865
3 *834:X 0.00027491
4 *176:8 0.000577777
5 *724:A0 *724:A1 5.52238e-05
6 *724:A0 *724:S 5.59013e-05
7 *768:RESET_B *176:8 4.85567e-05
8 *835:A *721:A1 0.000117196
9 *835:A *724:A0 0.00021609
10 *862:A *724:A0 0
11 *132:53 *721:A1 7.39637e-05
12 *132:59 *721:A1 4.25809e-05
13 *132:59 *724:A0 9.1799e-05
14 *133:8 *176:8 0.000142856
*RES
1 *834:X *176:8 17.2107 
2 *176:8 *724:A0 18.5143 
3 *176:8 *721:A1 17.8714 
*END

*D_NET *177 0.000396305
*CONN
*I *768:D I *D sky130_fd_sc_hd__dfrtp_1
*I *835:X O *D sky130_fd_sc_hd__dlygate4sd3_1
*CAP
1 *768:D 0.000129658
2 *835:X 0.000129658
3 *768:CLK *768:D 3.79467e-05
4 *835:A *768:D 0
5 *125:20 *768:D 9.90431e-05
*RES
1 *835:X *768:D 29.8857 
*END

*D_NET *178 0.002438
*CONN
*I *711:A1 I *D sky130_fd_sc_hd__mux2_1
*I *714:A0 I *D sky130_fd_sc_hd__mux2_1
*I *836:X O *D sky130_fd_sc_hd__dlygate4sd3_1
*CAP
1 *711:A1 0.000574879
2 *714:A0 0.000199899
3 *836:X 4.61022e-05
4 *178:10 0.00082088
5 *711:A1 *711:A0 5.71472e-05
6 *714:A0 *714:A1 0.000266846
7 *714:A0 *718:S 2.36643e-05
8 *178:10 *732:A1 0.000103267
9 *178:10 *196:73 3.57163e-05
10 *754:D *711:A1 0.00010096
11 *132:49 *711:A1 0.000183852
12 *132:49 *714:A0 2.47833e-05
*RES
1 *836:X *178:10 19.6393 
2 *178:10 *714:A0 13.1214 
3 *178:10 *711:A1 19.2821 
*END

*D_NET *179 0.000548979
*CONN
*I *757:D I *D sky130_fd_sc_hd__dfrtp_1
*I *837:X O *D sky130_fd_sc_hd__dlygate4sd3_1
*CAP
1 *757:D 0.00010972
2 *837:X 0.00010972
3 *757:D *215:8 0
4 *715:A1 *757:D 0
5 *754:CLK *757:D 6.74893e-05
6 *125:62 *757:D 2.89114e-05
7 *135:28 *757:D 5.01117e-05
8 *138:25 *757:D 0.000183027
*RES
1 *837:X *757:D 30.7071 
*END

*D_NET *180 0.000374049
*CONN
*I *711:A0 I *D sky130_fd_sc_hd__mux2_1
*I *838:X O *D sky130_fd_sc_hd__dlygate4sd3_1
*CAP
1 *711:A0 0.000158451
2 *838:X 0.000158451
3 *711:A1 *711:A0 5.71472e-05
*RES
1 *838:X *711:A0 21.1893 
*END

*D_NET *181 0.000340147
*CONN
*I *721:A0 I *D sky130_fd_sc_hd__mux2_1
*I *839:X O *D sky130_fd_sc_hd__dlygate4sd3_1
*CAP
1 *721:A0 0.000121065
2 *839:X 0.000121065
3 *721:A0 *721:S 9.80173e-05
*RES
1 *839:X *721:A0 20.7786 
*END

*D_NET *182 0.000531803
*CONN
*I *717:A0 I *D sky130_fd_sc_hd__mux2_1
*I *841:X O *D sky130_fd_sc_hd__dlygate4sd3_1
*CAP
1 *717:A0 0.00011739
2 *841:X 0.00011739
3 *717:A0 *717:A1 5.49489e-05
4 *717:A0 *717:S 0.000187041
5 *842:A *717:A0 5.5033e-05
*RES
1 *841:X *717:A0 21.6 
*END

*D_NET *183 0.00217978
*CONN
*I *657:A I *D sky130_fd_sc_hd__or2_1
*I *656:A I *D sky130_fd_sc_hd__nand2_1
*I *863:A I *D sky130_fd_sc_hd__buf_2
*I *724:A1 I *D sky130_fd_sc_hd__mux2_1
*I *849:A I *D sky130_fd_sc_hd__dlygate4sd3_1
*I *772:Q O *D sky130_fd_sc_hd__dfrtp_1
*CAP
1 *657:A 0.000150546
2 *656:A 7.91473e-05
3 *863:A 0
4 *724:A1 0.000155799
5 *849:A 0.000106962
6 *772:Q 0
7 *183:25 0.000206762
8 *183:21 0.00016888
9 *183:6 0.000145732
10 *183:4 0.000150546
11 *849:A *194:74 9.60939e-05
12 *659:B1 *656:A 1.33343e-05
13 *665:A *656:A 5.12878e-05
14 *724:A0 *724:A1 5.52238e-05
15 *727:A1 *849:A 0.000280531
16 *835:A *724:A1 5.30637e-06
17 *132:59 *656:A 2.59355e-05
18 *132:59 *724:A1 0.00014183
19 *132:59 *183:25 2.14658e-05
20 *132:61 *656:A 5.7661e-06
21 *132:61 *183:25 5.7661e-06
22 *132:65 *849:A 2.31791e-05
23 *132:65 *183:21 0.000101545
24 *133:18 *849:A 1.76135e-05
25 *133:18 *183:21 4.98872e-05
26 *133:20 *849:A 0.000120645
*RES
1 *772:Q *183:4 9.3 
2 *183:4 *183:6 4.5 
3 *183:6 *849:A 17.9071 
4 *183:6 *183:21 5.83929 
5 *183:21 *183:25 0.964286 
6 *183:25 *724:A1 12.3 
7 *183:25 *863:A 9.3 
8 *183:21 *656:A 11.0857 
9 *183:4 *657:A 11.0857 
*END

*D_NET *184 0.00149317
*CONN
*I *761:D I *D sky130_fd_sc_hd__dfrtp_1
*I *842:X O *D sky130_fd_sc_hd__dlygate4sd3_1
*CAP
1 *761:D 0.000373354
2 *842:X 0.000373354
3 *761:RESET_B *761:D 0.0002253
4 *135:28 *761:D 0.000394712
5 *135:30 *761:D 0.000126446
*RES
1 *842:X *761:D 36.8321 
*END

*D_NET *185 0.000576388
*CONN
*I *712:A0 I *D sky130_fd_sc_hd__mux2_1
*I *843:X O *D sky130_fd_sc_hd__dlygate4sd3_1
*CAP
1 *712:A0 0.000234666
2 *843:X 0.000234666
3 *712:A0 *715:S 2.27766e-05
4 *712:A0 *843:A 0
5 *712:A0 *196:97 2.93311e-05
6 *715:A0 *712:A0 5.49489e-05
*RES
1 *843:X *712:A0 30.8143 
*END

*D_NET *186 0.000458321
*CONN
*I *720:A0 I *D sky130_fd_sc_hd__mux2_1
*I *844:X O *D sky130_fd_sc_hd__dlygate4sd3_1
*CAP
1 *720:A0 6.02454e-05
2 *844:X 6.02454e-05
3 *720:A0 *720:A1 0.000139202
4 *720:A0 *720:S 5.45307e-05
5 *720:A0 *211:24 9.41642e-05
6 *659:A2 *720:A0 2.36643e-05
7 *115:41 *720:A0 2.6269e-05
*RES
1 *844:X *720:A0 20.7786 
*END

*D_NET *187 0.00105606
*CONN
*I *764:D I *D sky130_fd_sc_hd__dfrtp_1
*I *845:X O *D sky130_fd_sc_hd__dlygate4sd3_1
*CAP
1 *764:D 0.000290076
2 *845:X 0.000290076
3 *764:D *720:A1 0.000171368
4 *764:D *211:24 4.56594e-05
5 *787:A *764:D 0.000132516
6 *172:27 *764:D 0.000126367
*RES
1 *845:X *764:D 33.3009 
*END

*D_NET *188 0.000386159
*CONN
*I *710:A0 I *D sky130_fd_sc_hd__mux2_1
*I *846:X O *D sky130_fd_sc_hd__dlygate4sd3_1
*CAP
1 *710:A0 0.000106185
2 *846:X 0.000106185
3 *710:A0 *846:A 6.05161e-06
4 *710:A0 *197:34 3.14078e-05
5 *710:A0 *197:45 2.58821e-05
6 *710:A1 *710:A0 5.71472e-05
7 *75:24 *710:A0 5.33005e-05
*RES
1 *846:X *710:A0 20.7786 
*END

*D_NET *189 0.000568202
*CONN
*I *722:A0 I *D sky130_fd_sc_hd__mux2_1
*I *847:X O *D sky130_fd_sc_hd__dlygate4sd3_1
*CAP
1 *722:A0 0.000213635
2 *847:X 0.000213635
3 *161:31 *722:A0 8.57023e-05
4 *161:37 *722:A0 5.52302e-05
*RES
1 *847:X *722:A0 22.0107 
*END

*D_NET *190 0.000386595
*CONN
*I *723:A0 I *D sky130_fd_sc_hd__mux2_1
*I *848:X O *D sky130_fd_sc_hd__dlygate4sd3_1
*CAP
1 *723:A0 9.33597e-05
2 *848:X 9.33597e-05
3 *723:A0 *723:S 5.33433e-05
4 *862:A *723:A0 2.89114e-05
5 *172:41 *723:A0 0.000117621
*RES
1 *848:X *723:A0 21.1893 
*END

*D_NET *191 0.00040966
*CONN
*I *727:A0 I *D sky130_fd_sc_hd__mux2_1
*I *849:X O *D sky130_fd_sc_hd__dlygate4sd3_1
*CAP
1 *727:A0 0.000112009
2 *849:X 0.000112009
3 *727:A1 *727:A0 0.000185643
*RES
1 *849:X *727:A0 20.7786 
*END

*D_NET *192 0.00261445
*CONN
*I *692:A1 I *D sky130_fd_sc_hd__o22a_1
*I *725:A1 I *D sky130_fd_sc_hd__mux2_1
*I *850:X O *D sky130_fd_sc_hd__dlygate4sd3_1
*CAP
1 *692:A1 0
2 *725:A1 0.000496102
3 *850:X 0.000290837
4 *192:10 0.000786939
5 *725:A1 *674:A 6.58289e-05
6 *725:A1 *725:S 1.04232e-05
7 *725:A1 *194:6 1.54142e-05
8 *725:A1 *194:14 3.18676e-05
9 *725:A1 *198:10 0.00014183
10 *192:10 *198:10 0
11 *671:B1 *192:10 0.000106467
12 *692:A2 *725:A1 0.000202842
13 *692:A2 *192:10 3.51442e-05
14 *794:A *725:A1 4.69993e-05
15 *804:A *725:A1 0.000274294
16 *129:14 *725:A1 0.00010946
*RES
1 *850:X *192:10 18.3357 
2 *192:10 *725:A1 25.2643 
3 *192:10 *692:A1 13.8 
*END

*D_NET *193 0.0004049
*CONN
*I *630:A I *D sky130_fd_sc_hd__inv_2
*I *852:X O *D sky130_fd_sc_hd__dlygate4sd3_1
*CAP
1 *630:A 0.00020245
2 *852:X 0.00020245
3 *630:A *205:10 0
*RES
1 *852:X *630:A 30.4929 
*END

*D_NET *194 0.00940297
*CONN
*I *725:S I *D sky130_fd_sc_hd__mux2_1
*I *722:S I *D sky130_fd_sc_hd__mux2_1
*I *730:S I *D sky130_fd_sc_hd__mux2_1
*I *724:S I *D sky130_fd_sc_hd__mux2_1
*I *720:S I *D sky130_fd_sc_hd__mux2_1
*I *726:S I *D sky130_fd_sc_hd__mux2_1
*I *727:S I *D sky130_fd_sc_hd__mux2_1
*I *723:S I *D sky130_fd_sc_hd__mux2_1
*I *728:B I *D sky130_fd_sc_hd__or2_1
*I *729:S I *D sky130_fd_sc_hd__mux2_1
*I *804:X O *D sky130_fd_sc_hd__clkbuf_4
*CAP
1 *725:S 1.99857e-05
2 *722:S 3.93202e-05
3 *730:S 0
4 *724:S 0.000278482
5 *720:S 0.000303861
6 *726:S 2.00462e-05
7 *727:S 0
8 *723:S 7.24581e-05
9 *728:B 4.00453e-05
10 *729:S 0
11 *804:X 2.46636e-05
12 *194:74 0.000823159
13 *194:63 0.000499252
14 *194:61 0.000485252
15 *194:48 0.000521965
16 *194:37 0.000521528
17 *194:24 0.000489226
18 *194:22 0.000711067
19 *194:14 0.000631258
20 *194:6 0.000176001
21 *720:S *642:B1 0.000128161
22 *194:22 *817:A 9.83442e-05
23 *194:37 *633:A 6.58289e-05
24 num_to_send_o[2] *724:S 1.99737e-05
25 *659:A2 *720:S 5.99974e-05
26 *720:A0 *720:S 5.45307e-05
27 *723:A0 *723:S 5.33433e-05
28 *724:A0 *724:S 5.59013e-05
29 *725:A1 *725:S 1.04232e-05
30 *725:A1 *194:6 1.54142e-05
31 *725:A1 *194:14 3.18676e-05
32 *727:A1 *194:74 0.000165416
33 *728:A *194:37 6.80593e-05
34 *729:A0 *194:24 5.52238e-05
35 *729:A0 *194:37 1.69961e-05
36 *729:A1 *194:37 0.000226507
37 *730:A0 *194:22 0.000131979
38 *730:A0 *194:24 2.41665e-05
39 *730:A1 *194:24 0.000575651
40 *731:A1 *194:22 0.000146533
41 *766:D *194:22 5.62995e-05
42 *767:D *194:48 0
43 *772:D *724:S 0
44 *794:A *194:6 0.00014183
45 *794:A *194:14 0.000227539
46 *804:A *725:S 0
47 *804:A *194:6 9.90431e-05
48 *849:A *194:74 9.60939e-05
49 *129:14 *194:14 8.80589e-05
50 *132:59 *724:S 5.80706e-06
51 *133:18 *724:S 0
52 *133:20 *724:S 0
53 *133:20 *194:48 0
54 *133:20 *194:61 0
55 *133:22 *194:37 0
56 *133:22 *194:48 0
57 *134:36 *194:14 0.000197984
58 *161:18 *194:14 1.88048e-05
59 *161:31 *722:S 5.71472e-05
60 *161:31 *194:14 3.84385e-05
61 *161:37 *722:S 4.27935e-05
62 *161:37 *194:22 0.000441731
63 *172:27 *720:S 9.58181e-05
64 *172:33 *720:S 7.1411e-05
65 *172:33 *726:S 1.02132e-05
66 *172:33 *194:74 5.20751e-05
*RES
1 *804:X *194:6 10.6571 
2 *194:6 *194:14 13.7321 
3 *194:14 *194:22 10.9643 
4 *194:22 *194:24 6.28571 
5 *194:24 *729:S 9.3 
6 *194:24 *194:37 10.0714 
7 *194:37 *728:B 14.3357 
8 *194:37 *194:48 4.07143 
9 *194:48 *723:S 15.175 
10 *194:48 *194:61 3.16071 
11 *194:61 *194:63 4.5 
12 *194:63 *727:S 9.3 
13 *194:63 *194:74 8.48214 
14 *194:74 *726:S 9.72857 
15 *194:74 *720:S 24.3179 
16 *194:61 *724:S 18.7821 
17 *194:22 *730:S 9.3 
18 *194:14 *722:S 10.2464 
19 *194:6 *725:S 9.72857 
*END

*D_NET *195 0.00149745
*CONN
*I *673:B I *D sky130_fd_sc_hd__xor2_1
*I *853:X O *D sky130_fd_sc_hd__dlygate4sd3_1
*CAP
1 *673:B 0.000527175
2 *853:X 0.000527175
3 *673:B *205:66 0.000170654
4 *673:B *206:10 0
5 *684:B *673:B 0
6 *689:A2 *673:B 7.17836e-05
7 *136:20 *673:B 4.35131e-05
8 *136:22 *673:B 0.00012389
9 *136:47 *673:B 3.32631e-05
10 *136:53 *673:B 0
*RES
1 *853:X *673:B 38.225 
*END

*D_NET *196 0.012906
*CONN
*I *712:S I *D sky130_fd_sc_hd__mux2_1
*I *715:S I *D sky130_fd_sc_hd__mux2_1
*I *733:S I *D sky130_fd_sc_hd__mux2_1
*I *732:S I *D sky130_fd_sc_hd__mux2_1
*I *714:S I *D sky130_fd_sc_hd__mux2_1
*I *718:S I *D sky130_fd_sc_hd__mux2_1
*I *717:S I *D sky130_fd_sc_hd__mux2_1
*I *721:S I *D sky130_fd_sc_hd__mux2_1
*I *731:S I *D sky130_fd_sc_hd__mux2_1
*I *805:X O *D sky130_fd_sc_hd__clkbuf_4
*CAP
1 *712:S 2.22847e-05
2 *715:S 0.00034285
3 *733:S 0.000155787
4 *732:S 0
5 *714:S 0
6 *718:S 0.000379164
7 *717:S 0.000179464
8 *721:S 0.000889519
9 *731:S 0.000172522
10 *805:X 3.34103e-05
11 *196:97 0.000711118
12 *196:79 0.000238321
13 *196:73 0.000636092
14 *196:51 0.000415248
15 *196:47 0.000323484
16 *196:12 0.00117859
17 *196:10 0.000339722
18 *196:8 0.000156946
19 *718:S *714:A1 9.99853e-05
20 *718:S *831:A 0.000186669
21 *731:S *214:8 7.83587e-05
22 *733:S *221:21 4.43256e-05
23 *196:8 *649:A 5.33005e-05
24 *196:10 *214:8 9.25014e-06
25 *196:10 *214:19 0.000166983
26 *196:12 *214:8 0.000437941
27 *196:47 *714:A1 0.000159689
28 *196:47 *214:19 5.41794e-05
29 *196:51 *714:A1 0.000139202
30 *196:73 *714:A1 3.17148e-05
31 *196:73 *732:A1 0
32 *196:73 *843:A 8.20201e-05
33 *196:79 *221:21 6.62898e-05
34 *196:97 *843:A 0.000325305
35 *644:A *733:S 5.52302e-05
36 *670:B *731:S 2.44318e-05
37 *712:A0 *715:S 2.27766e-05
38 *712:A0 *196:97 2.93311e-05
39 *714:A0 *718:S 2.36643e-05
40 *715:A0 *715:S 0.000203761
41 *717:A0 *717:S 0.000187041
42 *718:A0 *718:S 9.60939e-05
43 *721:A0 *721:S 9.80173e-05
44 *732:A0 *733:S 0.000484511
45 *732:A0 *196:73 0
46 *732:A0 *196:79 4.13595e-05
47 *732:A0 *196:97 0
48 *733:A0 *733:S 1.98839e-05
49 *776:D *721:S 0.000347151
50 *776:RESET_B *721:S 8.25843e-06
51 *777:D *196:97 0.000228937
52 *778:D *733:S 1.21258e-05
53 *778:RESET_B *196:73 0.000158021
54 *788:A *731:S 1.78447e-05
55 *809:A *196:97 0.000150857
56 *837:A *718:S 4.44948e-05
57 *81:16 *731:S 5.71472e-05
58 *119:16 *733:S 0.000143625
59 *119:16 *196:79 0.000271352
60 *132:49 *718:S 0.000542631
61 *132:49 *196:51 6.47486e-05
62 *138:27 *731:S 0.000128146
63 *138:27 *196:10 0.000168698
64 *138:27 *196:12 0.000428691
65 *138:27 *196:47 0.000207769
66 *138:27 *196:73 0.000138946
67 *138:71 *731:S 0.000354996
68 *178:10 *196:73 3.57163e-05
*RES
1 *805:X *196:8 14.3357 
2 *196:8 *196:10 2.25 
3 *196:10 *196:12 5.58929 
4 *196:12 *731:S 18.8536 
5 *196:12 *721:S 26.6929 
6 *196:10 *717:S 17.2107 
7 *196:8 *196:47 2.85714 
8 *196:47 *196:51 5.85714 
9 *196:51 *718:S 20.8 
10 *196:51 *714:S 9.3 
11 *196:47 *196:73 5.28571 
12 *196:73 *196:79 7.51786 
13 *196:79 *732:S 9.3 
14 *196:79 *733:S 14.7643 
15 *196:73 *196:97 13.1071 
16 *196:97 *715:S 15.6036 
17 *196:97 *712:S 9.72857 
*END

*D_NET *197 0.0120787
*CONN
*I *735:S I *D sky130_fd_sc_hd__mux2_1
*I *734:S I *D sky130_fd_sc_hd__mux2_1
*I *709:S I *D sky130_fd_sc_hd__mux2_1
*I *708:S I *D sky130_fd_sc_hd__mux2_1
*I *676:S I *D sky130_fd_sc_hd__mux2_1
*I *675:S I *D sky130_fd_sc_hd__mux2_1
*I *707:S I *D sky130_fd_sc_hd__mux2_1
*I *710:S I *D sky130_fd_sc_hd__mux2_1
*I *711:S I *D sky130_fd_sc_hd__mux2_1
*I *713:S I *D sky130_fd_sc_hd__mux2_1
*I *806:X O *D sky130_fd_sc_hd__clkbuf_4
*CAP
1 *735:S 7.67142e-05
2 *734:S 0
3 *709:S 0.0004137
4 *708:S 0.000172615
5 *676:S 0
6 *675:S 0
7 *707:S 0.000290906
8 *710:S 2.23854e-05
9 *711:S 0.000210462
10 *713:S 0.000252609
11 *806:X 0
12 *197:115 0.000735202
13 *197:98 0.000751922
14 *197:94 0.000656003
15 *197:81 0.000402446
16 *197:57 0.00060216
17 *197:45 0.000806703
18 *197:34 0.000641181
19 *197:8 0.000627654
20 *197:4 0.000368892
21 *707:S *653:B1 4.46186e-06
22 *707:S *822:A 0.00022117
23 *707:S *199:57 0.000112006
24 *707:S *222:46 0.000116481
25 *709:S *709:A1 7.80714e-06
26 *709:S *224:8 2.59355e-05
27 *709:S *224:25 0.000218734
28 *711:S *216:12 5.03694e-05
29 *735:S *654:A2 1.40415e-05
30 *197:8 *216:12 5.33005e-05
31 *197:45 *653:B1 0.000111439
32 *197:45 *664:A2 9.60939e-05
33 *197:45 *846:A 0.000269428
34 *197:57 *653:B1 1.62539e-05
35 *197:57 *200:23 5.36813e-05
36 *197:57 *222:46 1.02504e-05
37 *197:81 *653:B1 4.43256e-05
38 *197:81 *664:A2 9.94194e-05
39 *197:94 *664:A2 2.59355e-05
40 *197:94 *223:10 6.26559e-05
41 *197:94 *223:18 9.54717e-05
42 *197:98 *654:A2 3.47797e-05
43 *197:98 *223:6 1.90303e-05
44 *197:115 *200:23 0
45 *647:B1 *711:S 0.000340059
46 *654:A1 *197:94 0
47 *663:A1 *197:57 3.51442e-05
48 *664:B1 *708:S 0
49 *664:B1 *197:57 3.34295e-05
50 *664:B1 *197:115 0
51 *664:C1 *197:81 0.000135028
52 *664:C1 *197:94 4.27935e-05
53 *669:B *711:S 0.000125724
54 *669:B *713:S 0.00021286
55 *677:S *711:S 4.97825e-05
56 *707:A0 *707:S 0.000519296
57 *709:A0 *709:S 8.50152e-05
58 *710:A0 *197:34 3.14078e-05
59 *710:A0 *197:45 2.58821e-05
60 *710:A1 *197:8 5.33433e-05
61 *710:A1 *197:34 0.000195455
62 *713:A0 *713:S 7.77652e-05
63 *713:A1 *713:S 0
64 *734:A0 *709:S 0.00014285
65 *734:A1 *709:S 0.000132917
66 *735:A0 *735:S 0
67 *742:D *197:94 0.00012401
68 *752:CLK *709:S 2.79421e-05
69 *752:RESET_B *709:S 6.42145e-05
70 *753:CLK *713:S 9.25014e-06
71 *756:RESET_B *711:S 0
72 *756:RESET_B *713:S 0
73 *779:D *709:S 7.32272e-05
74 *779:D *197:115 0
75 *780:CLK *708:S 5.52302e-05
76 *780:D *197:94 5.35516e-05
77 *780:RESET_B *708:S 4.72818e-05
78 *793:A *197:45 2.59355e-05
79 *805:A *711:S 1.05524e-05
80 *65:18 *197:94 0
81 *75:24 *713:S 8.07313e-05
82 *75:24 *197:45 1.149e-05
83 *127:20 *707:S 0.000109325
84 *127:95 *708:S 0.000101545
85 *127:110 *708:S 0
86 *127:110 *197:115 0
87 *129:64 *711:S 8.54149e-05
88 *130:80 *713:S 0
89 *131:78 *197:57 0.000143919
90 *137:10 *709:S 2.16719e-05
91 *137:29 *197:115 0
*RES
1 *806:X *197:4 9.3 
2 *197:4 *197:8 7.08929 
3 *197:8 *713:S 19.8 
4 *197:8 *711:S 20.6036 
5 *197:4 *197:34 4.23214 
6 *197:34 *710:S 9.72857 
7 *197:34 *197:45 7.94643 
8 *197:45 *197:57 9.91071 
9 *197:57 *707:S 22.8536 
10 *197:57 *675:S 13.8 
11 *197:45 *197:81 2.17857 
12 *197:81 *676:S 9.3 
13 *197:81 *197:94 16.3393 
14 *197:94 *197:98 8.32143 
15 *197:98 *708:S 17.2286 
16 *197:98 *197:115 9.78571 
17 *197:115 *709:S 27.9786 
18 *197:115 *734:S 9.3 
19 *197:94 *735:S 10.675 
*END

*D_NET *198 0.00187253
*CONN
*I *631:A I *D sky130_fd_sc_hd__inv_2
*I *850:A I *D sky130_fd_sc_hd__dlygate4sd3_1
*I *745:Q O *D sky130_fd_sc_hd__dfrtp_1
*CAP
1 *631:A 6.55147e-05
2 *850:A 7.24107e-05
3 *745:Q 0.000181965
4 *198:10 0.000319891
5 *850:A *634:B 4.87953e-05
6 *198:10 *634:B 0.00034321
7 *198:10 *674:A 9.34004e-05
8 *671:A1 *850:A 1.58163e-05
9 *671:B1 *850:A 0.00010096
10 *674:B *631:A 8.15095e-05
11 *674:B *198:10 0.00012401
12 *674:C *631:A 1.17968e-05
13 *674:C *198:10 2.82057e-05
14 *725:A1 *198:10 0.00014183
15 *794:A *198:10 3.18676e-05
16 *80:8 *631:A 0.000118903
17 *81:18 *631:A 9.24491e-05
18 *192:10 *198:10 0
*RES
1 *745:Q *198:10 20.1393 
2 *198:10 *850:A 15.5679 
3 *198:10 *631:A 16.3536 
*END

*D_NET *199 0.0167366
*CONN
*I *662:A I *D sky130_fd_sc_hd__xnor2_1
*I *645:A I *D sky130_fd_sc_hd__xnor2_1
*I *649:A I *D sky130_fd_sc_hd__xnor2_1
*I *632:A I *D sky130_fd_sc_hd__inv_2
*I *726:A1 I *D sky130_fd_sc_hd__mux2_1
*I *666:A I *D sky130_fd_sc_hd__xnor2_1
*I *746:Q O *D sky130_fd_sc_hd__dfrtp_4
*CAP
1 *662:A 0.000323308
2 *645:A 5.17879e-05
3 *649:A 0.000901884
4 *632:A 2.61224e-05
5 *726:A1 0.000799214
6 *666:A 0.000312984
7 *746:Q 2.23854e-05
8 *199:67 0.00166997
9 *199:57 0.00164161
10 *199:44 0.000951172
11 *199:16 0.00198631
12 *199:6 0.00121955
13 *645:A *645:B 3.57366e-05
14 *649:A *649:B 0.000180066
15 *666:A *667:B1 0.00022459
16 *199:16 *820:A 5.56695e-05
17 *199:16 *211:12 2.59355e-05
18 *199:57 *653:B1 0.000168224
19 *199:57 *664:A2 0
20 *199:57 *200:23 0
21 *199:67 *645:B 5.23057e-05
22 *199:67 *646:A2 0.000142814
23 *199:67 *646:B1 0
24 *199:67 *647:A2 5.52238e-05
25 *199:67 *708:A1 0.000131761
26 *199:67 *220:14 0
27 *646:C1 *199:67 0.000185643
28 *647:C1 *199:67 0
29 *650:C1 *649:A 0.000332128
30 *654:A1 *662:A 0.000161947
31 *654:A1 *199:67 4.43256e-05
32 *658:B2 *666:A 0.000344917
33 *658:B2 *199:16 7.90803e-05
34 *663:A1 *662:A 0.000654909
35 *663:A1 *199:57 0
36 *667:C1 *666:A 3.18676e-05
37 *668:B1 *666:A 5.10822e-05
38 *668:B1 *199:16 3.81e-05
39 *668:C1 *666:A 0.000154762
40 *699:A1 *199:44 0
41 *699:A1 *199:57 0
42 *707:S *199:57 0.000112006
43 *731:A1 *666:A 0
44 *742:D *662:A 8.3722e-05
45 *763:CLK *199:16 0.000534222
46 *763:D *199:16 6.06709e-05
47 *763:RESET_B *199:16 2.29097e-05
48 *789:A *199:44 0
49 *789:A *199:57 0
50 *790:A *199:67 1.02504e-05
51 *805:A *649:A 0.00114142
52 *59:16 *649:A 1.59373e-05
53 *115:6 *632:A 2.89016e-05
54 *115:80 *199:57 0.000135245
55 *115:93 *199:57 4.00025e-05
56 *115:99 *199:67 0.00016345
57 *127:10 *662:A 6.4443e-05
58 *127:10 *199:57 0.000148911
59 *127:10 *199:67 1.58163e-05
60 *127:12 *199:57 0.000146474
61 *127:14 *199:57 0.000216304
62 *127:20 *199:57 0.000148903
63 *127:80 *199:57 0
64 *131:78 *199:57 0
65 *134:21 *726:A1 6.95093e-05
66 *134:21 *199:16 0.000190805
67 *137:43 *199:67 2.47093e-05
68 *137:45 *199:67 1.91512e-05
69 *172:27 *726:A1 0.000160676
70 *172:33 *726:A1 7.14482e-05
71 *196:8 *649:A 5.33005e-05
*RES
1 *746:Q *199:6 9.72857 
2 *199:6 *199:16 21.4107 
3 *199:16 *666:A 21.3 
4 *199:16 *726:A1 23.3714 
5 *199:6 *199:44 9.75 
6 *199:44 *632:A 14.3357 
7 *199:44 *199:57 19.1964 
8 *199:57 *199:67 21.8571 
9 *199:67 *649:A 25.6214 
10 *199:67 *645:A 10.3357 
11 *199:57 *662:A 18.4607 
*END

*D_NET *200 0.00577474
*CONN
*I *797:A I *D sky130_fd_sc_hd__clkbuf_4
*I *811:A I *D sky130_fd_sc_hd__dlygate4sd3_1
*I *747:Q O *D sky130_fd_sc_hd__dfrtp_1
*CAP
1 *797:A 0
2 *811:A 0.000177153
3 *747:Q 7.69948e-05
4 *200:23 0.00138057
5 *200:6 0.00163472
6 *200:23 *654:A2 0
7 *200:23 *661:B 6.75007e-05
8 *200:23 *822:A 0
9 *200:23 *854:A 1.17968e-05
10 *200:23 *222:46 0
11 *200:23 *223:10 0.000262422
12 *200:23 *223:18 0.000172181
13 *664:B1 *200:23 0.000903545
14 *699:A1 *200:23 0.00039299
15 *742:D *200:23 8.13657e-05
16 *746:CLK *200:23 0
17 *746:D *200:23 5.01213e-05
18 *749:CLK *811:A 5.33433e-05
19 *750:D *200:23 0
20 *815:A *200:23 0.000312743
21 *126:112 *811:A 0.000122091
22 *126:112 *200:6 2.15245e-05
23 *132:22 *200:23 0
24 *197:57 *200:23 5.36813e-05
25 *197:115 *200:23 0
26 *199:57 *200:23 0
*RES
1 *747:Q *200:6 10.2464 
2 *200:6 *811:A 13.0321 
3 *200:6 *200:23 41.25 
4 *200:23 *797:A 9.3 
*END

*D_NET *201 0.00161939
*CONN
*I *634:B I *D sky130_fd_sc_hd__or2_2
*I *671:Y O *D sky130_fd_sc_hd__a21oi_1
*CAP
1 *634:B 0.000447363
2 *671:Y 0.000447363
3 *634:B *674:A 3.75052e-05
4 *634:A *634:B 3.34295e-05
5 *671:A2 *634:B 3.69047e-06
6 *674:C *634:B 0.000154762
7 *692:A2 *634:B 0
8 *794:A *634:B 0.000103267
9 *850:A *634:B 4.87953e-05
10 *198:10 *634:B 0.00034321
*RES
1 *671:Y *634:B 36.6 
*END

*D_NET *202 0.00805742
*CONN
*I *736:A I *D sky130_fd_sc_hd__nand2_1
*I *686:B I *D sky130_fd_sc_hd__nand2_1
*I *629:A I *D sky130_fd_sc_hd__inv_2
*I *683:B I *D sky130_fd_sc_hd__or2_1
*I *703:A2 I *D sky130_fd_sc_hd__a21o_1
*I *741:A1 I *D sky130_fd_sc_hd__a31o_1
*I *740:A1 I *D sky130_fd_sc_hd__a31oi_1
*I *737:A I *D sky130_fd_sc_hd__or2_1
*I *782:Q O *D sky130_fd_sc_hd__dfrtp_2
*CAP
1 *736:A 0
2 *686:B 0.000163711
3 *629:A 0
4 *683:B 0
5 *703:A2 0.000112229
6 *741:A1 0
7 *740:A1 0.000147235
8 *737:A 0.000343706
9 *782:Q 1.53865e-05
10 *202:89 0.000336752
11 *202:70 0.00050091
12 *202:55 0.000930329
13 *202:35 0.000285612
14 *202:31 0.000849634
15 *202:23 0.000241553
16 *202:6 0.000379619
17 *686:B *686:A 0.000227532
18 *703:A2 *688:B 3.40128e-05
19 *703:A2 *203:19 7.6743e-05
20 *703:A2 *204:14 4.46689e-05
21 *740:A1 *203:34 4.88637e-05
22 *202:70 *688:B 5.71472e-05
23 *202:89 *683:A 9.71197e-05
24 *678:A *686:B 0.00018113
25 *681:A1 *686:B 0
26 *681:A1 *202:89 8.98027e-05
27 *688:A *202:70 0.00010096
28 *689:A1 *202:89 1.55885e-05
29 *690:A *686:B 9.90367e-05
30 *690:A *202:89 1.21289e-05
31 *690:B *686:B 4.43157e-05
32 *690:B *202:89 0
33 *736:B *202:31 6.19181e-05
34 *736:B *202:35 2.66026e-05
35 *738:A *737:A 0.000105163
36 *738:B *737:A 0.000276211
37 *740:B1 *740:A1 5.71472e-05
38 *741:A2 *202:31 4.70078e-05
39 *741:A2 *202:35 0.000177948
40 *741:A2 *202:55 1.92905e-05
41 *741:A3 *703:A2 7.83659e-05
42 *741:B1 *740:A1 5.71472e-05
43 *748:CLK *737:A 2.61337e-05
44 *748:CLK *202:23 5.52302e-05
45 *748:CLK *202:31 5.41794e-05
46 *782:D *737:A 0.000230482
47 *782:RESET_B *737:A 3.18676e-05
48 *782:RESET_B *202:6 1.97695e-05
49 *782:RESET_B *202:23 1.69961e-05
50 *783:D *202:31 9.71197e-05
51 *783:RESET_B *202:55 4.85567e-05
52 *11:10 *686:B 0.000108535
53 *88:6 *202:89 5.97074e-05
54 *109:14 *737:A 0.000200706
55 *109:14 *202:23 9.60875e-05
56 *112:18 *686:B 8.05572e-05
57 *112:18 *703:A2 0
58 *112:18 *202:89 0.000304561
59 *117:19 *737:A 4.88637e-05
60 *117:34 *737:A 4.16899e-05
61 *126:14 *202:35 0
62 *126:16 *202:35 0
63 *126:18 *737:A 4.66203e-05
64 *126:18 *202:31 7.83659e-05
65 *136:73 *703:A2 8.11028e-06
66 *136:83 *703:A2 6.07532e-05
*RES
1 *782:Q *202:6 9.72857 
2 *202:6 *737:A 27.4786 
3 *202:6 *202:23 0.946429 
4 *202:23 *202:31 12.8214 
5 *202:31 *202:35 7.66071 
6 *202:35 *740:A1 16.1036 
7 *202:35 *741:A1 13.8 
8 *202:31 *202:55 5.875 
9 *202:55 *703:A2 21.7643 
10 *202:55 *202:70 4.55357 
11 *202:70 *683:B 9.3 
12 *202:70 *202:89 6.01786 
13 *202:89 *629:A 9.3 
14 *202:89 *686:B 15.2107 
15 *202:23 *736:A 9.3 
*END

*D_NET *203 0.00882908
*CONN
*I *682:B I *D sky130_fd_sc_hd__nand2_1
*I *700:A1 I *D sky130_fd_sc_hd__a2111oi_1
*I *680:A2 I *D sky130_fd_sc_hd__a211o_1
*I *687:B I *D sky130_fd_sc_hd__nor2_1
*I *678:B I *D sky130_fd_sc_hd__nor2_1
*I *703:B1 I *D sky130_fd_sc_hd__a21o_1
*I *740:A2 I *D sky130_fd_sc_hd__a31oi_1
*I *739:A I *D sky130_fd_sc_hd__xnor2_1
*I *693:B I *D sky130_fd_sc_hd__and2_1
*I *688:B I *D sky130_fd_sc_hd__or2_1
*I *783:Q O *D sky130_fd_sc_hd__dfrtp_4
*CAP
1 *682:B 9.73265e-05
2 *700:A1 0.000288119
3 *680:A2 0
4 *687:B 0.000241627
5 *678:B 0
6 *703:B1 3.35859e-05
7 *740:A2 0
8 *739:A 0.000232971
9 *693:B 0
10 *688:B 4.66935e-05
11 *783:Q 0
12 *203:85 0.000444933
13 *203:75 0.000235103
14 *203:69 0.000734247
15 *203:63 0.000528758
16 *203:34 0.000364026
17 *203:25 0.000249274
18 *203:21 0.000151805
19 *203:19 0.000118547
20 *203:6 0.000148141
21 *682:B *204:8 8.00806e-05
22 *682:B *204:14 3.73407e-05
23 *687:B *205:19 8.91726e-05
24 *700:A1 *679:C1 0.000163125
25 *700:A1 *700:C1 8.69386e-05
26 *700:A1 *205:66 1.721e-05
27 *203:19 *204:14 1.90936e-05
28 *203:63 *204:14 3.61898e-05
29 *203:69 *204:14 0.000525848
30 *203:69 *204:41 0.000115139
31 *203:75 *204:52 9.71197e-05
32 *203:85 *204:52 0
33 *681:A1 *203:75 9.54798e-06
34 *681:A1 *203:85 1.3743e-05
35 *682:A *682:B 1.05731e-05
36 *687:A *687:B 5.52302e-05
37 *688:A *688:B 0
38 *689:C1 *682:B 5.52238e-05
39 *692:A2 *739:A 0
40 *692:B2 *682:B 1.10866e-05
41 *695:A1 *700:A1 0.000101615
42 *695:A1 *203:75 2.06112e-05
43 *695:B1 *700:A1 5.7903e-06
44 *695:B1 *203:69 0.000233349
45 *696:A2 *682:B 5.34196e-05
46 *696:A2 *203:19 3.47641e-06
47 *696:A2 *203:63 1.94135e-05
48 *700:B1 *700:A1 2.9357e-05
49 *703:A2 *688:B 3.40128e-05
50 *703:A2 *203:19 7.6743e-05
51 *705:A2 *700:A1 4.59075e-05
52 *740:A1 *203:34 4.88637e-05
53 *740:B1 *203:34 0.000536146
54 *745:CLK *739:A 7.32173e-05
55 *745:D *739:A 5.83233e-05
56 *745:RESET_B *739:A 0.000225609
57 *745:RESET_B *203:34 0.00075137
58 *11:16 *203:85 0.000136951
59 *83:10 *203:75 9.90367e-05
60 *83:10 *203:85 0.000260574
61 *87:14 *682:B 3.39401e-05
62 *88:12 *700:A1 2.47093e-05
63 *90:20 *700:A1 5.52302e-05
64 *92:8 *687:B 2.89114e-05
65 *93:8 *203:19 0
66 *95:10 *700:A1 3.82255e-05
67 *95:10 *203:75 2.30116e-06
68 *95:10 *203:85 5.41794e-05
69 *95:20 *700:A1 5.22828e-05
70 *109:14 *739:A 1.76039e-05
71 *112:37 *688:B 0
72 *112:37 *203:19 0
73 *112:43 *703:B1 4.27935e-05
74 *112:43 *203:25 0.000242436
75 *112:43 *203:34 2.77173e-05
76 *117:66 *739:A 0
77 *117:75 *739:A 0
78 *136:53 *203:69 0
79 *136:57 *203:69 0
80 *202:70 *688:B 5.71472e-05
*RES
1 *783:Q *203:6 13.8 
2 *203:6 *688:B 15.0679 
3 *203:6 *203:19 2.25 
4 *203:19 *203:21 4.5 
5 *203:21 *203:25 2.60714 
6 *203:25 *693:B 9.3 
7 *203:25 *203:34 7.53571 
8 *203:34 *739:A 23.6393 
9 *203:34 *740:A2 9.3 
10 *203:21 *703:B1 10.2643 
11 *203:19 *203:63 0.580357 
12 *203:63 *203:69 8.1642 
13 *203:69 *203:75 5.72321 
14 *203:75 *203:85 13.4643 
15 *203:85 *678:B 9.3 
16 *203:85 *687:B 22.8536 
17 *203:75 *680:A2 9.3 
18 *203:69 *700:A1 20.6482 
19 *203:63 *682:B 16.5589 
*END

*D_NET *204 0.00561224
*CONN
*I *703:A1 I *D sky130_fd_sc_hd__a21o_1
*I *701:A I *D sky130_fd_sc_hd__and3_1
*I *686:A I *D sky130_fd_sc_hd__nand2_1
*I *628:A I *D sky130_fd_sc_hd__inv_2
*I *680:A1 I *D sky130_fd_sc_hd__a211o_1
*I *679:A1 I *D sky130_fd_sc_hd__a211o_1
*I *683:A I *D sky130_fd_sc_hd__or2_1
*I *784:Q O *D sky130_fd_sc_hd__dfrtp_2
*CAP
1 *703:A1 0
2 *701:A 0.00012282
3 *686:A 3.90818e-05
4 *628:A 0
5 *680:A1 0
6 *679:A1 0
7 *683:A 0.00010336
8 *784:Q 3.01009e-05
9 *204:67 0.000216691
10 *204:61 0.000319069
11 *204:52 0.00013142
12 *204:41 0.000211621
13 *204:14 0.000468977
14 *204:8 0.000296877
15 *701:A *694:A 6.71854e-05
16 *701:A *694:C_N 5.52238e-05
17 *701:A *206:18 1.17968e-05
18 *204:41 *679:B1 2.7099e-05
19 *204:52 *679:B1 0.000307343
20 *204:61 *679:B1 1.98839e-05
21 *678:A *204:67 6.8646e-06
22 *681:B1 *683:A 0.000190335
23 *682:B *204:8 8.00806e-05
24 *682:B *204:14 3.73407e-05
25 *686:B *686:A 0.000227532
26 *689:A1 *683:A 0.000108912
27 *689:A1 *204:41 3.43988e-06
28 *689:A2 *701:A 6.05161e-06
29 *690:A *204:67 2.39779e-05
30 *690:B *686:A 0.000227532
31 *692:B2 *204:8 9.25014e-06
32 *695:B1 *204:8 2.90068e-05
33 *695:B1 *204:14 1.55773e-05
34 *696:B1 *204:41 1.40389e-06
35 *696:C1 *204:41 3.27689e-06
36 *701:C *701:A 0.000297258
37 *703:A2 *204:14 4.46689e-05
38 *741:A3 *204:14 2.82057e-05
39 *748:D *683:A 5.08481e-05
40 *11:10 *204:67 7.6644e-05
41 *11:42 *701:A 9.25014e-06
42 *11:42 *204:67 6.73939e-05
43 *83:10 *204:41 5.74921e-05
44 *83:10 *204:52 9.34658e-05
45 *83:10 *204:61 5.33005e-05
46 *88:12 *683:A 4.06087e-07
47 *88:12 *204:41 1.90936e-05
48 *92:8 *701:A 1.02936e-05
49 *95:10 *701:A 0.000138939
50 *95:10 *204:67 0.000168217
51 *112:18 *683:A 9.90431e-05
52 *136:53 *204:67 0
53 *136:57 *204:14 9.32128e-05
54 *136:57 *204:41 1.48659e-05
55 *202:89 *683:A 9.71197e-05
56 *203:19 *204:14 1.90936e-05
57 *203:63 *204:14 3.61898e-05
58 *203:69 *204:14 0.000525848
59 *203:69 *204:41 0.000115139
60 *203:75 *204:52 9.71197e-05
61 *203:85 *204:52 0
*RES
1 *784:Q *204:8 14.8357 
2 *204:8 *204:14 5.5093 
3 *204:14 *683:A 20.8618 
4 *204:14 *204:41 9.61006 
5 *204:41 *679:A1 9.3 
6 *204:41 *204:52 3.85714 
7 *204:52 *680:A1 9.3 
8 *204:52 *204:61 5.03571 
9 *204:61 *204:67 7.89286 
10 *204:67 *628:A 9.3 
11 *204:67 *686:A 11.4786 
12 *204:61 *701:A 17.925 
13 *204:8 *703:A1 13.8 
*END

*D_NET *205 0.00726501
*CONN
*I *685:B I *D sky130_fd_sc_hd__nand2_1
*I *702:A1 I *D sky130_fd_sc_hd__a211o_1
*I *853:A I *D sky130_fd_sc_hd__dlygate4sd3_1
*I *704:B I *D sky130_fd_sc_hd__and3_1
*I *691:A2 I *D sky130_fd_sc_hd__a31o_1
*I *679:C1 I *D sky130_fd_sc_hd__a211o_1
*I *700:D1 I *D sky130_fd_sc_hd__a2111oi_1
*I *694:A I *D sky130_fd_sc_hd__or3b_1
*I *852:A I *D sky130_fd_sc_hd__dlygate4sd3_1
*I *748:Q O *D sky130_fd_sc_hd__dfrtp_4
*CAP
1 *685:B 0.000183586
2 *702:A1 5.68441e-05
3 *853:A 1.4364e-05
4 *704:B 1.91209e-05
5 *691:A2 0.000159867
6 *679:C1 0.000280305
7 *700:D1 7.12351e-05
8 *694:A 6.97635e-05
9 *852:A 0
10 *748:Q 0.000289187
11 *205:86 7.12081e-05
12 *205:84 0.000217843
13 *205:66 0.000397297
14 *205:43 0.000498614
15 *205:34 0.000373098
16 *205:30 0.000431224
17 *205:19 0.000262645
18 *205:10 0.000386964
19 *679:C1 *679:B1 5.7133e-05
20 *691:A2 *206:74 6.08937e-05
21 *694:A *694:C_N 5.33005e-05
22 *205:66 *700:C1 0.000191403
23 *205:66 *206:66 2.59355e-05
24 *205:66 *206:70 7.77652e-05
25 *205:66 *206:74 2.95641e-05
26 *630:A *205:10 0
27 *673:B *205:66 0.000170654
28 *684:B *205:66 0.00014285
29 *687:A *694:A 2.59355e-05
30 *687:A *205:10 0.000242913
31 *687:A *205:19 0.000162832
32 *687:B *205:19 8.91726e-05
33 *689:A1 *679:C1 0.000145795
34 *689:A2 *679:C1 0.000161947
35 *689:A2 *704:B 0
36 *689:A2 *205:66 1.18451e-05
37 *691:B1 *691:A2 5.33334e-05
38 *695:A2 *679:C1 5.33005e-05
39 *700:A1 *679:C1 0.000163125
40 *700:A1 *205:66 1.721e-05
41 *701:A *694:A 6.71854e-05
42 *701:C *694:A 1.02821e-05
43 *702:A2 *702:A1 5.52302e-05
44 *702:A2 *853:A 9.90367e-05
45 *702:B1 *702:A1 3.01979e-05
46 *702:C1 *205:84 0
47 *705:A2 *700:D1 9.71197e-05
48 *705:A2 *853:A 5.71472e-05
49 *705:A2 *205:34 0.000393949
50 *88:12 *679:C1 2.6804e-05
51 *92:8 *694:A 0.000268396
52 *95:10 *679:C1 8.359e-05
53 *95:10 *205:66 4.02462e-05
54 *113:27 *679:C1 0.000181796
55 *136:53 *685:B 6.76272e-05
56 *136:53 *205:10 2.30116e-06
57 *136:53 *205:19 1.37292e-05
58 *136:53 *205:30 3.4323e-05
59 *136:53 *205:84 1.59782e-05
*RES
1 *748:Q *205:10 19.1214 
2 *205:10 *852:A 13.8 
3 *205:10 *205:19 2.85714 
4 *205:19 *694:A 16.3893 
5 *205:19 *205:30 1.64286 
6 *205:30 *205:34 8.73214 
7 *205:34 *700:D1 10.2464 
8 *205:34 *205:43 4.5 
9 *205:43 *679:C1 30.4071 
10 *205:43 *205:66 10.8571 
11 *205:66 *691:A2 12.3179 
12 *205:66 *704:B 9.72857 
13 *205:30 *205:84 0.732143 
14 *205:84 *205:86 4.5 
15 *205:86 *853:A 10.2464 
16 *205:86 *702:A1 10.675 
17 *205:84 *685:B 17.3 
*END

*D_NET *206 0.00693119
*CONN
*I *685:A I *D sky130_fd_sc_hd__nand2_1
*I *684:A I *D sky130_fd_sc_hd__and3_1
*I *700:C1 I *D sky130_fd_sc_hd__a2111oi_1
*I *704:A I *D sky130_fd_sc_hd__and3_1
*I *691:A1 I *D sky130_fd_sc_hd__a31o_1
*I *673:A I *D sky130_fd_sc_hd__xor2_1
*I *701:B I *D sky130_fd_sc_hd__and3_1
*I *694:C_N I *D sky130_fd_sc_hd__or3b_1
*I *679:B1 I *D sky130_fd_sc_hd__a211o_1
*I *680:C1 I *D sky130_fd_sc_hd__a211o_1
*I *749:Q O *D sky130_fd_sc_hd__dfrtp_4
*CAP
1 *685:A 0
2 *684:A 1.99857e-05
3 *700:C1 0.000139467
4 *704:A 0
5 *691:A1 0
6 *673:A 0.000282721
7 *701:B 0.000130483
8 *694:C_N 1.42885e-05
9 *679:B1 0.000424585
10 *680:C1 1.59176e-05
11 *749:Q 0.000181493
12 *206:74 0.000427755
13 *206:70 0.000186686
14 *206:66 0.00026516
15 *206:64 0.000129094
16 *206:62 2.50668e-05
17 *206:18 0.000536715
18 *206:14 0.000150558
19 *206:12 0.000315269
20 *206:10 0.000326221
21 *673:B *206:10 0
22 *678:A *680:C1 1.02504e-05
23 *679:C1 *679:B1 5.7133e-05
24 *684:B *673:A 0
25 *684:B *206:66 8.43535e-06
26 *684:C *206:70 1.54142e-05
27 *684:C *206:74 5.52302e-05
28 *689:A2 *206:10 6.8646e-06
29 *689:A2 *206:12 9.56043e-05
30 *689:A2 *206:14 1.65558e-05
31 *689:A2 *206:66 9.71197e-05
32 *691:A2 *206:74 6.08937e-05
33 *691:B1 *206:74 9.90367e-05
34 *694:A *694:C_N 5.33005e-05
35 *696:B1 *679:B1 2.51343e-06
36 *697:A2 *673:A 7.26841e-05
37 *700:A1 *700:C1 8.69386e-05
38 *701:A *694:C_N 5.52238e-05
39 *701:A *206:18 1.17968e-05
40 *701:C *680:C1 5.83233e-05
41 *701:C *206:18 6.73939e-05
42 *704:C *206:74 6.28435e-05
43 *705:A2 *700:C1 9.80173e-05
44 *705:B2 *206:74 5.33005e-05
45 *749:D *673:A 7.50601e-05
46 *749:RESET_B *206:10 2.59355e-05
47 *11:42 *680:C1 1.02504e-05
48 *83:10 *679:B1 3.54279e-05
49 *87:14 *673:A 0
50 *88:12 *679:B1 2.6725e-05
51 *90:20 *684:A 1.04232e-05
52 *90:20 *700:C1 6.09476e-05
53 *90:20 *206:64 2.14658e-05
54 *90:20 *206:66 0.000233636
55 *90:20 *206:70 9.71197e-05
56 *92:8 *701:B 0.000181796
57 *95:10 *206:14 0
58 *95:10 *206:18 1.00375e-05
59 *95:20 *700:C1 2.6269e-05
60 *136:20 *673:A 0
61 *136:22 *673:A 5.33433e-05
62 *136:53 *680:C1 2.58997e-05
63 *136:53 *206:10 0.000201127
64 *136:53 *206:12 0.000308599
65 *136:53 *206:14 7.6644e-05
66 *136:53 *206:18 5.51502e-05
67 *204:41 *679:B1 2.7099e-05
68 *204:52 *679:B1 0.000307343
69 *204:61 *679:B1 1.98839e-05
70 *205:66 *700:C1 0.000191403
71 *205:66 *206:66 2.59355e-05
72 *205:66 *206:70 7.77652e-05
73 *205:66 *206:74 2.95641e-05
*RES
1 *749:Q *206:10 17.7107 
2 *206:10 *206:12 4.07143 
3 *206:12 *206:14 1.03571 
4 *206:14 *206:18 2.17857 
5 *206:18 *680:C1 14.5321 
6 *206:18 *679:B1 28.5857 
7 *206:14 *694:C_N 14.3357 
8 *206:12 *701:B 15.5679 
9 *206:10 *206:62 4.5 
10 *206:62 *206:64 0.535714 
11 *206:64 *206:66 2.58929 
12 *206:66 *206:70 1.78571 
13 *206:70 *206:74 3.73214 
14 *206:74 *673:A 23.925 
15 *206:74 *691:A1 9.3 
16 *206:70 *704:A 9.3 
17 *206:66 *700:C1 21.8 
18 *206:64 *684:A 9.72857 
19 *206:62 *685:A 9.3 
*END

*D_NET *207 0.00281585
*CONN
*I *667:A2 I *D sky130_fd_sc_hd__o211ai_1
*I *668:A2 I *D sky130_fd_sc_hd__a211o_1
*I *719:A1 I *D sky130_fd_sc_hd__mux2_1
*I *847:A I *D sky130_fd_sc_hd__dlygate4sd3_1
*I *766:Q O *D sky130_fd_sc_hd__dfrtp_1
*CAP
1 *667:A2 0.000204891
2 *668:A2 5.36159e-05
3 *719:A1 0
4 *847:A 6.82389e-05
5 *766:Q 0
6 *207:30 0.000377357
7 *207:21 0.000449162
8 *207:6 0.00039855
9 *207:21 *820:A 0.000271345
10 *658:B2 *667:A2 0
11 *667:A1 *667:A2 3.48705e-05
12 *668:A1 *668:A2 4.88637e-05
13 *669:D *668:A2 5.52238e-05
14 *669:D *207:21 1.69961e-05
15 *669:D *207:30 0.000221641
16 *674:C *847:A 6.97972e-05
17 *674:C *207:21 4.81157e-05
18 *766:RESET_B *667:A2 0.000151333
19 *821:A *207:21 9.90367e-05
20 *81:18 *207:21 0.000189664
21 *129:27 *847:A 0
22 *129:27 *207:21 0
23 *130:17 *667:A2 5.71472e-05
24 *131:21 *207:21 0
*RES
1 *766:Q *207:6 13.8 
2 *207:6 *847:A 15.4429 
3 *207:6 *207:21 13.0893 
4 *207:21 *719:A1 9.3 
5 *207:21 *207:30 2.60714 
6 *207:30 *668:A2 10.6571 
7 *207:30 *667:A2 22.0143 
*END

*D_NET *208 0.00303384
*CONN
*I *720:A1 I *D sky130_fd_sc_hd__mux2_1
*I *666:B I *D sky130_fd_sc_hd__xnor2_1
*I *848:A I *D sky130_fd_sc_hd__dlygate4sd3_1
*I *767:Q O *D sky130_fd_sc_hd__dfrtp_1
*CAP
1 *720:A1 0.000281284
2 *666:B 0.000167325
3 *848:A 0
4 *767:Q 0.000145309
5 *208:21 0.000869647
6 *208:12 0.000566347
7 *666:B *667:B1 7.77652e-05
8 *720:A1 *642:B1 0
9 *720:A1 *211:24 5.41794e-05
10 *659:A2 *720:A1 5.65955e-05
11 *720:A0 *720:A1 0.000139202
12 *764:D *720:A1 0.000171368
13 *771:D *208:12 4.57445e-05
14 *787:A *720:A1 1.40849e-05
15 *115:41 *720:A1 8.2607e-05
16 *124:8 *208:21 6.38037e-05
17 *133:20 *208:12 0
18 *172:27 *666:B 6.72294e-05
19 *172:27 *720:A1 0.000118339
20 *172:41 *208:12 5.06983e-05
21 *172:41 *208:21 6.23141e-05
*RES
1 *767:Q *208:12 21.3 
2 *208:12 *848:A 9.3 
3 *208:12 *208:21 11.6071 
4 *208:21 *666:B 17.4071 
5 *208:21 *720:A1 20.7464 
*END

*D_NET *209 0.000687173
*CONN
*I *834:A I *D sky130_fd_sc_hd__dlygate4sd3_1
*I *665:B I *D sky130_fd_sc_hd__xor2_1
*I *768:Q O *D sky130_fd_sc_hd__dfrtp_1
*CAP
1 *834:A 0
2 *665:B 0.000129706
3 *768:Q 0.000126134
4 *209:6 0.00025584
5 *133:8 *209:6 0.000175493
6 *133:18 *665:B 0
*RES
1 *768:Q *209:6 12.3 
2 *209:6 *665:B 20.55 
3 *209:6 *834:A 9.3 
*END

*D_NET *210 0.00352847
*CONN
*I *820:A I *D sky130_fd_sc_hd__dlygate4sd3_1
*I *643:A2 I *D sky130_fd_sc_hd__a211o_1
*I *641:A2_N I *D sky130_fd_sc_hd__a2bb2o_1
*I *763:Q O *D sky130_fd_sc_hd__dfrtp_1
*CAP
1 *820:A 0.000381934
2 *643:A2 0.000235439
3 *641:A2_N 2.55321e-05
4 *763:Q 3.7533e-05
5 *210:10 0.000417134
6 *210:6 0.000575629
7 *641:A1_N *641:A2_N 5.52238e-05
8 *643:B1 *643:A2 0
9 *658:B2 *643:A2 0
10 *658:B2 *210:10 0
11 *660:A2 *643:A2 3.57366e-05
12 *668:B1 *643:A2 0
13 *669:A *643:A2 9.80173e-05
14 *669:D *820:A 0.000399841
15 *716:A1 *820:A 7.6644e-05
16 *763:RESET_B *820:A 3.46453e-05
17 *766:RESET_B *210:10 3.17148e-05
18 *786:A *643:A2 5.52238e-05
19 *821:A *820:A 0.000113083
20 *115:18 *641:A2_N 9.90367e-05
21 *129:38 *820:A 2.26424e-05
22 *130:43 *210:10 0.000113887
23 *130:56 *643:A2 6.94775e-05
24 *130:56 *210:10 1.08359e-05
25 *130:62 *643:A2 8.21467e-05
26 *131:21 *820:A 0.000121573
27 *134:21 *820:A 5.33005e-05
28 *134:21 *210:6 5.52238e-05
29 *199:16 *820:A 5.56695e-05
30 *207:21 *820:A 0.000271345
*RES
1 *763:Q *210:6 9.83571 
2 *210:6 *210:10 7.96429 
3 *210:10 *641:A2_N 14.7464 
4 *210:10 *643:A2 18.4786 
5 *210:6 *820:A 27.175 
*END

*D_NET *211 0.00431805
*CONN
*I *641:B1 I *D sky130_fd_sc_hd__a2bb2o_1
*I *844:A I *D sky130_fd_sc_hd__dlygate4sd3_1
*I *642:A2 I *D sky130_fd_sc_hd__o211ai_1
*I *717:A1 I *D sky130_fd_sc_hd__mux2_1
*I *764:Q O *D sky130_fd_sc_hd__dfrtp_1
*CAP
1 *641:B1 0
2 *844:A 0
3 *642:A2 2.0816e-05
4 *717:A1 0.000598893
5 *764:Q 9.18653e-05
6 *211:24 0.00110779
7 *211:14 0.000585243
8 *211:12 0.000189026
9 *717:A1 *642:B1 5.49489e-05
10 *211:24 *642:B1 0
11 *642:A1 *211:24 0.000362203
12 *642:C1 *717:A1 9.91086e-05
13 *643:C1 *211:24 1.21258e-05
14 *658:B2 *211:12 0.000126439
15 *668:B1 *211:12 6.74911e-05
16 *717:A0 *717:A1 5.49489e-05
17 *720:A0 *211:24 9.41642e-05
18 *720:A1 *211:24 5.41794e-05
19 *760:RESET_B *717:A1 0.000182598
20 *760:RESET_B *211:24 0.000182592
21 *761:RESET_B *717:A1 0
22 *764:D *211:24 4.56594e-05
23 *787:A *211:24 0
24 *788:A *211:24 0
25 *798:A *642:A2 3.41517e-06
26 *798:A *717:A1 7.09559e-05
27 *798:A *211:24 3.6346e-05
28 *115:41 *211:14 9.0145e-05
29 *115:41 *211:24 0.000128419
30 *138:27 *717:A1 0
31 *138:33 *717:A1 0
32 *138:33 *211:24 3.27461e-05
33 *199:16 *211:12 2.59355e-05
*RES
1 *764:Q *211:12 20.4786 
2 *211:12 *211:14 1.76786 
3 *211:14 *211:24 19.7679 
4 *211:24 *717:A1 29.8357 
5 *211:24 *642:A2 9.72857 
6 *211:14 *844:A 9.3 
7 *211:12 *641:B1 9.3 
*END

*D_NET *212 0.00286581
*CONN
*I *839:A I *D sky130_fd_sc_hd__dlygate4sd3_1
*I *640:B I *D sky130_fd_sc_hd__xnor2_1
*I *718:A1 I *D sky130_fd_sc_hd__mux2_1
*I *765:Q O *D sky130_fd_sc_hd__dfrtp_1
*CAP
1 *839:A 0
2 *640:B 0.000189447
3 *718:A1 0.000446123
4 *765:Q 0
5 *212:25 0.000431663
6 *212:4 0.00068834
7 *718:A1 *648:B 6.95112e-05
8 *718:A1 *215:8 6.8646e-06
9 *636:A *718:A1 0.000101545
10 *718:A0 *718:A1 0.0001399
11 *765:RESET_B *718:A1 4.17828e-05
12 *765:RESET_B *212:25 3.65069e-05
13 *125:10 *212:25 6.07626e-05
14 *125:14 *640:B 7.27028e-05
15 *125:14 *212:25 4.1331e-06
16 *125:20 *640:B 0.000105163
17 *132:51 *718:A1 0.000151333
18 *132:53 *640:B 0
19 *132:53 *718:A1 0.000320031
20 *132:53 *212:25 0
21 *135:28 *212:25 0
*RES
1 *765:Q *212:4 9.3 
2 *212:4 *718:A1 28.1214 
3 *212:4 *212:25 9.01786 
4 *212:25 *640:B 18.1214 
5 *212:25 *839:A 13.8 
*END

*D_NET *213 0.00134489
*CONN
*I *650:A2 I *D sky130_fd_sc_hd__o211ai_1
*I *824:A I *D sky130_fd_sc_hd__dlygate4sd3_1
*I *651:A2 I *D sky130_fd_sc_hd__a211o_1
*I *760:Q O *D sky130_fd_sc_hd__dfrtp_1
*CAP
1 *650:A2 0.000131216
2 *824:A 3.95788e-05
3 *651:A2 0
4 *760:Q 0.000146358
5 *213:12 3.95788e-05
6 *213:10 0.000277575
7 *651:A1 *824:A 9.41642e-05
8 *651:C1 *650:A2 0
9 *651:C1 *213:10 0
10 *670:C *213:10 0
11 *731:A1 *213:10 0
12 *760:RESET_B *213:10 0.00010096
13 *786:A *650:A2 0.000144038
14 *786:A *213:10 0.00012401
15 *75:24 *650:A2 5.52238e-05
16 *131:23 *824:A 5.52302e-05
17 *138:71 *824:A 0.000136958
*RES
1 *760:Q *213:10 16.3893 
2 *213:10 *213:12 4.5 
3 *213:12 *651:A2 9.3 
4 *213:12 *824:A 10.6571 
5 *213:10 *650:A2 16.2821 
*END

*D_NET *214 0.00318336
*CONN
*I *714:A1 I *D sky130_fd_sc_hd__mux2_1
*I *649:B I *D sky130_fd_sc_hd__xnor2_1
*I *841:A I *D sky130_fd_sc_hd__dlygate4sd3_1
*I *761:Q O *D sky130_fd_sc_hd__dfrtp_1
*CAP
1 *714:A1 0.000152412
2 *649:B 4.95085e-05
3 *841:A 3.72704e-05
4 *761:Q 0.000171589
5 *214:19 0.00028818
6 *214:8 0.000295119
7 *714:A1 *732:A1 6.40986e-05
8 *214:8 *732:A1 7.76647e-05
9 *214:19 *732:A1 7.73184e-05
10 *649:A *649:B 0.000180066
11 *650:C1 *649:B 5.33005e-05
12 *714:A0 *714:A1 0.000266846
13 *718:S *714:A1 9.99853e-05
14 *731:S *214:8 7.83587e-05
15 *776:D *214:8 0.000125724
16 *788:A *214:8 8.89385e-05
17 *59:16 *649:B 6.58992e-05
18 *132:49 *714:A1 1.21258e-05
19 *196:10 *214:8 9.25014e-06
20 *196:10 *214:19 0.000166983
21 *196:12 *214:8 0.000437941
22 *196:47 *714:A1 0.000159689
23 *196:47 *214:19 5.41794e-05
24 *196:51 *714:A1 0.000139202
25 *196:73 *714:A1 3.17148e-05
*RES
1 *761:Q *214:8 20.3 
2 *214:8 *841:A 14.3357 
3 *214:8 *214:19 2.85714 
4 *214:19 *649:B 15.5679 
5 *214:19 *714:A1 18.9429 
*END

*D_NET *215 0.000934273
*CONN
*I *831:A I *D sky130_fd_sc_hd__dlygate4sd3_1
*I *648:B I *D sky130_fd_sc_hd__xor2_1
*I *762:Q O *D sky130_fd_sc_hd__dfrtp_1
*CAP
1 *831:A 7.12797e-05
2 *648:B 0.000160683
3 *762:Q 8.28564e-05
4 *215:8 0.000314819
5 *636:A *215:8 0
6 *715:A1 *215:8 4.15914e-05
7 *718:A1 *648:B 6.95112e-05
8 *718:A1 *215:8 6.8646e-06
9 *718:S *831:A 0.000186669
10 *757:D *215:8 0
11 *135:28 *648:B 0
12 *135:28 *215:8 0
*RES
1 *762:Q *215:8 15.4429 
2 *215:8 *648:B 16.8893 
3 *215:8 *831:A 15.5679 
*END

*D_NET *216 0.00246003
*CONN
*I *825:A I *D sky130_fd_sc_hd__dlygate4sd3_1
*I *637:A2_N I *D sky130_fd_sc_hd__a2bb2o_1
*I *639:A2 I *D sky130_fd_sc_hd__a211o_1
*I *756:Q O *D sky130_fd_sc_hd__dfrtp_1
*CAP
1 *825:A 0
2 *637:A2_N 0
3 *639:A2 0.000179035
4 *756:Q 0.00021513
5 *216:14 0.000253646
6 *216:12 0.000289741
7 *638:A1 *639:A2 0.000171375
8 *639:A1 *639:A2 0.000193435
9 *639:B1 *639:A2 7.71257e-05
10 *711:S *216:12 5.03694e-05
11 *756:RESET_B *639:A2 0
12 *756:RESET_B *216:12 0.000150618
13 *786:A *639:A2 9.10431e-06
14 *805:A *639:A2 0.000298228
15 *115:99 *216:14 0.000249501
16 *130:97 *216:14 0.000269422
17 *197:8 *216:12 5.33005e-05
*RES
1 *756:Q *216:12 22.0143 
2 *216:12 *216:14 3 
3 *216:14 *639:A2 23.8714 
4 *216:14 *637:A2_N 9.3 
5 *216:12 *825:A 9.3 
*END

*D_NET *217 0.00226841
*CONN
*I *638:A2 I *D sky130_fd_sc_hd__o211ai_1
*I *637:B1 I *D sky130_fd_sc_hd__a2bb2o_1
*I *836:A I *D sky130_fd_sc_hd__dlygate4sd3_1
*I *757:Q O *D sky130_fd_sc_hd__dfrtp_1
*CAP
1 *638:A2 0
2 *637:B1 0.000340085
3 *836:A 2.23854e-05
4 *757:Q 0.000193981
5 *217:19 0.0004024
6 *217:8 0.000278682
7 *637:B1 *638:B1 5.80706e-06
8 *638:A1 *217:19 3.57366e-05
9 *639:C1 *217:19 0.00014285
10 *650:C1 *637:B1 0
11 *670:A *637:B1 0
12 *754:CLK *217:8 0.000198352
13 *754:CLK *217:19 0.000126629
14 *786:A *637:B1 0.000521505
*RES
1 *757:Q *217:8 13.1393 
2 *217:8 *836:A 9.72857 
3 *217:8 *217:19 2.60714 
4 *217:19 *637:B1 25.1036 
5 *217:19 *638:A2 9.3 
*END

*D_NET *218 0.00256157
*CONN
*I *833:A I *D sky130_fd_sc_hd__dlygate4sd3_1
*I *636:B I *D sky130_fd_sc_hd__xnor2_1
*I *758:Q O *D sky130_fd_sc_hd__dfrtp_1
*CAP
1 *833:A 0.000346012
2 *636:B 0.00058462
3 *758:Q 0
4 *218:6 0.000930632
5 *636:A *636:B 0.000317546
6 *715:A1 *833:A 0
7 *755:CLK *636:B 6.94242e-05
8 *755:D *636:B 3.70047e-05
9 *755:D *833:A 7.49332e-05
10 *758:RESET_B *833:A 0
11 *803:A *636:B 7.01788e-05
12 *119:16 *636:B 3.70556e-05
13 *135:8 *636:B 9.41642e-05
14 *175:12 *833:A 0
*RES
1 *758:Q *218:6 13.8 
2 *218:6 *636:B 25.4786 
3 *218:6 *833:A 20.3357 
*END

*D_NET *219 0.00407533
*CONN
*I *646:A2 I *D sky130_fd_sc_hd__o211ai_1
*I *647:A2 I *D sky130_fd_sc_hd__a211o_1
*I *846:A I *D sky130_fd_sc_hd__dlygate4sd3_1
*I *707:A1 I *D sky130_fd_sc_hd__mux2_1
*I *753:Q O *D sky130_fd_sc_hd__dfrtp_1
*CAP
1 *646:A2 0.00025506
2 *647:A2 0.000217649
3 *846:A 6.57937e-05
4 *707:A1 0.000181902
5 *753:Q 0
6 *219:32 0.000541545
7 *219:21 0.000264507
8 *219:6 0.000311779
9 *646:A2 *708:A1 4.35336e-05
10 *707:A1 *655:A2 0.000101545
11 *646:A1 *646:A2 5.52302e-05
12 *647:B1 *647:A2 8.01893e-05
13 *647:C1 *646:A2 4.1331e-06
14 *655:B1 *707:A1 2.90164e-05
15 *655:B1 *219:21 1.02504e-05
16 *707:A0 *707:A1 0.00010096
17 *710:A0 *846:A 6.05161e-06
18 *750:RESET_B *219:21 5.08481e-05
19 *790:A *646:A2 7.34455e-06
20 *790:A *707:A1 0.000284699
21 *790:A *219:21 5.72222e-05
22 *790:A *219:32 8.66324e-05
23 *75:24 *846:A 9.40156e-05
24 *75:24 *219:21 0.000148911
25 *115:99 *647:A2 0.000111442
26 *127:20 *707:A1 0.000186669
27 *130:97 *647:A2 6.5647e-05
28 *137:45 *646:A2 7.2754e-05
29 *137:45 *219:21 8.24047e-05
30 *137:45 *219:32 9.01334e-05
31 *197:45 *846:A 0.000269428
32 *199:67 *646:A2 0.000142814
33 *199:67 *647:A2 5.52238e-05
*RES
1 *753:Q *219:6 13.8 
2 *219:6 *707:A1 19.3357 
3 *219:6 *219:21 4 
4 *219:21 *846:A 16.3893 
5 *219:21 *219:32 2.25 
6 *219:32 *647:A2 18.8714 
7 *219:32 *646:A2 27.2464 
*END

*D_NET *220 0.00248382
*CONN
*I *838:A I *D sky130_fd_sc_hd__dlygate4sd3_1
*I *708:A1 I *D sky130_fd_sc_hd__mux2_1
*I *645:B I *D sky130_fd_sc_hd__xnor2_1
*I *754:Q O *D sky130_fd_sc_hd__dfrtp_1
*CAP
1 *838:A 0
2 *708:A1 0.000258559
3 *645:B 0.000103365
4 *754:Q 0.000181478
5 *220:14 0.000481508
6 *220:10 0.000301063
7 *220:10 *646:B1 8.15843e-05
8 *220:14 *646:B1 9.1469e-05
9 *645:A *645:B 3.57366e-05
10 *646:A1 *645:B 9.90431e-05
11 *646:A1 *708:A1 0.00018153
12 *646:A2 *708:A1 4.35336e-05
13 *646:C1 *645:B 7.77652e-05
14 *646:C1 *708:A1 3.46775e-05
15 *677:S *220:10 0
16 *677:S *220:14 0
17 *780:RESET_B *708:A1 0.000274294
18 *129:64 *220:14 0
19 *132:37 *220:10 5.41494e-05
20 *199:67 *645:B 5.23057e-05
21 *199:67 *708:A1 0.000131761
22 *199:67 *220:14 0
*RES
1 *754:Q *220:10 17.1036 
2 *220:10 *220:14 7.05357 
3 *220:14 *645:B 12.3179 
4 *220:14 *708:A1 16.55 
5 *220:10 *838:A 13.8 
*END

*D_NET *221 0.0053502
*CONN
*I *709:A1 I *D sky130_fd_sc_hd__mux2_1
*I *644:B I *D sky130_fd_sc_hd__xor2_1
*I *843:A I *D sky130_fd_sc_hd__dlygate4sd3_1
*I *755:Q O *D sky130_fd_sc_hd__dfrtp_1
*CAP
1 *709:A1 0.000385137
2 *644:B 0
3 *843:A 0.000320527
4 *755:Q 0.000120415
5 *221:21 0.00119089
6 *221:6 0.0012467
7 *709:A1 *646:B1 7.83366e-05
8 *644:A *221:21 8.71761e-05
9 *709:S *709:A1 7.80714e-06
10 *712:A0 *843:A 0
11 *732:A0 *221:21 0.000571124
12 *733:A0 *709:A1 8.07313e-05
13 *733:A0 *221:21 9.22103e-06
14 *733:S *221:21 4.43256e-05
15 *752:CLK *709:A1 0.000183027
16 *752:D *709:A1 8.07313e-05
17 *752:RESET_B *709:A1 0.000127439
18 *777:D *843:A 0
19 *778:RESET_B *843:A 0.00031198
20 *809:A *843:A 9.11365e-06
21 *119:16 *221:6 1.36511e-05
22 *119:16 *221:21 8.25843e-06
23 *196:73 *843:A 8.20201e-05
24 *196:79 *221:21 6.62898e-05
25 *196:97 *843:A 0.000325305
*RES
1 *755:Q *221:6 10.6571 
2 *221:6 *843:A 26.3179 
3 *221:6 *221:21 11.5357 
4 *221:21 *644:B 9.3 
5 *221:21 *709:A1 27.7643 
*END

*D_NET *222 0.00499878
*CONN
*I *653:A2_N I *D sky130_fd_sc_hd__a2bb2o_1
*I *675:A1 I *D sky130_fd_sc_hd__mux2_1
*I *822:A I *D sky130_fd_sc_hd__dlygate4sd3_1
*I *655:A2 I *D sky130_fd_sc_hd__a211o_1
*I *750:Q O *D sky130_fd_sc_hd__dfrtp_1
*CAP
1 *653:A2_N 0.000114363
2 *675:A1 0
3 *822:A 0.000395138
4 *655:A2 0.000137908
5 *750:Q 7.70325e-05
6 *222:46 0.000206973
7 *222:29 0.000899699
8 *222:6 0.000626891
9 *653:A2_N *653:B1 5.33005e-05
10 *653:B2 *653:A2_N 5.33005e-05
11 *655:A1 *655:A2 4.61598e-05
12 *655:B1 *655:A2 0.000183017
13 *675:A0 *653:A2_N 3.49717e-05
14 *707:A0 *822:A 0.000317082
15 *707:A1 *655:A2 0.000101545
16 *707:S *822:A 0.00022117
17 *707:S *222:46 0.000116481
18 *743:CLK *653:A2_N 0.000221641
19 *750:D *822:A 0.000153387
20 *750:RESET_B *655:A2 1.3142e-05
21 *801:A *222:29 2.13481e-06
22 *65:18 *653:A2_N 0.000123939
23 *127:44 *222:29 0.000114577
24 *131:47 *655:A2 3.18676e-05
25 *131:57 *655:A2 0.000256866
26 *131:78 *653:A2_N 0.000112869
27 *138:71 *655:A2 0.000113089
28 *138:71 *222:6 9.41642e-05
29 *138:71 *222:29 0.000165821
30 *197:57 *222:46 1.02504e-05
31 *200:23 *822:A 0
32 *200:23 *222:46 0
*RES
1 *750:Q *222:6 10.2464 
2 *222:6 *655:A2 23.925 
3 *222:6 *222:29 9.55357 
4 *222:29 *822:A 22.55 
5 *222:29 *222:46 6.14286 
6 *222:46 *675:A1 9.3 
7 *222:46 *653:A2_N 13.1393 
*END

*D_NET *223 0.00424531
*CONN
*I *654:A2 I *D sky130_fd_sc_hd__o211ai_1
*I *826:A I *D sky130_fd_sc_hd__dlygate4sd3_1
*I *676:A1 I *D sky130_fd_sc_hd__mux2_1
*I *653:B1 I *D sky130_fd_sc_hd__a2bb2o_1
*I *751:Q O *D sky130_fd_sc_hd__dfrtp_1
*CAP
1 *654:A2 0.000334493
2 *826:A 0
3 *676:A1 4.70942e-05
4 *653:B1 0.000339443
5 *751:Q 8.92208e-05
6 *223:18 0.000588976
7 *223:10 0.000306483
8 *223:6 0.000527758
9 *653:A2_N *653:B1 5.33005e-05
10 *654:A1 *654:A2 2.05938e-05
11 *654:A1 *223:10 0
12 *654:C1 *654:A2 6.81869e-05
13 *664:C1 *653:B1 9.41642e-05
14 *664:C1 *676:A1 9.60939e-05
15 *707:S *653:B1 4.46186e-06
16 *735:S *654:A2 1.40415e-05
17 *742:D *223:18 0.000170661
18 *815:A *223:18 0.000220448
19 *65:18 *653:B1 5.52302e-05
20 *75:24 *653:B1 0.000142856
21 *132:22 *654:A2 8.50152e-05
22 *197:45 *653:B1 0.000111439
23 *197:57 *653:B1 1.62539e-05
24 *197:81 *653:B1 4.43256e-05
25 *197:94 *223:10 6.26559e-05
26 *197:94 *223:18 9.54717e-05
27 *197:98 *654:A2 3.47797e-05
28 *197:98 *223:6 1.90303e-05
29 *199:57 *653:B1 0.000168224
30 *200:23 *654:A2 0
31 *200:23 *223:10 0.000262422
32 *200:23 *223:18 0.000172181
*RES
1 *751:Q *223:6 10.2464 
2 *223:6 *223:10 7.96429 
3 *223:10 *223:18 10.4464 
4 *223:18 *653:B1 25.7286 
5 *223:18 *676:A1 10.2464 
6 *223:10 *826:A 13.8 
7 *223:6 *654:A2 23.6036 
*END

*D_NET *224 0.00270938
*CONN
*I *677:A1 I *D sky130_fd_sc_hd__mux2_1
*I *828:A I *D sky130_fd_sc_hd__dlygate4sd3_1
*I *652:B I *D sky130_fd_sc_hd__xnor2_1
*I *752:Q O *D sky130_fd_sc_hd__dfrtp_1
*CAP
1 *677:A1 0.00010456
2 *828:A 0
3 *652:B 0.000116949
4 *752:Q 4.70928e-05
5 *224:25 0.000405454
6 *224:8 0.000464936
7 *652:B *646:B1 0
8 *224:25 *646:B1 0
9 *677:A0 *677:A1 5.71472e-05
10 *677:S *652:B 0.000272371
11 *677:S *677:A1 0.000274294
12 *677:S *224:25 0
13 *709:A0 *224:25 6.30388e-05
14 *709:S *224:8 2.59355e-05
15 *709:S *224:25 0.000218734
16 *744:CLK *224:25 0.000114045
17 *744:D *224:25 0
18 *127:123 *652:B 0.000121573
19 *127:123 *224:25 0.000128875
20 *132:22 *652:B 0.000274294
21 *137:10 *224:25 2.00751e-05
*RES
1 *752:Q *224:8 14.3357 
2 *224:8 *652:B 18.0321 
3 *224:8 *224:25 11.8571 
4 *224:25 *828:A 9.3 
5 *224:25 *677:A1 12.3 
*END

*D_NET *225 0.00412817
*CONN
*I *663:A2 I *D sky130_fd_sc_hd__o211ai_1
*I *664:A2 I *D sky130_fd_sc_hd__a211o_1
*I *814:A I *D sky130_fd_sc_hd__dlygate4sd3_1
*I *742:Q O *D sky130_fd_sc_hd__dfrtp_1
*CAP
1 *663:A2 8.99312e-05
2 *664:A2 0.000712241
3 *814:A 0.000233557
4 *742:Q 0.000140689
5 *225:23 0.000967217
6 *225:10 0.000539291
7 *663:A2 *662:B 7.6644e-05
8 *225:23 *662:B 4.80729e-05
9 *225:23 *226:10 0.000149911
10 *663:A1 *664:A2 7.05375e-05
11 *663:C1 *663:A2 5.33005e-05
12 *664:C1 *664:A2 9.58423e-05
13 *675:A0 *814:A 0.00018372
14 *742:RESET_B *225:10 2.55587e-05
15 *801:A *814:A 0.000143625
16 *801:A *225:10 0.000101545
17 *801:A *225:23 5.59013e-05
18 *857:A *664:A2 0.000208891
19 *65:18 *663:A2 0
20 *65:18 *225:10 0
21 *65:18 *225:23 0
22 *131:78 *664:A2 1.02504e-05
23 *136:16 *225:23 0
24 *197:45 *664:A2 9.60939e-05
25 *197:81 *664:A2 9.94194e-05
26 *197:94 *664:A2 2.59355e-05
27 *199:57 *664:A2 0
*RES
1 *742:Q *225:10 16.0857 
2 *225:10 *814:A 18.4607 
3 *225:10 *225:23 3.76786 
4 *225:23 *664:A2 32.5857 
5 *225:23 *663:A2 15.3714 
*END

*D_NET *226 0.00169799
*CONN
*I *662:B I *D sky130_fd_sc_hd__xnor2_1
*I *856:A I *D sky130_fd_sc_hd__dlygate4sd3_1
*I *743:Q O *D sky130_fd_sc_hd__dfrtp_1
*CAP
1 *662:B 0.000155295
2 *856:A 0.000153953
3 *743:Q 0.000144125
4 *226:10 0.000453373
5 *663:A1 *662:B 0.000105163
6 *663:A2 *662:B 7.6644e-05
7 *663:C1 *662:B 9.90367e-05
8 *664:C1 *662:B 0.000126439
9 *664:C1 *856:A 5.33005e-05
10 *664:C1 *226:10 3.17148e-05
11 *743:RESET_B *226:10 0.00010096
12 *65:18 *662:B 0
13 *225:23 *662:B 4.80729e-05
14 *225:23 *226:10 0.000149911
*RES
1 *743:Q *226:10 16.6929 
2 *226:10 *856:A 16.3893 
3 *226:10 *662:B 18.2286 
*END

*D_NET *227 0.00161147
*CONN
*I *854:A I *D sky130_fd_sc_hd__dlygate4sd3_1
*I *661:B I *D sky130_fd_sc_hd__xor2_1
*I *744:Q O *D sky130_fd_sc_hd__dfrtp_1
*CAP
1 *854:A 0.000304301
2 *661:B 0.000214197
3 *744:Q 0
4 *227:6 0.000518498
5 *661:A *661:B 0.00032853
6 *664:B1 *661:B 0.000116757
7 *132:8 *661:B 3.38136e-05
8 *132:8 *854:A 4.1331e-06
9 *132:22 *661:B 1.19402e-05
10 *200:23 *661:B 6.75007e-05
11 *200:23 *854:A 1.17968e-05
*RES
1 *744:Q *227:6 13.8 
2 *227:6 *661:B 20.1036 
3 *227:6 *854:A 19.1393 
*END

*D_NET *228 0.00235173
*CONN
*I *633:A I *D sky130_fd_sc_hd__inv_2
*I *812:A I *D sky130_fd_sc_hd__dlygate4sd3_1
*I *773:Q O *D sky130_fd_sc_hd__dfrtp_1
*CAP
1 *633:A 0.000380106
2 *812:A 5.89358e-05
3 *773:Q 0.000274663
4 *228:10 0.000713705
5 *659:C1 *633:A 7.43578e-06
6 *728:A *633:A 0
7 *729:A1 *812:A 0.000186662
8 *774:D *812:A 3.18676e-05
9 *774:D *228:10 0
10 *124:57 *228:10 7.61932e-05
11 *133:22 *633:A 0.000221163
12 *133:22 *228:10 0.00014209
13 *133:24 *228:10 0.000173804
14 *158:12 *633:A 1.92789e-05
15 *194:37 *633:A 6.58289e-05
*RES
1 *773:Q *228:10 19.2286 
2 *228:10 *812:A 15.5679 
3 *228:10 *633:A 21.3 
*END

*D_NET *229 0.00391756
*CONN
*I *667:B1 I *D sky130_fd_sc_hd__o211ai_1
*I *816:A I *D sky130_fd_sc_hd__dlygate4sd3_1
*I *774:Q O *D sky130_fd_sc_hd__dfrtp_1
*CAP
1 *667:B1 0.000919836
2 *816:A 0
3 *774:Q 0.000443046
4 *229:10 0.00136288
5 *667:B1 *642:B1 0
6 *229:10 *642:B1 0
7 *229:10 *230:10 0
8 *659:C1 *667:B1 7.83587e-05
9 *666:A *667:B1 0.00022459
10 *666:B *667:B1 7.77652e-05
11 *667:C1 *667:B1 1.74352e-05
12 *771:RESET_B *667:B1 0.000306165
13 *775:D *229:10 2.34204e-05
14 *775:RESET_B *229:10 0.000317082
15 *124:14 *667:B1 4.79384e-05
16 *133:22 *667:B1 0
17 *133:22 *229:10 0
18 *158:12 *229:10 0
19 *172:8 *667:B1 9.90367e-05
*RES
1 *774:Q *229:10 20.8714 
2 *229:10 *816:A 13.8 
3 *229:10 *667:B1 28.3536 
*END

*D_NET *230 0.00375943
*CONN
*I *642:B1 I *D sky130_fd_sc_hd__o211ai_1
*I *817:A I *D sky130_fd_sc_hd__dlygate4sd3_1
*I *775:Q O *D sky130_fd_sc_hd__dfrtp_1
*CAP
1 *642:B1 0.000957481
2 *817:A 2.16337e-05
3 *775:Q 0.000283897
4 *230:10 0.00126301
5 *230:10 *818:A 0.000175171
6 *642:A1 *642:B1 1.10802e-05
7 *642:C1 *642:B1 5.80706e-06
8 *659:A1 *642:B1 0.000173804
9 *659:C1 *642:B1 0
10 *667:B1 *642:B1 0
11 *717:A1 *642:B1 5.49489e-05
12 *720:A1 *642:B1 0
13 *720:S *642:B1 0.000128161
14 *730:A0 *642:B1 0
15 *730:A0 *817:A 5.20751e-05
16 *730:A0 *230:10 0
17 *764:CLK *642:B1 0.000116474
18 *798:A *642:B1 5.49489e-05
19 *845:A *642:B1 0.000114096
20 *124:14 *642:B1 0.000248493
21 *194:22 *817:A 9.83442e-05
22 *211:24 *642:B1 0
23 *229:10 *642:B1 0
24 *229:10 *230:10 0
*RES
1 *775:Q *230:10 18.7286 
2 *230:10 *817:A 14.7464 
3 *230:10 *642:B1 32.7821 
*END

*D_NET *231 0.00455882
*CONN
*I *650:B1 I *D sky130_fd_sc_hd__o211ai_1
*I *732:A1 I *D sky130_fd_sc_hd__mux2_1
*I *819:A I *D sky130_fd_sc_hd__dlygate4sd3_1
*I *776:Q O *D sky130_fd_sc_hd__dfrtp_1
*CAP
1 *650:B1 0.000181002
2 *732:A1 0.000809862
3 *819:A 0.000126355
4 *776:Q 5.75342e-05
5 *231:12 0.000998396
6 *231:6 0.000300715
7 *643:C1 *819:A 5.17614e-05
8 *650:C1 *650:B1 5.52302e-05
9 *670:A *650:B1 0.000138881
10 *670:C *732:A1 8.07951e-05
11 *670:C *819:A 0.000313458
12 *714:A1 *732:A1 6.40986e-05
13 *732:A0 *732:A1 3.34366e-05
14 *760:RESET_B *819:A 9.60875e-05
15 *776:D *231:6 5.33005e-05
16 *788:A *732:A1 0.000209483
17 *788:A *819:A 0.000313458
18 *59:16 *732:A1 0
19 *75:24 *650:B1 0.000191657
20 *75:24 *231:12 2.286e-05
21 *81:16 *650:B1 0.000181796
22 *81:16 *732:A1 1.46624e-05
23 *81:16 *231:6 5.74499e-06
24 *119:16 *732:A1 0
25 *178:10 *732:A1 0.000103267
26 *196:73 *732:A1 0
27 *214:8 *732:A1 7.76647e-05
28 *214:19 *732:A1 7.73184e-05
*RES
1 *776:Q *231:6 10.2464 
2 *231:6 *231:12 5.46429 
3 *231:12 *819:A 18.8179 
4 *231:12 *732:A1 29.7643 
5 *231:6 *650:B1 14.7107 
*END

*D_NET *232 0.00169478
*CONN
*I *808:A I *D sky130_fd_sc_hd__dlygate4sd3_1
*I *638:B1 I *D sky130_fd_sc_hd__o211ai_1
*I *777:Q O *D sky130_fd_sc_hd__dfrtp_1
*CAP
1 *808:A 0.000235681
2 *638:B1 0.000186026
3 *777:Q 0.000197902
4 *232:8 0.000619609
5 *637:B1 *638:B1 5.80706e-06
6 *732:A0 *638:B1 0
7 *778:CLK *232:8 2.27416e-05
8 *778:D *638:B1 3.69697e-05
9 *778:D *808:A 1.31516e-05
10 *778:RESET_B *232:8 6.99031e-05
11 *786:A *638:B1 6.93567e-05
12 *119:16 *638:B1 0.000237634
13 *149:8 *808:A 0
*RES
1 *777:Q *232:8 16.3893 
2 *232:8 *638:B1 18.175 
3 *232:8 *808:A 17.9071 
*END

*D_NET *233 0.0023448
*CONN
*I *646:B1 I *D sky130_fd_sc_hd__o211ai_1
*I *810:A I *D sky130_fd_sc_hd__dlygate4sd3_1
*I *778:Q O *D sky130_fd_sc_hd__dfrtp_1
*CAP
1 *646:B1 0.000574338
2 *810:A 0
3 *778:Q 0.00014727
4 *233:8 0.000721608
5 *652:B *646:B1 0
6 *677:S *646:B1 0
7 *709:A1 *646:B1 7.83366e-05
8 *734:A1 *646:B1 0.000259934
9 *734:A1 *233:8 0.000121084
10 *751:D *646:B1 0
11 *752:D *646:B1 0
12 *778:RESET_B *233:8 1.3701e-05
13 *802:A *233:8 0.000186662
14 *827:A *646:B1 0
15 *830:A *646:B1 5.41494e-05
16 *137:10 *646:B1 1.46624e-05
17 *137:43 *646:B1 0
18 *199:67 *646:B1 0
19 *220:10 *646:B1 8.15843e-05
20 *220:14 *646:B1 9.1469e-05
21 *224:25 *646:B1 0
*RES
1 *778:Q *233:8 13.1393 
2 *233:8 *810:A 9.3 
3 *233:8 *646:B1 30.425 
*END

*D_NET *234 0.00123839
*CONN
*I *654:B1 I *D sky130_fd_sc_hd__o211ai_1
*I *735:A1 I *D sky130_fd_sc_hd__mux2_1
*I *813:A I *D sky130_fd_sc_hd__dlygate4sd3_1
*I *779:Q O *D sky130_fd_sc_hd__dfrtp_1
*CAP
1 *654:B1 0
2 *735:A1 0.000165909
3 *813:A 7.52113e-05
4 *779:Q 0
5 *234:21 0.000343506
6 *234:4 0.000252809
7 *654:A1 *735:A1 3.06406e-05
8 *654:C1 *735:A1 1.76135e-05
9 *654:C1 *234:21 0.000138967
10 *735:A0 *735:A1 5.28012e-05
11 *780:D *735:A1 1.00073e-05
12 *65:18 *735:A1 7.83659e-05
13 *132:22 *813:A 7.25605e-05
14 *132:22 *234:21 0
*RES
1 *779:Q *234:4 9.3 
2 *234:4 *813:A 19.9429 
3 *234:4 *234:21 7.30357 
4 *234:21 *735:A1 16.8 
5 *234:21 *654:B1 13.8 
*END

*D_NET *235 0.00098726
*CONN
*I *840:A I *D sky130_fd_sc_hd__dlygate4sd3_1
*I *663:B1 I *D sky130_fd_sc_hd__o211ai_1
*I *780:Q O *D sky130_fd_sc_hd__dfrtp_1
*CAP
1 *840:A 0.000232832
2 *663:B1 0.000244864
3 *780:Q 0
4 *235:6 0.000477696
5 *663:C1 *663:B1 3.18676e-05
*RES
1 *780:Q *235:6 13.8 
2 *235:6 *663:B1 18.3179 
3 *235:6 *840:A 17.6214 
*END

*D_NET *236 0.000630952
*CONN
*I *807:A I *D sky130_fd_sc_hd__dlygate4sd3_1
*I *759:Q O *D sky130_fd_sc_hd__dfrtp_1
*CAP
1 *807:A 0.000250678
2 *759:Q 0.000250678
3 *769:D *807:A 0.000129595
*RES
1 *759:Q *807:A 23.6536 
*END

*D_NET *237 0.000817202
*CONN
*I *818:A I *D sky130_fd_sc_hd__dlygate4sd3_1
*I *769:Q O *D sky130_fd_sc_hd__dfrtp_1
*CAP
1 *818:A 0.000321015
2 *769:Q 0.000321015
3 *230:10 *818:A 0.000175171
*RES
1 *769:Q *818:A 33.4393 
*END

*D_NET *238 0.000461242
*CONN
*I *829:A I *D sky130_fd_sc_hd__dlygate4sd3_1
*I *781:Q O *D sky130_fd_sc_hd__dfrtp_1
*CAP
1 *829:A 0.000162776
2 *781:Q 0.000162776
3 *672:B *829:A 0.000126439
4 *785:D *829:A 0
5 *141:8 *829:A 9.25014e-06
*RES
1 *781:Q *829:A 30.6 
*END

*D_NET *239 0.00135338
*CONN
*I *674:A I *D sky130_fd_sc_hd__and3_1
*I *785:Q O *D sky130_fd_sc_hd__dfrtp_1
*CAP
1 *674:A 0.000479147
2 *785:Q 0.000479147
3 *634:B *674:A 3.75052e-05
4 *692:A2 *674:A 0
5 *725:A1 *674:A 6.58289e-05
6 *117:19 *674:A 0.000198352
7 *198:10 *674:A 9.34004e-05
*RES
1 *785:Q *674:A 35.6 
*END
