*SPEF "ieee 1481-1999"
*DESIGN "rng_top"
*DATE "12:31:27 Wednesday February 18, 2026"
*VENDOR "The OpenROAD Project"
*PROGRAM "OpenROAD"
*VERSION "edf00dff99f6c40d67a30c0e22a8191c5d2ed9d6"
*DESIGN_FLOW "NAME_SCOPE LOCAL" "PIN_CAP NONE"
*DIVIDER /
*DELIMITER :
*BUS_DELIMITER []
*T_UNIT 1 NS
*C_UNIT 1 PF
*R_UNIT 1 OHM
*L_UNIT 1 HENRY

*NAME_MAP
*3 clk_i
*4 num_to_send_o[0]
*5 num_to_send_o[1]
*6 num_to_send_o[2]
*7 req_num_i
*8 rst_i
*9 wr_i
*10 _000_
*11 _001_
*12 _002_
*13 _003_
*14 _004_
*15 _005_
*16 _006_
*17 _007_
*18 _008_
*19 _009_
*20 _010_
*21 _011_
*22 _012_
*23 _013_
*24 _014_
*25 _015_
*26 _016_
*27 _017_
*28 _018_
*29 _019_
*30 _020_
*31 _021_
*32 _022_
*33 _023_
*34 _024_
*35 _025_
*36 _026_
*37 _027_
*38 _028_
*39 _029_
*40 _030_
*41 _031_
*42 _032_
*43 _033_
*44 _034_
*45 _035_
*46 _036_
*47 _037_
*48 _038_
*49 _039_
*50 _040_
*51 _041_
*52 _042_
*53 _043_
*54 _044_
*55 _045_
*56 _046_
*57 _047_
*58 _048_
*59 _049_
*60 _050_
*61 _051_
*62 _052_
*63 _053_
*64 _054_
*65 _055_
*66 _056_
*67 _057_
*68 _058_
*69 _059_
*70 _060_
*71 _061_
*72 _062_
*73 _063_
*74 _064_
*75 _065_
*76 _066_
*77 _067_
*78 _068_
*79 _069_
*80 _070_
*81 _071_
*82 _072_
*83 _073_
*84 _074_
*85 _075_
*86 _076_
*87 _077_
*88 _078_
*89 _079_
*90 _080_
*91 _081_
*92 _082_
*93 _083_
*94 _084_
*95 _085_
*96 _086_
*97 _087_
*98 _088_
*99 _089_
*100 _090_
*101 _091_
*102 _092_
*103 _093_
*104 _094_
*105 _095_
*106 _096_
*107 _097_
*108 _098_
*109 _099_
*110 _100_
*111 _101_
*112 _102_
*113 _103_
*114 _104_
*115 _105_
*116 _106_
*117 _107_
*118 _108_
*119 _109_
*120 _110_
*121 _111_
*122 _112_
*123 clknet_0_clk_i
*124 clknet_2_0__leaf_clk_i
*125 clknet_2_1__leaf_clk_i
*126 clknet_2_2__leaf_clk_i
*127 clknet_2_3__leaf_clk_i
*128 net1
*129 net10
*130 net11
*131 net12
*132 net13
*133 net14
*134 net15
*135 net16
*136 net17
*137 net18
*138 net19
*139 net2
*140 net20
*141 net21
*142 net22
*143 net23
*144 net24
*145 net25
*146 net26
*147 net27
*148 net28
*149 net29
*150 net3
*151 net30
*152 net31
*153 net32
*154 net33
*155 net34
*156 net35
*157 net36
*158 net37
*159 net38
*160 net39
*161 net4
*162 net40
*163 net41
*164 net42
*165 net43
*166 net44
*167 net45
*168 net46
*169 net47
*170 net48
*171 net49
*172 net5
*173 net50
*174 net51
*175 net52
*176 net53
*177 net54
*178 net55
*179 net56
*180 net57
*181 net58
*182 net59
*183 net6
*184 net60
*185 net61
*186 net62
*187 net63
*188 net64
*189 net65
*190 net66
*191 net67
*192 net68
*193 net69
*194 net7
*195 net70
*196 net8
*197 net9
*198 num_i_bar\[0\]
*199 num_i_bar\[1\]
*200 num_i_bar\[2\]
*201 req_num_again
*202 rng_dp\.inst\.next_num_o\[0\]
*203 rng_dp\.inst\.next_num_o\[1\]
*204 rng_dp\.inst\.next_num_o\[2\]
*205 rng_dp\.seed_sel_i\[0\]
*206 rng_dp\.seed_sel_i\[1\]
*207 rng_rd\.mem\[1\]\[0\]
*208 rng_rd\.mem\[1\]\[1\]
*209 rng_rd\.mem\[1\]\[2\]
*210 rng_rd\.mem\[2\]\[0\]
*211 rng_rd\.mem\[2\]\[1\]
*212 rng_rd\.mem\[2\]\[2\]
*213 rng_rd\.mem\[3\]\[0\]
*214 rng_rd\.mem\[3\]\[1\]
*215 rng_rd\.mem\[3\]\[2\]
*216 rng_rd\.mem\[4\]\[0\]
*217 rng_rd\.mem\[4\]\[1\]
*218 rng_rd\.mem\[4\]\[2\]
*219 rng_rd\.mem\[5\]\[0\]
*220 rng_rd\.mem\[5\]\[1\]
*221 rng_rd\.mem\[5\]\[2\]
*222 rng_rd\.mem\[6\]\[0\]
*223 rng_rd\.mem\[6\]\[1\]
*224 rng_rd\.mem\[6\]\[2\]
*225 rng_rd\.mem\[7\]\[0\]
*226 rng_rd\.mem\[7\]\[1\]
*227 rng_rd\.mem\[7\]\[2\]
*228 rng_rd\.vld\[0\]
*229 rng_rd\.vld\[1\]
*230 rng_rd\.vld\[2\]
*231 rng_rd\.vld\[3\]
*232 rng_rd\.vld\[4\]
*233 rng_rd\.vld\[5\]
*234 rng_rd\.vld\[6\]
*235 rng_rd\.vld\[7\]
*236 rng_rd\.wr_ff1
*237 rng_rd\.wr_ff2
*238 rng_rd\.wr_ff2_d
*239 rng_rd\.wr_pulse
*240 FILLER_0_109
*241 FILLER_0_111
*242 FILLER_0_113
*243 FILLER_0_125
*244 FILLER_0_137
*245 FILLER_0_139
*246 FILLER_0_141
*247 FILLER_0_153
*248 FILLER_0_24
*249 FILLER_0_3
*250 FILLER_0_37
*251 FILLER_0_55
*252 FILLER_0_57
*253 FILLER_0_65
*254 FILLER_0_70
*255 FILLER_0_78
*256 FILLER_0_83
*257 FILLER_0_85
*258 FILLER_0_97
*259 FILLER_10_109
*260 FILLER_10_121
*261 FILLER_10_133
*262 FILLER_10_137
*263 FILLER_10_139
*264 FILLER_10_141
*265 FILLER_10_153
*266 FILLER_10_23
*267 FILLER_10_27
*268 FILLER_10_36
*269 FILLER_10_40
*270 FILLER_10_56
*271 FILLER_10_7
*272 FILLER_10_85
*273 FILLER_10_9
*274 FILLER_10_97
*275 FILLER_11_111
*276 FILLER_11_121
*277 FILLER_11_133
*278 FILLER_11_145
*279 FILLER_11_3
*280 FILLER_11_57
*281 FILLER_11_59
*282 FILLER_11_80
*283 FILLER_11_92
*284 FILLER_12_132
*285 FILLER_12_141
*286 FILLER_12_153
*287 FILLER_12_17
*288 FILLER_12_26
*289 FILLER_12_3
*290 FILLER_12_7
*291 FILLER_12_73
*292 FILLER_12_81
*293 FILLER_12_83
*294 FILLER_13_147
*295 FILLER_13_155
*296 FILLER_13_28
*297 FILLER_13_3
*298 FILLER_13_72
*299 FILLER_13_94
*300 FILLER_14_138
*301 FILLER_14_141
*302 FILLER_14_153
*303 FILLER_14_24
*304 FILLER_14_29
*305 FILLER_14_3
*306 FILLER_14_31
*307 FILLER_14_52
*308 FILLER_14_56
*309 FILLER_15_121
*310 FILLER_15_135
*311 FILLER_15_147
*312 FILLER_15_15
*313 FILLER_15_155
*314 FILLER_15_23
*315 FILLER_15_25
*316 FILLER_15_3
*317 FILLER_15_41
*318 FILLER_15_51
*319 FILLER_15_55
*320 FILLER_15_57
*321 FILLER_15_61
*322 FILLER_15_70
*323 FILLER_15_72
*324 FILLER_15_88
*325 FILLER_16_106
*326 FILLER_16_115
*327 FILLER_16_136
*328 FILLER_16_141
*329 FILLER_16_15
*330 FILLER_16_153
*331 FILLER_16_26
*332 FILLER_16_29
*333 FILLER_16_3
*334 FILLER_16_31
*335 FILLER_16_40
*336 FILLER_16_54
*337 FILLER_16_65
*338 FILLER_16_85
*339 FILLER_16_92
*340 FILLER_16_96
*341 FILLER_17_11
*342 FILLER_17_113
*343 FILLER_17_142
*344 FILLER_17_154
*345 FILLER_17_156
*346 FILLER_17_3
*347 FILLER_17_46
*348 FILLER_17_54
*349 FILLER_17_57
*350 FILLER_17_78
*351 FILLER_17_87
*352 FILLER_17_91
*353 FILLER_18_126
*354 FILLER_18_138
*355 FILLER_18_141
*356 FILLER_18_153
*357 FILLER_18_29
*358 FILLER_18_3
*359 FILLER_19_109
*360 FILLER_19_111
*361 FILLER_19_128
*362 FILLER_19_140
*363 FILLER_19_152
*364 FILLER_19_156
*365 FILLER_19_44
*366 FILLER_19_46
*367 FILLER_19_57
*368 FILLER_19_59
*369 FILLER_19_96
*370 FILLER_1_103
*371 FILLER_1_111
*372 FILLER_1_113
*373 FILLER_1_125
*374 FILLER_1_129
*375 FILLER_1_153
*376 FILLER_1_18
*377 FILLER_1_20
*378 FILLER_1_41
*379 FILLER_1_45
*380 FILLER_1_47
*381 FILLER_1_6
*382 FILLER_1_77
*383 FILLER_20_121
*384 FILLER_20_133
*385 FILLER_20_137
*386 FILLER_20_139
*387 FILLER_20_141
*388 FILLER_20_153
*389 FILLER_20_29
*390 FILLER_20_33
*391 FILLER_20_6
*392 FILLER_20_83
*393 FILLER_20_94
*394 FILLER_21_109
*395 FILLER_21_111
*396 FILLER_21_121
*397 FILLER_21_133
*398 FILLER_21_145
*399 FILLER_21_15
*400 FILLER_21_25
*401 FILLER_21_29
*402 FILLER_21_3
*403 FILLER_21_39
*404 FILLER_21_51
*405 FILLER_21_55
*406 FILLER_21_65
*407 FILLER_21_77
*408 FILLER_21_81
*409 FILLER_21_90
*410 FILLER_22_107
*411 FILLER_22_111
*412 FILLER_22_113
*413 FILLER_22_125
*414 FILLER_22_137
*415 FILLER_22_139
*416 FILLER_22_141
*417 FILLER_22_15
*418 FILLER_22_153
*419 FILLER_22_27
*420 FILLER_22_3
*421 FILLER_22_37
*422 FILLER_22_47
*423 FILLER_22_55
*424 FILLER_22_57
*425 FILLER_22_69
*426 FILLER_22_81
*427 FILLER_22_83
*428 FILLER_22_85
*429 FILLER_22_93
*430 FILLER_22_97
*431 FILLER_2_127
*432 FILLER_2_147
*433 FILLER_2_155
*434 FILLER_2_24
*435 FILLER_2_29
*436 FILLER_2_3
*437 FILLER_2_73
*438 FILLER_2_85
*439 FILLER_3_110
*440 FILLER_3_113
*441 FILLER_3_3
*442 FILLER_3_52
*443 FILLER_3_76
*444 FILLER_3_97
*445 FILLER_4_100
*446 FILLER_4_156
*447 FILLER_4_26
*448 FILLER_4_29
*449 FILLER_4_3
*450 FILLER_4_31
*451 FILLER_4_49
*452 FILLER_4_57
*453 FILLER_4_67
*454 FILLER_4_69
*455 FILLER_4_7
*456 FILLER_4_83
*457 FILLER_4_92
*458 FILLER_4_96
*459 FILLER_5_11
*460 FILLER_5_156
*461 FILLER_5_17
*462 FILLER_5_21
*463 FILLER_5_3
*464 FILLER_5_34
*465 FILLER_5_46
*466 FILLER_5_55
*467 FILLER_5_77
*468 FILLER_5_83
*469 FILLER_6_137
*470 FILLER_6_139
*471 FILLER_6_149
*472 FILLER_6_3
*473 FILLER_6_7
*474 FILLER_6_70
*475 FILLER_6_81
*476 FILLER_6_83
*477 FILLER_6_85
*478 FILLER_6_93
*479 FILLER_7_11
*480 FILLER_7_111
*481 FILLER_7_125
*482 FILLER_7_150
*483 FILLER_7_154
*484 FILLER_7_156
*485 FILLER_7_22
*486 FILLER_7_3
*487 FILLER_7_51
*488 FILLER_7_55
*489 FILLER_7_64
*490 FILLER_7_83
*491 FILLER_8_118
*492 FILLER_8_126
*493 FILLER_8_134
*494 FILLER_8_138
*495 FILLER_8_141
*496 FILLER_8_153
*497 FILLER_8_27
*498 FILLER_8_29
*499 FILLER_8_3
*500 FILLER_8_39
*501 FILLER_8_60
*502 FILLER_8_62
*503 FILLER_8_7
*504 FILLER_8_83
*505 FILLER_8_9
*506 FILLER_8_93
*507 FILLER_9_100
*508 FILLER_9_104
*509 FILLER_9_113
*510 FILLER_9_125
*511 FILLER_9_137
*512 FILLER_9_149
*513 FILLER_9_29
*514 FILLER_9_3
*515 FILLER_9_38
*516 FILLER_9_57
*517 FILLER_9_82
*518 FILLER_9_94
*519 FILLER_9_98
*520 PHY_EDGE_ROW_0_Left_23
*521 PHY_EDGE_ROW_0_Right_0
*522 PHY_EDGE_ROW_10_Left_33
*523 PHY_EDGE_ROW_10_Right_10
*524 PHY_EDGE_ROW_11_Left_34
*525 PHY_EDGE_ROW_11_Right_11
*526 PHY_EDGE_ROW_12_Left_35
*527 PHY_EDGE_ROW_12_Right_12
*528 PHY_EDGE_ROW_13_Left_36
*529 PHY_EDGE_ROW_13_Right_13
*530 PHY_EDGE_ROW_14_Left_37
*531 PHY_EDGE_ROW_14_Right_14
*532 PHY_EDGE_ROW_15_Left_38
*533 PHY_EDGE_ROW_15_Right_15
*534 PHY_EDGE_ROW_16_Left_39
*535 PHY_EDGE_ROW_16_Right_16
*536 PHY_EDGE_ROW_17_Left_40
*537 PHY_EDGE_ROW_17_Right_17
*538 PHY_EDGE_ROW_18_Left_41
*539 PHY_EDGE_ROW_18_Right_18
*540 PHY_EDGE_ROW_19_Left_42
*541 PHY_EDGE_ROW_19_Right_19
*542 PHY_EDGE_ROW_1_Left_24
*543 PHY_EDGE_ROW_1_Right_1
*544 PHY_EDGE_ROW_20_Left_43
*545 PHY_EDGE_ROW_20_Right_20
*546 PHY_EDGE_ROW_21_Left_44
*547 PHY_EDGE_ROW_21_Right_21
*548 PHY_EDGE_ROW_22_Left_45
*549 PHY_EDGE_ROW_22_Right_22
*550 PHY_EDGE_ROW_2_Left_25
*551 PHY_EDGE_ROW_2_Right_2
*552 PHY_EDGE_ROW_3_Left_26
*553 PHY_EDGE_ROW_3_Right_3
*554 PHY_EDGE_ROW_4_Left_27
*555 PHY_EDGE_ROW_4_Right_4
*556 PHY_EDGE_ROW_5_Left_28
*557 PHY_EDGE_ROW_5_Right_5
*558 PHY_EDGE_ROW_6_Left_29
*559 PHY_EDGE_ROW_6_Right_6
*560 PHY_EDGE_ROW_7_Left_30
*561 PHY_EDGE_ROW_7_Right_7
*562 PHY_EDGE_ROW_8_Left_31
*563 PHY_EDGE_ROW_8_Right_8
*564 PHY_EDGE_ROW_9_Left_32
*565 PHY_EDGE_ROW_9_Right_9
*566 TAP_TAPCELL_ROW_0_46
*567 TAP_TAPCELL_ROW_0_47
*568 TAP_TAPCELL_ROW_0_48
*569 TAP_TAPCELL_ROW_0_49
*570 TAP_TAPCELL_ROW_0_50
*571 TAP_TAPCELL_ROW_10_73
*572 TAP_TAPCELL_ROW_10_74
*573 TAP_TAPCELL_ROW_10_75
*574 TAP_TAPCELL_ROW_11_76
*575 TAP_TAPCELL_ROW_11_77
*576 TAP_TAPCELL_ROW_12_78
*577 TAP_TAPCELL_ROW_12_79
*578 TAP_TAPCELL_ROW_12_80
*579 TAP_TAPCELL_ROW_13_81
*580 TAP_TAPCELL_ROW_13_82
*581 TAP_TAPCELL_ROW_14_83
*582 TAP_TAPCELL_ROW_14_84
*583 TAP_TAPCELL_ROW_14_85
*584 TAP_TAPCELL_ROW_15_86
*585 TAP_TAPCELL_ROW_15_87
*586 TAP_TAPCELL_ROW_16_88
*587 TAP_TAPCELL_ROW_16_89
*588 TAP_TAPCELL_ROW_16_90
*589 TAP_TAPCELL_ROW_17_91
*590 TAP_TAPCELL_ROW_17_92
*591 TAP_TAPCELL_ROW_18_93
*592 TAP_TAPCELL_ROW_18_94
*593 TAP_TAPCELL_ROW_18_95
*594 TAP_TAPCELL_ROW_19_96
*595 TAP_TAPCELL_ROW_19_97
*596 TAP_TAPCELL_ROW_1_51
*597 TAP_TAPCELL_ROW_1_52
*598 TAP_TAPCELL_ROW_20_100
*599 TAP_TAPCELL_ROW_20_98
*600 TAP_TAPCELL_ROW_20_99
*601 TAP_TAPCELL_ROW_21_101
*602 TAP_TAPCELL_ROW_21_102
*603 TAP_TAPCELL_ROW_22_103
*604 TAP_TAPCELL_ROW_22_104
*605 TAP_TAPCELL_ROW_22_105
*606 TAP_TAPCELL_ROW_22_106
*607 TAP_TAPCELL_ROW_22_107
*608 TAP_TAPCELL_ROW_2_53
*609 TAP_TAPCELL_ROW_2_54
*610 TAP_TAPCELL_ROW_2_55
*611 TAP_TAPCELL_ROW_3_56
*612 TAP_TAPCELL_ROW_3_57
*613 TAP_TAPCELL_ROW_4_58
*614 TAP_TAPCELL_ROW_4_59
*615 TAP_TAPCELL_ROW_4_60
*616 TAP_TAPCELL_ROW_5_61
*617 TAP_TAPCELL_ROW_5_62
*618 TAP_TAPCELL_ROW_6_63
*619 TAP_TAPCELL_ROW_6_64
*620 TAP_TAPCELL_ROW_6_65
*621 TAP_TAPCELL_ROW_7_66
*622 TAP_TAPCELL_ROW_7_67
*623 TAP_TAPCELL_ROW_8_68
*624 TAP_TAPCELL_ROW_8_69
*625 TAP_TAPCELL_ROW_8_70
*626 TAP_TAPCELL_ROW_9_71
*627 TAP_TAPCELL_ROW_9_72
*628 _113_
*629 _114_
*630 _115_
*631 _116_
*632 _117_
*633 _118_
*634 _119_
*635 _120_
*636 _121_
*637 _122_
*638 _123_
*639 _124_
*640 _125_
*641 _126_
*642 _127_
*643 _128_
*644 _129_
*645 _130_
*646 _131_
*647 _132_
*648 _133_
*649 _134_
*650 _135_
*651 _136_
*652 _137_
*653 _138_
*654 _139_
*655 _140_
*656 _141_
*657 _142_
*658 _143_
*659 _144_
*660 _145_
*661 _146_
*662 _147_
*663 _148_
*664 _149_
*665 _150_
*666 _151_
*667 _152_
*668 _153_
*669 _154_
*670 _155_
*671 _156_
*672 _157_
*673 _158_
*674 _159_
*675 _160_
*676 _161_
*677 _162_
*678 _163_
*679 _164_
*680 _165_
*681 _166_
*682 _167_
*683 _168_
*684 _169_
*685 _170_
*686 _171_
*687 _172_
*688 _173_
*689 _174_
*690 _175_
*691 _176_
*692 _177_
*693 _178_
*694 _179_
*695 _180_
*696 _181_
*697 _182_
*698 _183_
*699 _184_
*700 _185_
*701 _186_
*702 _187_
*703 _188_
*704 _189_
*705 _190_
*706 _191_
*707 _192_
*708 _193_
*709 _194_
*710 _195_
*711 _196_
*712 _197_
*713 _198_
*714 _199_
*715 _200_
*716 _201_
*717 _202_
*718 _203_
*719 _204_
*720 _205_
*721 _206_
*722 _207_
*723 _208_
*724 _209_
*725 _210_
*726 _211_
*727 _212_
*728 _213_
*729 _214_
*730 _215_
*731 _216_
*732 _217_
*733 _218_
*734 _219_
*735 _220_
*736 _221_
*737 _222_
*738 _223_
*739 _224_
*740 _225_
*741 _226_
*742 _227_
*743 _228_
*744 _229_
*745 _230_
*746 _231_
*747 _232_
*748 _233_
*749 _234_
*750 _235_
*751 _236_
*752 _237_
*753 _238_
*754 _239_
*755 _240_
*756 _241_
*757 _242_
*758 _243_
*759 _244_
*760 _245_
*761 _246_
*762 _247_
*763 _248_
*764 _249_
*765 _250_
*766 _251_
*767 _252_
*768 _253_
*769 _254_
*770 _255_
*771 _256_
*772 _257_
*773 _258_
*774 _259_
*775 _260_
*776 _261_
*777 _262_
*778 _263_
*779 _264_
*780 _265_
*781 _266_
*782 _267_
*783 _268_
*784 _269_
*785 _270_
*786 clkbuf_0_clk_i
*787 clkbuf_2_0__f_clk_i
*788 clkbuf_2_1__f_clk_i
*789 clkbuf_2_2__f_clk_i
*790 clkbuf_2_3__f_clk_i
*791 clkload0
*792 clkload1
*793 clkload2
*794 fanout10
*795 fanout11
*796 fanout12
*797 fanout13
*798 fanout14
*799 fanout15
*800 fanout16
*801 fanout17
*802 fanout18
*803 fanout19
*804 fanout7
*805 fanout8
*806 fanout9
*807 hold1
*808 hold10
*809 hold11
*810 hold12
*811 hold13
*812 hold14
*813 hold15
*814 hold16
*815 hold17
*816 hold18
*817 hold19
*818 hold2
*819 hold20
*820 hold21
*821 hold22
*822 hold23
*823 hold24
*824 hold25
*825 hold26
*826 hold27
*827 hold28
*828 hold29
*829 hold3
*830 hold30
*831 hold31
*832 hold32
*833 hold33
*834 hold34
*835 hold35
*836 hold36
*837 hold37
*838 hold38
*839 hold39
*840 hold4
*841 hold40
*842 hold41
*843 hold42
*844 hold43
*845 hold44
*846 hold45
*847 hold46
*848 hold47
*849 hold48
*850 hold49
*851 hold5
*852 hold50
*853 hold51
*854 hold6
*855 hold7
*856 hold8
*857 hold9
*858 input1
*859 input2
*860 input3
*861 output4
*862 output5
*863 output6

*PORTS
clk_i I
num_to_send_o[0] O
num_to_send_o[1] O
num_to_send_o[2] O
req_num_i I
rst_i I
wr_i I

*D_NET *3 0.00845638
*CONN
*P clk_i I
*I *786:A I *D sky130_fd_sc_hd__clkbuf_16
*CAP
1 clk_i 0.00314014
2 *786:A 0.00314014
3 *786:A *636:A 0.00011607
4 *786:A *637:B1 0.000481866
5 *786:A *638:A1 6.81315e-05
6 *786:A *638:B1 7.24358e-05
7 *786:A *639:A1 0
8 *786:A *639:A2 9.29751e-06
9 *786:A *639:C1 0.000309715
10 *786:A *643:A2 4.82863e-05
11 *786:A *643:B1 0
12 *786:A *643:C1 0
13 *786:A *644:A 3.94614e-05
14 *786:A *650:A1 0.000218084
15 *786:A *650:A2 0.000132842
16 *786:A *651:B1 0
17 *786:A *670:A 0
18 *786:A *731:A1 0
19 *786:A *732:A0 6.08733e-05
20 *786:A *755:CLK 0.000107405
21 *786:A *756:D 9.37731e-05
22 *786:A *803:A 0.000104979
23 *786:A *859:A 8.53361e-05
24 *786:A *130:56 1.0183e-05
25 *786:A *130:62 4.82919e-05
26 *786:A *130:80 0
27 *786:A *132:49 5.45641e-05
28 *786:A *213:10 0.000114492
*RES
1 clk_i *786:A 27.5699 
*END

*D_NET *4 0.00083395
*CONN
*P num_to_send_o[0] O
*I *861:X O *D sky130_fd_sc_hd__buf_2
*CAP
1 num_to_send_o[0] 0.000391699
2 *861:X 0.000391699
3 num_to_send_o[0] *161:18 5.05521e-05
*RES
1 *861:X num_to_send_o[0] 10.185 
*END

*D_NET *5 0.000598286
*CONN
*P num_to_send_o[1] O
*I *862:X O *D sky130_fd_sc_hd__buf_2
*CAP
1 num_to_send_o[1] 0.000261309
2 *862:X 0.000261309
3 num_to_send_o[1] num_to_send_o[2] 7.56675e-05
*RES
1 *862:X num_to_send_o[1] 6.0935 
*END

*D_NET *6 0.00128329
*CONN
*P num_to_send_o[2] O
*I *863:X O *D sky130_fd_sc_hd__buf_2
*CAP
1 num_to_send_o[2] 0.000563004
2 *863:X 0.000563004
3 num_to_send_o[2] *724:S 2.09527e-05
4 num_to_send_o[2] *133:18 6.06649e-05
5 num_to_send_o[1] num_to_send_o[2] 7.56675e-05
*RES
1 *863:X num_to_send_o[2] 6.3473 
*END

*D_NET *7 0.00087814
*CONN
*P req_num_i I
*I *858:A I *D sky130_fd_sc_hd__clkbuf_1
*CAP
1 req_num_i 0.000437585
2 *858:A 0.000437585
3 *858:A *161:12 2.97004e-06
*RES
1 req_num_i *858:A 11.04 
*END

*D_NET *8 0.00100986
*CONN
*P rst_i I
*I *859:A I *D sky130_fd_sc_hd__clkbuf_1
*CAP
1 rst_i 0.00029772
2 *859:A 0.00029772
3 *859:A *125:76 0.000198663
4 *859:A *125:93 0.00013042
5 *786:A *859:A 8.53361e-05
*RES
1 rst_i *859:A 8.41677 
*END

*D_NET *9 0.000652757
*CONN
*P wr_i I
*I *860:A I *D sky130_fd_sc_hd__clkbuf_1
*CAP
1 wr_i 0.000326378
2 *860:A 0.000326378
3 *860:A *759:CLK 0
*RES
1 wr_i *860:A 7.8543 
*END

*D_NET *10 0.001021
*CONN
*I *785:D I *D sky130_fd_sc_hd__dfrtp_1
*I *672:X O *D sky130_fd_sc_hd__and2b_1
*CAP
1 *785:D 0.000390109
2 *672:X 0.000390109
3 *785:D *672:A_N 9.98747e-05
4 *785:D *672:B 0
5 *785:D *770:CLK 0.000140905
6 *785:D *829:A 0
7 *785:D *161:18 0
*RES
1 *672:X *785:D 12.885 
*END

*D_NET *11 0.0044267
*CONN
*I *701:C I *D sky130_fd_sc_hd__and3_1
*I *680:B1 I *D sky130_fd_sc_hd__a211o_1
*I *696:C1 I *D sky130_fd_sc_hd__a211o_1
*I *748:D I *D sky130_fd_sc_hd__dfrtp_4
*I *630:Y O *D sky130_fd_sc_hd__inv_2
*CAP
1 *701:C 0.000209095
2 *680:B1 0
3 *696:C1 0.000136552
4 *748:D 0.000220905
5 *630:Y 0.00029395
6 *11:42 0.000238184
7 *11:16 0.000746909
8 *11:10 0.00071249
9 *696:C1 *689:A1 0.000112043
10 *696:C1 *696:B1 2.04271e-05
11 *696:C1 *705:B1 8.53113e-06
12 *696:C1 *93:8 0
13 *696:C1 *112:37 6.27098e-05
14 *696:C1 *204:41 3.42833e-06
15 *701:C *680:C1 5.39961e-05
16 *701:C *687:A 5.28255e-05
17 *701:C *694:A 9.80032e-06
18 *701:C *701:A 0.000265706
19 *701:C *206:18 6.21553e-05
20 *748:D *683:A 4.92206e-05
21 *748:D *689:A1 7.23533e-05
22 *748:D *748:CLK 7.00889e-06
23 *748:D *748:RESET_B 0
24 *748:D *112:18 4.10092e-05
25 *748:D *112:37 0.000152452
26 *11:10 *678:A 0.000123368
27 *11:10 *686:B 0.000103554
28 *11:10 *204:67 7.06865e-05
29 *11:16 *681:A2 0.000119762
30 *11:16 *696:B1 0.000118081
31 *11:16 *83:10 0.000126423
32 *11:16 *203:85 0.000119756
33 *11:42 *678:A 3.31282e-05
34 *11:42 *680:C1 9.50342e-06
35 *11:42 *701:A 8.53113e-06
36 *11:42 *204:67 6.21553e-05
*RES
1 *630:Y *11:10 7.68 
2 *11:10 *11:16 8.935 
3 *11:16 *748:D 7.905 
4 *11:16 *696:C1 6.045 
5 *11:10 *11:42 0.87 
6 *11:42 *680:B1 3.6 
7 *11:42 *701:C 7.215 
*END

*D_NET *12 0.000490379
*CONN
*I *749:D I *D sky130_fd_sc_hd__dfrtp_4
*I *673:X O *D sky130_fd_sc_hd__xor2_1
*CAP
1 *749:D 0.000143689
2 *673:X 0.000143689
3 *749:D *673:A 7.36562e-05
4 *749:D *684:B 0.000122337
5 *749:D *746:CLK 0
6 *749:D *749:CLK 7.00889e-06
7 *749:D *87:14 0
*RES
1 *673:X *749:D 10.23 
*END

*D_NET *13 0.000922579
*CONN
*I *815:A I *D sky130_fd_sc_hd__dlygate4sd3_1
*I *675:X O *D sky130_fd_sc_hd__mux2_1
*CAP
1 *815:A 0.000149164
2 *675:X 0.000149164
3 *815:A *742:D 4.5783e-05
4 *815:A *743:CLK 8.57024e-05
5 *815:A *797:A 0.000289004
6 *815:A *223:18 0.000203762
*RES
1 *675:X *815:A 11.415 
*END

*D_NET *14 0.000581615
*CONN
*I *857:A I *D sky130_fd_sc_hd__dlygate4sd3_1
*I *676:X O *D sky130_fd_sc_hd__mux2_1
*CAP
1 *857:A 6.76955e-05
2 *676:X 6.76955e-05
3 *857:A *664:A2 0.000191914
4 *857:A *664:C1 0.000254311
*RES
1 *676:X *857:A 6.185 
*END

*D_NET *15 0.000440857
*CONN
*I *855:A I *D sky130_fd_sc_hd__dlygate4sd3_1
*I *677:X O *D sky130_fd_sc_hd__mux2_1
*CAP
1 *855:A 0.000201102
2 *677:X 0.000201102
3 *855:A *744:D 3.86529e-05
*RES
1 *677:X *855:A 10.41 
*END

*D_NET *16 0.000470687
*CONN
*I *745:D I *D sky130_fd_sc_hd__dfrtp_1
*I *692:X O *D sky130_fd_sc_hd__o22a_1
*CAP
1 *745:D 0.00016505
2 *692:X 0.00016505
3 *745:D *692:A2 0
4 *745:D *692:B2 8.65905e-05
5 *745:D *739:A 5.39961e-05
*RES
1 *692:X *745:D 9.63 
*END

*D_NET *17 0.000925344
*CONN
*I *746:D I *D sky130_fd_sc_hd__dfrtp_4
*I *699:Y O *D sky130_fd_sc_hd__o21ai_1
*CAP
1 *746:D 0.000279525
2 *699:Y 0.000279525
3 *746:D *692:B2 0
4 *746:D *697:B1 0
5 *746:D *699:A1 9.41173e-05
6 *746:D *699:A2 1.16578e-05
7 *746:D *699:B1 4.05674e-06
8 *746:D *706:A1 0.000118527
9 *746:D *746:CLK 7.16437e-05
10 *746:D *797:A 4.94404e-05
11 *746:D *118:25 1.68507e-05
*RES
1 *699:Y *746:D 13.2 
*END

*D_NET *18 0.000306826
*CONN
*I *747:D I *D sky130_fd_sc_hd__dfrtp_1
*I *706:X O *D sky130_fd_sc_hd__o21a_1
*CAP
1 *747:D 9.99719e-05
2 *706:X 9.99719e-05
3 *747:D *747:CLK 5.83121e-06
4 *747:D *763:CLK 5.23362e-05
5 *747:D *789:A 2.37234e-05
6 *747:D *126:82 0
7 *747:D *126:84 2.49909e-05
*RES
1 *706:X *747:D 9.03 
*END

*D_NET *19 0.000126174
*CONN
*I *823:A I *D sky130_fd_sc_hd__dlygate4sd3_1
*I *707:X O *D sky130_fd_sc_hd__mux2_1
*CAP
1 *823:A 4.2459e-05
2 *707:X 4.2459e-05
3 *823:A *707:A0 4.12557e-05
*RES
1 *707:X *823:A 4.01 
*END

*D_NET *20 0.000669437
*CONN
*I *827:A I *D sky130_fd_sc_hd__dlygate4sd3_1
*I *708:X O *D sky130_fd_sc_hd__mux2_1
*CAP
1 *827:A 0.000147428
2 *708:X 0.000147428
3 *827:A *646:B1 0
4 *827:A *751:D 4.65565e-05
5 *827:A *127:95 0
6 *827:A *127:110 8.98913e-05
7 *827:A *127:123 4.82919e-05
8 *827:A *132:22 2.75229e-05
9 *827:A *137:43 0.000162318
*RES
1 *708:X *827:A 11.07 
*END

*D_NET *21 0.00040591
*CONN
*I *830:A I *D sky130_fd_sc_hd__dlygate4sd3_1
*I *709:X O *D sky130_fd_sc_hd__mux2_1
*CAP
1 *830:A 0.000154067
2 *709:X 0.000154067
3 *830:A *646:B1 5.07419e-05
4 *830:A *752:D 0
5 *830:A *802:A 0
6 *830:A *137:10 4.70343e-05
*RES
1 *709:X *830:A 9.72 
*END

*D_NET *22 0.000683195
*CONN
*I *753:D I *D sky130_fd_sc_hd__dfrtp_1
*I *710:X O *D sky130_fd_sc_hd__mux2_1
*CAP
1 *753:D 0.000214304
2 *710:X 0.000214304
3 *753:D *670:D 0.000184866
4 *753:D *713:A0 6.97202e-05
5 *753:D *790:A 0
6 *753:D *129:55 0
*RES
1 *710:X *753:D 11.7 
*END

*D_NET *23 0.000394581
*CONN
*I *754:D I *D sky130_fd_sc_hd__dfrtp_1
*I *711:X O *D sky130_fd_sc_hd__mux2_1
*CAP
1 *754:D 0.000104604
2 *711:X 0.000104604
3 *754:D *711:A1 8.8266e-05
4 *754:D *756:RESET_B 0
5 *754:D *132:49 9.71067e-05
*RES
1 *711:X *754:D 9.12 
*END

*D_NET *24 0.000651885
*CONN
*I *755:D I *D sky130_fd_sc_hd__dfrtp_1
*I *712:X O *D sky130_fd_sc_hd__mux2_1
*CAP
1 *755:D 0.000206872
2 *712:X 0.000206872
3 *755:D *636:B 3.82443e-05
4 *755:D *638:C1 0.000123225
5 *755:D *777:D 0
6 *755:D *777:RESET_B 0
7 *755:D *833:A 7.66727e-05
*RES
1 *712:X *755:D 11.505 
*END

*D_NET *25 0.000493926
*CONN
*I *756:D I *D sky130_fd_sc_hd__dfrtp_1
*I *713:X O *D sky130_fd_sc_hd__mux2_1
*CAP
1 *756:D 0.000170189
2 *713:X 0.000170189
3 *756:D *650:A1 2.49909e-05
4 *756:D *130:80 3.47837e-05
5 *786:A *756:D 9.37731e-05
*RES
1 *713:X *756:D 9.915 
*END

*D_NET *26 0.000142096
*CONN
*I *837:A I *D sky130_fd_sc_hd__dlygate4sd3_1
*I *714:X O *D sky130_fd_sc_hd__mux2_1
*CAP
1 *837:A 2.60774e-05
2 *714:X 2.60774e-05
3 *837:A *718:S 4.13385e-05
4 *837:A *132:49 4.86022e-05
*RES
1 *714:X *837:A 4.01 
*END

*D_NET *27 0.000584785
*CONN
*I *758:D I *D sky130_fd_sc_hd__dfrtp_1
*I *715:X O *D sky130_fd_sc_hd__mux2_1
*CAP
1 *758:D 0.000292393
2 *715:X 0.000292393
3 *758:D *715:A1 0
4 *758:D *125:93 0
*RES
1 *715:X *758:D 10.92 
*END

*D_NET *28 0.000806453
*CONN
*I *760:D I *D sky130_fd_sc_hd__dfrtp_1
*I *716:X O *D sky130_fd_sc_hd__mux2_1
*CAP
1 *760:D 0.000189834
2 *716:X 0.000189834
3 *760:D *669:A 7.06865e-05
4 *760:D *669:B 0.000293733
5 *760:D *115:18 6.23651e-05
6 *760:D *131:21 0
*RES
1 *716:X *760:D 11.415 
*END

*D_NET *29 0.000629644
*CONN
*I *842:A I *D sky130_fd_sc_hd__dlygate4sd3_1
*I *717:X O *D sky130_fd_sc_hd__mux2_1
*CAP
1 *842:A 0.000289136
2 *717:X 0.000289136
3 *842:A *717:A0 5.13714e-05
4 *842:A *135:28 0
5 *842:A *138:27 0
*RES
1 *717:X *842:A 10.755 
*END

*D_NET *30 0.000732075
*CONN
*I *832:A I *D sky130_fd_sc_hd__dlygate4sd3_1
*I *718:X O *D sky130_fd_sc_hd__mux2_1
*CAP
1 *832:A 0.000304245
2 *718:X 0.000304245
3 *832:A *636:A 0.000116577
4 *832:A *718:A0 7.00889e-06
5 *832:A *762:D 0
*RES
1 *718:X *832:A 12.105 
*END

*D_NET *31 0.00152975
*CONN
*I *821:A I *D sky130_fd_sc_hd__dlygate4sd3_1
*I *719:X O *D sky130_fd_sc_hd__mux2_1
*CAP
1 *821:A 0.000409365
2 *719:X 0.000409365
3 *821:A *763:CLK 0.000316421
4 *821:A *763:D 8.65961e-05
5 *821:A *789:A 0
6 *821:A *820:A 0.000107424
7 *821:A *80:8 0.000113988
8 *821:A *207:21 8.65905e-05
*RES
1 *719:X *821:A 15.675 
*END

*D_NET *32 0.000462832
*CONN
*I *845:A I *D sky130_fd_sc_hd__dlygate4sd3_1
*I *720:X O *D sky130_fd_sc_hd__mux2_1
*CAP
1 *845:A 7.06975e-05
2 *720:X 7.06975e-05
3 *845:A *642:B1 0.00010622
4 *845:A *660:C1 0.000131086
5 *845:A *668:B1 8.41307e-05
*RES
1 *720:X *845:A 9.375 
*END

*D_NET *33 0.000422914
*CONN
*I *765:D I *D sky130_fd_sc_hd__dfrtp_1
*I *721:X O *D sky130_fd_sc_hd__mux2_1
*CAP
1 *765:D 0.000191981
2 *721:X 0.000191981
3 *765:D *125:31 3.89528e-05
*RES
1 *721:X *765:D 9.81 
*END

*D_NET *34 0.000415256
*CONN
*I *766:D I *D sky130_fd_sc_hd__dfrtp_1
*I *722:X O *D sky130_fd_sc_hd__mux2_1
*CAP
1 *766:D 9.99325e-05
2 *722:X 9.99325e-05
3 *766:D *766:CLK 4.61658e-05
4 *766:D *134:36 0.000116158
5 *766:D *194:22 5.30673e-05
*RES
1 *722:X *766:D 9.375 
*END

*D_NET *35 0.000398748
*CONN
*I *767:D I *D sky130_fd_sc_hd__dfrtp_1
*I *723:X O *D sky130_fd_sc_hd__mux2_1
*CAP
1 *767:D 0.000194161
2 *723:X 0.000194161
3 *767:D *772:CLK 0
4 *767:D *862:A 1.04258e-05
5 *767:D *124:22 0
6 *767:D *194:48 0
*RES
1 *723:X *767:D 9.885 
*END

*D_NET *36 0.000922625
*CONN
*I *835:A I *D sky130_fd_sc_hd__dlygate4sd3_1
*I *724:X O *D sky130_fd_sc_hd__mux2_1
*CAP
1 *835:A 0.000304141
2 *724:X 0.000304141
3 *835:A *721:A1 0.000108329
4 *835:A *724:A0 0.000201088
5 *835:A *724:A1 4.9253e-06
6 *835:A *768:D 0
*RES
1 *724:X *835:A 12.45 
*END

*D_NET *37 0.000689502
*CONN
*I *770:D I *D sky130_fd_sc_hd__dfrtp_1
*I *725:X O *D sky130_fd_sc_hd__mux2_1
*CAP
1 *770:D 0.000130694
2 *725:X 0.000130694
3 *770:D *766:CLK 4.7043e-05
4 *770:D *770:CLK 6.14602e-05
5 *770:D *770:RESET_B 0.00011852
6 *770:D *129:14 4.66108e-05
7 *770:D *134:36 0.000154481
*RES
1 *725:X *770:D 10.815 
*END

*D_NET *38 0.000675021
*CONN
*I *771:D I *D sky130_fd_sc_hd__dfrtp_1
*I *726:X O *D sky130_fd_sc_hd__mux2_1
*CAP
1 *771:D 0.000168214
2 *726:X 0.000168214
3 *771:D *659:C1 0.000247567
4 *771:D *124:14 4.39921e-05
5 *771:D *133:20 0
6 *771:D *208:12 4.70343e-05
*RES
1 *726:X *771:D 10.8337 
*END

*D_NET *39 0.000445222
*CONN
*I *772:D I *D sky130_fd_sc_hd__dfrtp_1
*I *727:X O *D sky130_fd_sc_hd__mux2_1
*CAP
1 *772:D 0.000162518
2 *727:X 0.000162518
3 *772:D *724:S 0
4 *772:D *862:A 0.000120186
*RES
1 *727:X *772:D 9.72 
*END

*D_NET *40 0.00112744
*CONN
*I *773:D I *D sky130_fd_sc_hd__dfrtp_1
*I *728:X O *D sky130_fd_sc_hd__or2_1
*CAP
1 *773:D 0.000434492
2 *728:X 0.000434492
3 *773:D *728:A 0
4 *773:D *759:CLK 2.24336e-05
5 *773:D *769:CLK 0
6 *773:D *774:D 3.68769e-05
7 *773:D *124:22 0.00012455
8 *773:D *124:24 7.45968e-05
*RES
1 *728:X *773:D 15 
*END

*D_NET *41 0.000859055
*CONN
*I *774:D I *D sky130_fd_sc_hd__dfrtp_1
*I *729:X O *D sky130_fd_sc_hd__mux2_1
*CAP
1 *774:D 0.000312092
2 *729:X 0.000312092
3 *774:D *729:A1 2.7441e-05
4 *774:D *775:CLK 7.35813e-05
5 *774:D *812:A 3.00381e-05
6 *774:D *154:6 6.69341e-05
7 *774:D *228:10 0
8 *773:D *774:D 3.68769e-05
*RES
1 *729:X *774:D 11.985 
*END

*D_NET *42 0.000624953
*CONN
*I *775:D I *D sky130_fd_sc_hd__dfrtp_1
*I *730:X O *D sky130_fd_sc_hd__mux2_1
*CAP
1 *775:D 0.000242618
2 *730:X 0.000242618
3 *775:D *730:A1 0.000115108
4 *775:D *133:22 0
5 *775:D *133:24 0
6 *775:D *229:10 2.46089e-05
*RES
1 *730:X *775:D 10.665 
*END

*D_NET *43 0.00130156
*CONN
*I *776:D I *D sky130_fd_sc_hd__dfrtp_1
*I *731:X O *D sky130_fd_sc_hd__mux2_1
*CAP
1 *776:D 0.000290721
2 *731:X 0.000290721
3 *776:D *721:S 0.000326031
4 *776:D *776:RESET_B 0.00011151
5 *776:D *788:A 0.000116158
6 *776:D *81:18 3.64998e-06
7 *776:D *214:8 0.000116158
8 *776:D *231:6 4.66108e-05
*RES
1 *731:X *776:D 14.55 
*END

*D_NET *44 0.000689119
*CONN
*I *809:A I *D sky130_fd_sc_hd__dlygate4sd3_1
*I *732:X O *D sky130_fd_sc_hd__mux2_1
*CAP
1 *809:A 0.000220839
2 *732:X 0.000220839
3 *809:A *638:C1 8.65961e-05
4 *809:A *732:A0 4.43871e-06
5 *809:A *778:D 0
6 *809:A *843:A 9.3062e-06
7 *809:A *196:97 0.0001471
*RES
1 *732:X *809:A 11.415 
*END

*D_NET *45 0.000355018
*CONN
*I *778:D I *D sky130_fd_sc_hd__dfrtp_1
*I *733:X O *D sky130_fd_sc_hd__mux2_1
*CAP
1 *778:D 0.000122649
2 *733:X 0.000122649
3 *778:D *638:B1 3.67779e-05
4 *778:D *638:C1 4.82863e-05
5 *778:D *732:A0 0
6 *778:D *733:S 1.19928e-05
7 *778:D *808:A 1.26626e-05
8 *809:A *778:D 0
*RES
1 *733:X *778:D 9.12 
*END

*D_NET *46 0.000475046
*CONN
*I *779:D I *D sky130_fd_sc_hd__dfrtp_1
*I *734:X O *D sky130_fd_sc_hd__mux2_1
*CAP
1 *779:D 0.000158769
2 *734:X 0.000158769
3 *779:D *709:S 6.97118e-05
4 *779:D *137:29 8.77968e-05
5 *779:D *197:115 0
*RES
1 *734:X *779:D 9.72 
*END

*D_NET *47 0.000558308
*CONN
*I *851:A I *D sky130_fd_sc_hd__dlygate4sd3_1
*I *735:X O *D sky130_fd_sc_hd__mux2_1
*CAP
1 *851:A 0.000136961
2 *735:X 0.000136961
3 *851:A *735:A0 0.000284386
*RES
1 *735:X *851:A 6.335 
*END

*D_NET *48 0.00062657
*CONN
*I *782:D I *D sky130_fd_sc_hd__dfrtp_2
*I *738:X O *D sky130_fd_sc_hd__and2_1
*CAP
1 *782:D 0.000186873
2 *738:X 0.000186873
3 *782:D *634:A 5.13155e-05
4 *782:D *737:A 0.000201508
*RES
1 *738:X *782:D 10.155 
*END

*D_NET *49 0.000343477
*CONN
*I *783:D I *D sky130_fd_sc_hd__dfrtp_4
*I *739:Y O *D sky130_fd_sc_hd__xnor2_1
*CAP
1 *783:D 8.29078e-05
2 *739:Y 8.29078e-05
3 *783:D *117:38 9.2741e-05
4 *783:D *202:31 8.49205e-05
*RES
1 *739:Y *783:D 5.045 
*END

*D_NET *50 0.000721767
*CONN
*I *784:D I *D sky130_fd_sc_hd__dfrtp_2
*I *741:X O *D sky130_fd_sc_hd__a31o_1
*CAP
1 *784:D 0.00022235
2 *741:X 0.00022235
3 *784:D *692:B1 9.66021e-05
4 *784:D *692:B2 9.66021e-05
5 *784:D *740:B1 4.82919e-05
6 *784:D *741:A2 5.53249e-06
7 *784:D *741:A3 3.00381e-05
8 *784:D *784:RESET_B 0
9 *784:D *126:10 0
10 *784:D *126:14 0
*RES
1 *741:X *784:D 11.535 
*END

*D_NET *51 0.00139446
*CONN
*I *642:C1 I *D sky130_fd_sc_hd__o211ai_1
*I *640:Y O *D sky130_fd_sc_hd__xnor2_1
*CAP
1 *642:C1 0.000450676
2 *640:Y 0.000450676
3 *642:C1 *642:B1 5.53249e-06
4 *642:C1 *717:A1 9.14049e-05
5 *642:C1 *761:RESET_B 0.0002313
6 *642:C1 *125:20 0.000164874
7 *642:C1 *138:33 0
*RES
1 *640:Y *642:C1 13.515 
*END

*D_NET *52 0.000867501
*CONN
*I *643:B1 I *D sky130_fd_sc_hd__a211o_1
*I *641:X O *D sky130_fd_sc_hd__a2bb2o_1
*CAP
1 *643:B1 0.000256618
2 *641:X 0.000256618
3 *643:B1 *643:A2 0
4 *643:B1 *643:C1 9.50342e-06
5 *643:B1 *668:B1 5.92269e-05
6 *643:B1 *115:18 0.000237249
7 *643:B1 *115:41 4.82863e-05
8 *643:B1 *130:56 0
9 *786:A *643:B1 0
*RES
1 *641:X *643:B1 11.1 
*END

*D_NET *53 0.00143732
*CONN
*I *643:C1 I *D sky130_fd_sc_hd__a211o_1
*I *642:Y O *D sky130_fd_sc_hd__o211ai_1
*CAP
1 *643:C1 0.000322015
2 *642:Y 0.000322015
3 *643:C1 *668:B1 3.09164e-05
4 *643:C1 *731:A1 7.21296e-06
5 *643:C1 *760:RESET_B 0.000126054
6 *643:C1 *764:RESET_B 0.000399252
7 *643:C1 *798:A 0.000159156
8 *643:C1 *819:A 4.92062e-05
9 *643:C1 *211:24 1.19928e-05
10 *643:B1 *643:C1 9.50342e-06
11 *786:A *643:C1 0
*RES
1 *642:Y *643:C1 14.715 
*END

*D_NET *54 0.00126493
*CONN
*I *669:A I *D sky130_fd_sc_hd__and4_1
*I *643:X O *D sky130_fd_sc_hd__a211o_1
*CAP
1 *669:A 0.000383921
2 *643:X 0.000383921
3 *669:A *643:A2 8.57024e-05
4 *669:A *81:18 9.29751e-06
5 *669:A *129:55 0.000309612
6 *669:A *130:62 2.17931e-05
7 *669:A *131:21 0
8 *760:D *669:A 7.06865e-05
*RES
1 *643:X *669:A 12.57 
*END

*D_NET *55 0.00201457
*CONN
*I *647:B1 I *D sky130_fd_sc_hd__a211o_1
*I *644:X O *D sky130_fd_sc_hd__xor2_1
*CAP
1 *647:B1 0.000408948
2 *644:X 0.000408948
3 *647:B1 *647:A2 7.62408e-05
4 *647:B1 *677:S 0
5 *647:B1 *711:S 0.000314438
6 *647:B1 *756:RESET_B 0.000188177
7 *647:B1 *115:99 0.000423637
8 *647:B1 *130:97 0.000171749
9 *647:B1 *135:102 2.24336e-05
*RES
1 *644:X *647:B1 18.705 
*END

*D_NET *56 0.000371856
*CONN
*I *646:C1 I *D sky130_fd_sc_hd__o211ai_1
*I *645:Y O *D sky130_fd_sc_hd__xnor2_1
*CAP
1 *646:C1 5.15171e-05
2 *645:Y 5.15171e-05
3 *646:C1 *645:B 7.35729e-05
4 *646:C1 *708:A1 3.29384e-05
5 *646:C1 *199:67 0.000162311
*RES
1 *645:Y *646:C1 5.045 
*END

*D_NET *57 0.000218258
*CONN
*I *647:C1 I *D sky130_fd_sc_hd__a211o_1
*I *646:Y O *D sky130_fd_sc_hd__o211ai_1
*CAP
1 *647:C1 8.33367e-05
2 *646:Y 8.33367e-05
3 *647:C1 *646:A1 4.32126e-05
4 *647:C1 *646:A2 4.18603e-06
5 *647:C1 *790:A 0
6 *647:C1 *130:97 4.18603e-06
7 *647:C1 *199:67 0
*RES
1 *646:Y *647:C1 8.58 
*END

*D_NET *58 0.00245038
*CONN
*I *669:B I *D sky130_fd_sc_hd__and4_1
*I *647:X O *D sky130_fd_sc_hd__a211o_1
*CAP
1 *669:B 0.000404583
2 *647:X 0.000404583
3 *669:B *711:S 0.000116158
4 *669:B *713:S 0.000196944
5 *669:B *753:CLK 0.00011067
6 *669:B *81:18 0.000512738
7 *669:B *129:55 0.000168768
8 *669:B *129:64 8.15598e-05
9 *669:B *130:97 0.000160641
10 *669:B *131:21 0
11 *760:D *669:B 0.000293733
*RES
1 *647:X *669:B 20.01 
*END

*D_NET *59 0.0041131
*CONN
*I *651:B1 I *D sky130_fd_sc_hd__a211o_1
*I *648:X O *D sky130_fd_sc_hd__xor2_1
*CAP
1 *651:B1 0.00141341
2 *648:X 0.00141341
3 *651:B1 *649:A 1.52352e-05
4 *651:B1 *649:B 6.21763e-05
5 *651:B1 *650:C1 0.000929887
6 *651:B1 *651:A1 1.85674e-05
7 *651:B1 *651:C1 7.09999e-05
8 *651:B1 *670:C 0
9 *651:B1 *732:A1 0
10 *651:B1 *81:18 0.000106784
11 *651:B1 *138:81 8.26314e-05
12 *786:A *651:B1 0
*RES
1 *648:X *651:B1 28.785 
*END

*D_NET *60 0.00241975
*CONN
*I *650:C1 I *D sky130_fd_sc_hd__o211ai_1
*I *649:Y O *D sky130_fd_sc_hd__xnor2_1
*CAP
1 *650:C1 0.000287009
2 *649:Y 0.000287009
3 *650:C1 *637:B1 0
4 *650:C1 *649:A 0.000294963
5 *650:C1 *649:B 4.66108e-05
6 *650:C1 *650:B1 4.82919e-05
7 *650:C1 *670:A 0.000476017
8 *650:C1 *670:D 4.99619e-05
9 *651:B1 *650:C1 0.000929887
*RES
1 *649:Y *650:C1 17.94 
*END

*D_NET *61 0.000251327
*CONN
*I *651:C1 I *D sky130_fd_sc_hd__a211o_1
*I *650:Y O *D sky130_fd_sc_hd__o211ai_1
*CAP
1 *651:C1 9.01637e-05
2 *650:Y 9.01637e-05
3 *651:C1 *650:A2 0
4 *651:C1 *213:10 0
5 *651:B1 *651:C1 7.09999e-05
*RES
1 *650:Y *651:C1 8.835 
*END

*D_NET *62 0.00134664
*CONN
*I *670:B I *D sky130_fd_sc_hd__and4_1
*I *651:X O *D sky130_fd_sc_hd__a211o_1
*CAP
1 *670:B 0.000331183
2 *651:X 0.000331183
3 *670:B *670:C 0.000140912
4 *670:B *731:S 2.30292e-05
5 *670:B *81:18 0.000520333
*RES
1 *651:X *670:B 12.735 
*END

*D_NET *63 0.00270264
*CONN
*I *654:C1 I *D sky130_fd_sc_hd__o211ai_1
*I *652:Y O *D sky130_fd_sc_hd__xnor2_1
*CAP
1 *654:C1 0.000962562
2 *652:Y 0.000962562
3 *654:C1 *654:A1 3.09233e-05
4 *654:C1 *654:A2 6.67762e-05
5 *654:C1 *677:S 0.000349587
6 *654:C1 *735:A1 1.71013e-05
7 *654:C1 *779:RESET_B 7.44317e-05
8 *654:C1 *127:123 2.30292e-05
9 *654:C1 *132:22 8.9693e-05
10 *654:C1 *234:21 0.000125977
*RES
1 *652:Y *654:C1 20.94 
*END

*D_NET *64 0.000751392
*CONN
*I *655:B1 I *D sky130_fd_sc_hd__a211o_1
*I *653:X O *D sky130_fd_sc_hd__a2bb2o_1
*CAP
1 *655:B1 0.000110236
2 *653:X 0.000110236
3 *655:B1 *655:A2 0.00017152
4 *655:B1 *707:A1 2.86895e-05
5 *655:B1 *750:RESET_B 0.000113797
6 *655:B1 *131:57 1.61831e-05
7 *655:B1 *138:81 0.000191226
8 *655:B1 *219:21 9.50342e-06
*RES
1 *653:X *655:B1 10.77 
*END

*D_NET *65 0.00414604
*CONN
*I *655:C1 I *D sky130_fd_sc_hd__a211o_1
*I *654:Y O *D sky130_fd_sc_hd__o211ai_1
*CAP
1 *655:C1 0.00157854
2 *654:Y 0.00157854
3 *655:C1 *653:A2_N 0.00011822
4 *655:C1 *653:B1 4.82919e-05
5 *655:C1 *653:B2 4.82863e-05
6 *655:C1 *654:A1 0
7 *655:C1 *662:B 0
8 *655:C1 *663:A2 0
9 *655:C1 *670:D 8.40269e-05
10 *655:C1 *675:A0 0.000392909
11 *655:C1 *735:A1 7.23602e-05
12 *655:C1 *742:D 0
13 *655:C1 *743:CLK 9.80943e-06
14 *655:C1 *743:D 0
15 *655:C1 *753:RESET_B 4.16353e-05
16 *655:C1 *790:A 0.000159964
17 *655:C1 *131:78 1.34594e-05
18 *655:C1 *197:94 0
19 *655:C1 *225:10 0
20 *655:C1 *225:23 0
*RES
1 *654:Y *655:C1 35.35 
*END

*D_NET *66 0.00126287
*CONN
*I *669:C I *D sky130_fd_sc_hd__and4_1
*I *655:X O *D sky130_fd_sc_hd__a211o_1
*CAP
1 *669:C 0.000492378
2 *655:X 0.000492378
3 *669:C *789:A 0
4 *669:C *790:A 0
5 *669:C *81:18 0
6 *669:C *115:18 0.000278117
7 *669:C *129:55 0
*RES
1 *655:X *669:C 14.67 
*END

*D_NET *67 0.000662275
*CONN
*I *659:B1 I *D sky130_fd_sc_hd__a221o_1
*I *656:Y O *D sky130_fd_sc_hd__nand2_1
*CAP
1 *659:B1 0.000276963
2 *656:Y 0.000276963
3 *659:B1 *656:A 1.16578e-05
4 *659:B1 *665:A 9.66914e-05
5 *659:B1 *727:A1 0
6 *659:B1 *132:65 0
*RES
1 *656:Y *659:B1 10.845 
*END

*D_NET *68 0.000209237
*CONN
*I *659:B2 I *D sky130_fd_sc_hd__a221o_1
*I *657:X O *D sky130_fd_sc_hd__or2_1
*CAP
1 *659:B2 9.77519e-05
2 *657:X 9.77519e-05
3 *659:B2 *659:A1 1.37328e-05
*RES
1 *657:X *659:B2 4.80875 
*END

*D_NET *69 0.00245631
*CONN
*I *660:B1 I *D sky130_fd_sc_hd__a211o_1
*I *658:Y O *D sky130_fd_sc_hd__o22ai_1
*CAP
1 *660:B1 0.000314087
2 *658:Y 0.000314087
3 *660:B1 *658:B1 9.5433e-05
4 *660:B1 *658:B2 5.83121e-06
5 *660:B1 *660:A1 0.000839999
6 *660:B1 *668:B1 4.66108e-05
7 *660:B1 *787:A 0.000494374
8 *660:B1 *161:37 0.000100162
9 *660:B1 *172:27 0.000245727
*RES
1 *658:Y *660:B1 18.915 
*END

*D_NET *70 0.00103382
*CONN
*I *660:C1 I *D sky130_fd_sc_hd__a211o_1
*I *659:X O *D sky130_fd_sc_hd__a221o_1
*CAP
1 *660:C1 0.000344224
2 *659:X 0.000344224
3 *660:C1 *660:A2 0
4 *660:C1 *668:B1 0.000214282
5 *845:A *660:C1 0.000131086
*RES
1 *659:X *660:C1 12.93 
*END

*D_NET *71 0.00139648
*CONN
*I *670:C I *D sky130_fd_sc_hd__and4_1
*I *660:X O *D sky130_fd_sc_hd__a211o_1
*CAP
1 *670:C 0.0002599
2 *660:X 0.0002599
3 *670:C *731:A0 7.4027e-05
4 *670:C *731:A1 9.23473e-05
5 *670:C *732:A1 7.47215e-05
6 *670:C *788:A 6.92175e-05
7 *670:C *819:A 0.000289698
8 *670:C *81:18 1.34361e-05
9 *670:C *123:8 0.000122325
10 *670:C *213:10 0
11 *651:B1 *670:C 0
12 *670:B *670:C 0.000140912
*RES
1 *660:X *670:C 14.055 
*END

*D_NET *72 0.00250336
*CONN
*I *664:B1 I *D sky130_fd_sc_hd__a211o_1
*I *661:X O *D sky130_fd_sc_hd__xor2_1
*CAP
1 *664:B1 0.000695555
2 *661:X 0.000695555
3 *664:B1 *661:B 0.000109845
4 *664:B1 *663:A1 0.000105776
5 *664:B1 *708:S 0
6 *664:B1 *734:A0 3.03775e-05
7 *664:B1 *797:A 0.000835335
8 *664:B1 *127:80 0
9 *664:B1 *197:57 3.09164e-05
10 *664:B1 *197:115 0
*RES
1 *661:X *664:B1 20.55 
*END

*D_NET *73 0.000403043
*CONN
*I *663:C1 I *D sky130_fd_sc_hd__o211ai_1
*I *662:Y O *D sky130_fd_sc_hd__xnor2_1
*CAP
1 *663:C1 0.000119902
2 *662:Y 0.000119902
3 *663:C1 *662:B 8.65905e-05
4 *663:C1 *663:A2 4.66108e-05
5 *663:C1 *663:B1 3.00381e-05
*RES
1 *662:Y *663:C1 5.39 
*END

*D_NET *74 0.00184018
*CONN
*I *664:C1 I *D sky130_fd_sc_hd__a211o_1
*I *663:Y O *D sky130_fd_sc_hd__o211ai_1
*CAP
1 *664:C1 0.000239521
2 *663:Y 0.000239521
3 *664:C1 *653:B1 8.23457e-05
4 *664:C1 *662:B 0.000116853
5 *664:C1 *664:A2 8.94407e-05
6 *664:C1 *676:A0 0.000502803
7 *664:C1 *676:A1 8.40269e-05
8 *664:C1 *856:A 4.66108e-05
9 *664:C1 *197:81 0.000118081
10 *664:C1 *197:94 3.74161e-05
11 *664:C1 *226:10 2.92496e-05
12 *857:A *664:C1 0.000254311
*RES
1 *663:Y *664:C1 15.495 
*END

*D_NET *75 0.00446917
*CONN
*I *670:D I *D sky130_fd_sc_hd__and4_1
*I *664:X O *D sky130_fd_sc_hd__a211o_1
*CAP
1 *670:D 0.00153427
2 *664:X 0.00153427
3 *670:D *650:A1 3.95073e-05
4 *670:D *650:A2 4.82863e-05
5 *670:D *650:B1 0.000181568
6 *670:D *653:B1 0.0001249
7 *670:D *710:A0 4.66108e-05
8 *670:D *713:A0 7.54821e-05
9 *670:D *713:S 7.60965e-05
10 *670:D *753:RESET_B 6.6199e-05
11 *670:D *790:A 0.000139252
12 *670:D *793:A 2.49909e-05
13 *670:D *846:A 8.87364e-05
14 *670:D *197:45 1.21515e-05
15 *670:D *219:21 0.000137578
16 *670:D *231:12 2.04101e-05
17 *650:C1 *670:D 4.99619e-05
18 *655:C1 *670:D 8.40269e-05
19 *753:D *670:D 0.000184866
*RES
1 *664:X *670:D 29.82 
*END

*D_NET *76 0.00259133
*CONN
*I *668:B1 I *D sky130_fd_sc_hd__a211o_1
*I *665:X O *D sky130_fd_sc_hd__xor2_1
*CAP
1 *668:B1 0.000598946
2 *665:X 0.000598946
3 *668:B1 *643:A2 0
4 *668:B1 *658:B2 3.35338e-05
5 *668:B1 *660:A2 6.58339e-05
6 *668:B1 *666:A 5.02217e-05
7 *668:B1 *668:A1 1.85674e-05
8 *668:B1 *731:A1 7.26551e-05
9 *668:B1 *764:RESET_B 0.000382038
10 *668:B1 *123:8 0.000232999
11 *668:B1 *199:16 3.68862e-05
12 *668:B1 *211:12 6.55328e-05
13 *643:B1 *668:B1 5.92269e-05
14 *643:C1 *668:B1 3.09164e-05
15 *660:B1 *668:B1 4.66108e-05
16 *660:C1 *668:B1 0.000214282
17 *845:A *668:B1 8.41307e-05
*RES
1 *665:X *668:B1 21.675 
*END

*D_NET *77 0.000171211
*CONN
*I *667:C1 I *D sky130_fd_sc_hd__o211ai_1
*I *666:Y O *D sky130_fd_sc_hd__xnor2_1
*CAP
1 *667:C1 6.24951e-05
2 *666:Y 6.24951e-05
3 *667:C1 *666:A 3.00381e-05
4 *667:C1 *667:A1 0
5 *667:C1 *667:B1 1.61831e-05
*RES
1 *666:Y *667:C1 4.355 
*END

*D_NET *78 0.000281453
*CONN
*I *668:C1 I *D sky130_fd_sc_hd__a211o_1
*I *667:Y O *D sky130_fd_sc_hd__o211ai_1
*CAP
1 *668:C1 3.94507e-05
2 *667:Y 3.94507e-05
3 *668:C1 *666:A 0.000143266
4 *668:C1 *731:A1 5.92849e-05
*RES
1 *667:Y *668:C1 8.835 
*END

*D_NET *79 0.00206654
*CONN
*I *669:D I *D sky130_fd_sc_hd__and4_1
*I *668:X O *D sky130_fd_sc_hd__a211o_1
*CAP
1 *669:D 0.000304458
2 *668:X 0.000304458
3 *669:D *668:A1 0.000122325
4 *669:D *668:A2 4.82863e-05
5 *669:D *716:A1 4.82863e-05
6 *669:D *820:A 0.000349592
7 *669:D *80:8 0.000148991
8 *669:D *81:18 0.000342254
9 *669:D *162:6 0.000188063
10 *669:D *207:21 1.60203e-05
11 *669:D *207:30 0.000193806
*RES
1 *668:X *669:D 16.755 
*END

*D_NET *80 0.00163698
*CONN
*I *671:A1 I *D sky130_fd_sc_hd__a21oi_1
*I *674:B I *D sky130_fd_sc_hd__and3_1
*I *669:X O *D sky130_fd_sc_hd__and4_1
*CAP
1 *671:A1 4.16082e-05
2 *674:B 0.000144807
3 *669:X 0.000300408
4 *80:8 0.000486824
5 *671:A1 *850:A 1.56428e-05
6 *674:B *631:A 7.5416e-05
7 *674:B *198:10 0.000114492
8 *80:8 *631:A 0.000109989
9 *80:8 *81:18 8.48111e-05
10 *669:D *80:8 0.000148991
11 *821:A *80:8 0.000113988
*RES
1 *669:X *80:8 10.59 
2 *80:8 *674:B 6.195 
3 *80:8 *671:A1 4.05 
*END

*D_NET *81 0.00617021
*CONN
*I *671:A2 I *D sky130_fd_sc_hd__a21oi_1
*I *674:C I *D sky130_fd_sc_hd__and3_1
*I *670:X O *D sky130_fd_sc_hd__and4_1
*CAP
1 *671:A2 3.41652e-05
2 *674:C 0.000140424
3 *670:X 0.00099557
4 *81:18 0.00117016
5 *671:A2 *634:B 3.64998e-06
6 *674:C *631:A 1.1561e-05
7 *674:C *634:B 0.000143266
8 *674:C *847:A 6.74079e-05
9 *674:C *129:27 0
10 *674:C *198:10 2.68721e-05
11 *674:C *207:21 4.58406e-05
12 *81:18 *631:A 8.97642e-05
13 *81:18 *650:B1 0.00015896
14 *81:18 *731:S 4.99619e-05
15 *81:18 *732:A1 1.52945e-05
16 *81:18 *129:55 0.000425829
17 *81:18 *131:21 0
18 *81:18 *138:81 0.000845146
19 *81:18 *166:8 0.000163204
20 *81:18 *207:21 0.000183751
21 *81:18 *231:6 6.07575e-06
22 *651:B1 *81:18 0.000106784
23 *669:A *81:18 9.29751e-06
24 *669:B *81:18 0.000512738
25 *669:C *81:18 0
26 *669:D *81:18 0.000342254
27 *670:B *81:18 0.000520333
28 *670:C *81:18 1.34361e-05
29 *776:D *81:18 3.64998e-06
30 *80:8 *81:18 8.48111e-05
*RES
1 *670:X *81:18 34.855 
2 *81:18 *674:C 7.035 
3 *81:18 *671:A2 4.05 
*END

*D_NET *82 0.00145844
*CONN
*I *794:A I *D sky130_fd_sc_hd__clkbuf_2
*I *674:X O *D sky130_fd_sc_hd__and3_1
*CAP
1 *794:A 0.000414947
2 *674:X 0.000414947
3 *794:A *634:B 9.54469e-05
4 *794:A *725:A1 4.36241e-05
5 *794:A *804:A 9.21168e-05
6 *794:A *129:14 4.43682e-05
7 *794:A *129:27 0
8 *794:A *194:6 0.000124007
9 *794:A *194:14 0.000198945
10 *794:A *198:10 3.00381e-05
*RES
1 *674:X *794:A 14.985 
*END

*D_NET *83 0.00188186
*CONN
*I *681:B1 I *D sky130_fd_sc_hd__a21oi_1
*I *696:B1 I *D sky130_fd_sc_hd__a211o_1
*I *678:Y O *D sky130_fd_sc_hd__nor2_1
*CAP
1 *681:B1 8.51214e-05
2 *696:B1 7.7193e-05
3 *678:Y 0.000176512
4 *83:10 0.000338827
5 *681:B1 *681:A2 1.73877e-05
6 *681:B1 *683:A 0.000175682
7 *681:B1 *88:12 5.68993e-05
8 *696:B1 *679:B1 2.65814e-06
9 *696:B1 *112:43 2.85515e-05
10 *696:B1 *204:41 1.44453e-06
11 *83:10 *679:B1 3.47517e-05
12 *83:10 *681:A2 0.000119762
13 *83:10 *203:75 8.65905e-05
14 *83:10 *203:85 0.00022786
15 *83:10 *204:41 5.17105e-05
16 *83:10 *204:52 8.93683e-05
17 *83:10 *204:61 4.66108e-05
18 *696:C1 *696:B1 2.04271e-05
19 *11:16 *696:B1 0.000118081
20 *11:16 *83:10 0.000126423
*RES
1 *678:Y *83:10 7 
2 *83:10 *696:B1 3.355 
3 *83:10 *681:B1 7.745 
*END

*D_NET *84 0.000943206
*CONN
*I *695:A1 I *D sky130_fd_sc_hd__a21o_1
*I *681:A1 I *D sky130_fd_sc_hd__a21oi_1
*I *679:X O *D sky130_fd_sc_hd__a211o_1
*CAP
1 *695:A1 4.91254e-05
2 *681:A1 0.000142406
3 *679:X 0
4 *84:6 0.000191531
5 *681:A1 *681:A2 2.23485e-05
6 *681:A1 *686:B 0
7 *681:A1 *690:A 0.000120856
8 *681:A1 *88:6 1.16578e-05
9 *681:A1 *113:12 0.000133164
10 *681:A1 *202:89 8.43474e-05
11 *681:A1 *203:75 8.7152e-06
12 *681:A1 *203:85 1.44526e-05
13 *695:A1 *700:A1 9.38244e-05
14 *695:A1 *113:27 5.19173e-05
15 *695:A1 *203:75 1.88602e-05
*RES
1 *679:X *84:6 3.6 
2 *84:6 *681:A1 7.245 
3 *84:6 *695:A1 4.98 
*END

*D_NET *85 0.000692532
*CONN
*I *681:A2 I *D sky130_fd_sc_hd__a21oi_1
*I *680:X O *D sky130_fd_sc_hd__a211o_1
*CAP
1 *681:A2 0.000103337
2 *680:X 0.000103337
3 *681:A2 *690:A 0
4 *681:A2 *88:12 0.000113527
5 *681:A2 *113:12 9.30717e-05
6 *681:A1 *681:A2 2.23485e-05
7 *681:B1 *681:A2 1.73877e-05
8 *11:16 *681:A2 0.000119762
9 *83:10 *681:A2 0.000119762
*RES
1 *680:X *681:A2 10.23 
*END

*D_NET *86 0.000954027
*CONN
*I *689:A1 I *D sky130_fd_sc_hd__o221a_1
*I *681:Y O *D sky130_fd_sc_hd__a21oi_1
*CAP
1 *689:A1 0.000207946
2 *681:Y 0.000207946
3 *689:A1 *679:C1 0.000133933
4 *689:A1 *683:A 0.000100429
5 *689:A1 *705:B1 5.44032e-05
6 *689:A1 *88:6 4.66108e-05
7 *689:A1 *202:89 1.47256e-05
8 *689:A1 *204:41 3.63701e-06
9 *696:C1 *689:A1 0.000112043
10 *748:D *689:A1 7.23533e-05
*RES
1 *681:Y *689:A1 11.415 
*END

*D_NET *87 0.00408549
*CONN
*I *696:A2 I *D sky130_fd_sc_hd__a211o_1
*I *684:B I *D sky130_fd_sc_hd__and3_1
*I *697:A1 I *D sky130_fd_sc_hd__a21oi_1
*I *682:Y O *D sky130_fd_sc_hd__nand2_1
*CAP
1 *696:A2 0.000127212
2 *684:B 0.000712165
3 *697:A1 0
4 *682:Y 0
5 *87:14 0.00104642
6 *87:6 0.000461465
7 *684:B *673:A 0
8 *684:B *673:B 0
9 *684:B *689:A2 4.80285e-05
10 *684:B *697:A2 5.05437e-05
11 *684:B *749:CLK 2.10673e-05
12 *684:B *205:66 0.000124895
13 *684:B *206:66 8.34281e-06
14 *696:A2 *682:B 5.23123e-05
15 *696:A2 *698:A3 6.33803e-05
16 *696:A2 *705:B1 4.92935e-05
17 *696:A2 *93:8 5.69898e-06
18 *696:A2 *112:43 0.000193288
19 *696:A2 *203:19 3.59531e-06
20 *696:A2 *203:63 1.9488e-05
21 *87:14 *673:A 0
22 *87:14 *682:B 3.12319e-05
23 *87:14 *689:C1 0.000199734
24 *87:14 *692:B2 1.2412e-05
25 *87:14 *697:A2 0
26 *87:14 *697:B1 0.000335163
27 *87:14 *698:A3 5.35078e-05
28 *87:14 *698:B1 0.000291358
29 *87:14 *698:C1 3.57924e-05
30 *87:14 *746:CLK 0
31 *87:14 *749:CLK 1.67553e-05
32 *749:D *684:B 0.000122337
33 *749:D *87:14 0
*RES
1 *682:Y *87:6 3.6 
2 *87:6 *87:14 10.4 
3 *87:14 *697:A1 1.6 
4 *87:14 *684:B 14.855 
5 *87:6 *696:A2 7.08 
*END

*D_NET *88 0.00295847
*CONN
*I *690:A I *D sky130_fd_sc_hd__nand2_1
*I *684:C I *D sky130_fd_sc_hd__and3_1
*I *704:C I *D sky130_fd_sc_hd__and3_1
*I *683:X O *D sky130_fd_sc_hd__or2_1
*CAP
1 *690:A 0.000100307
2 *684:C 0.000207128
3 *704:C 3.79806e-05
4 *683:X 5.62209e-05
5 *88:12 0.000588633
6 *88:6 0.000500053
7 *684:C *90:20 0.000220336
8 *684:C *206:70 1.46744e-05
9 *684:C *206:74 4.82919e-05
10 *690:A *678:A 0.000112349
11 *690:A *686:B 8.65905e-05
12 *690:A *95:10 8.53113e-06
13 *690:A *113:12 4.82863e-05
14 *690:A *202:89 1.12578e-05
15 *690:A *204:67 2.34345e-05
16 *704:C *206:74 5.49479e-05
17 *88:6 *202:89 5.67498e-05
18 *88:12 *679:B1 2.6502e-05
19 *88:12 *679:C1 2.82121e-05
20 *88:12 *683:A 4.46808e-07
21 *88:12 *691:B1 4.11194e-05
22 *88:12 *695:B1 1.88656e-05
23 *88:12 *700:A1 2.54692e-05
24 *88:12 *700:B1 7.4027e-05
25 *88:12 *705:B1 0
26 *88:12 *90:20 4.75576e-05
27 *88:12 *113:12 1.38676e-05
28 *88:12 *113:27 0.000109786
29 *88:12 *118:42 2.96553e-05
30 *88:12 *204:41 1.7635e-05
31 *681:A1 *690:A 0.000120856
32 *681:A1 *88:6 1.16578e-05
33 *681:A2 *690:A 0
34 *681:A2 *88:12 0.000113527
35 *681:B1 *88:12 5.68993e-05
36 *689:A1 *88:6 4.66108e-05
*RES
1 *683:X *88:6 2.74 
2 *88:6 *88:12 11.245 
3 *88:12 *704:C 2.11 
4 *88:12 *684:C 4.3675 
5 *88:6 *690:A 8.39 
*END

*D_NET *89 0.00192863
*CONN
*I *689:A2 I *D sky130_fd_sc_hd__o221a_1
*I *684:X O *D sky130_fd_sc_hd__and3_1
*CAP
1 *689:A2 0.000382438
2 *684:X 0.000382438
3 *689:A2 *673:B 7.09921e-05
4 *689:A2 *679:C1 0.000153482
5 *689:A2 *695:A2 8.40269e-05
6 *689:A2 *698:A2 0.000201508
7 *689:A2 *700:B1 0.000148258
8 *689:A2 *701:A 5.83121e-06
9 *689:A2 *704:B 0
10 *689:A2 *92:8 1.08758e-05
11 *689:A2 *95:10 0.000179015
12 *689:A2 *113:27 4.01778e-05
13 *689:A2 *205:66 1.23331e-05
14 *689:A2 *206:10 7.21296e-06
15 *689:A2 *206:12 9.96921e-05
16 *689:A2 *206:14 1.7396e-05
17 *689:A2 *206:66 8.49205e-05
18 *684:B *689:A2 4.80285e-05
*RES
1 *684:X *689:A2 17.475 
*END

*D_NET *90 0.00383168
*CONN
*I *705:A1 I *D sky130_fd_sc_hd__a221o_1
*I *698:A1 I *D sky130_fd_sc_hd__a311o_1
*I *697:B1 I *D sky130_fd_sc_hd__a21oi_1
*I *689:C1 I *D sky130_fd_sc_hd__o221a_1
*I *685:Y O *D sky130_fd_sc_hd__nand2_1
*CAP
1 *705:A1 0
2 *698:A1 0
3 *697:B1 0.00015078
4 *689:C1 0.00013017
5 *685:Y 0.000326491
6 *90:24 0.00028095
7 *90:22 0.000129783
8 *90:20 0.000456273
9 *689:C1 *682:A 3.65496e-05
10 *689:C1 *682:B 4.82863e-05
11 *689:C1 *689:B2 3.21081e-06
12 *689:C1 *692:B2 2.68721e-05
13 *689:C1 *698:A2 0.000316562
14 *697:B1 *692:B2 4.65565e-05
15 *697:B1 *746:CLK 0
16 *90:20 *684:A 9.53428e-06
17 *90:20 *691:A3 0.00023635
18 *90:20 *700:A1 4.82919e-05
19 *90:20 *700:C1 6.02123e-05
20 *90:20 *705:A2 9.34355e-05
21 *90:20 *705:B2 1.12643e-05
22 *90:20 *95:20 7.40446e-05
23 *90:20 *206:64 2.05056e-05
24 *90:20 *206:66 0.00020596
25 *90:20 *206:70 8.49205e-05
26 *90:22 *691:A3 4.99619e-05
27 *90:22 *698:A3 8.63479e-05
28 *90:22 *705:A2 2.99227e-05
29 *90:22 *706:B1 4.99619e-05
30 *90:22 *118:42 1.56936e-05
31 *684:C *90:20 0.000220336
32 *746:D *697:B1 0
33 *87:14 *689:C1 0.000199734
34 *87:14 *697:B1 0.000335163
35 *88:12 *90:20 4.75576e-05
*RES
1 *685:Y *90:20 13.97 
2 *90:20 *90:22 2.52 
3 *90:22 *90:24 2 
4 *90:24 *689:C1 7.845 
5 *90:24 *697:B1 7.53 
6 *90:22 *698:A1 1.6 
7 *90:20 *705:A1 1.6 
*END

*D_NET *91 0.000672596
*CONN
*I *690:B I *D sky130_fd_sc_hd__nand2_1
*I *686:Y O *D sky130_fd_sc_hd__nand2_1
*CAP
1 *690:B 8.65159e-05
2 *686:Y 8.65159e-05
3 *690:B *686:A 0.000198939
4 *690:B *686:B 4.21889e-05
5 *690:B *687:A 0.000160635
6 *690:B *112:18 9.78003e-05
7 *690:B *202:89 0
*RES
1 *686:Y *690:B 6.08 
*END

*D_NET *92 0.00153141
*CONN
*I *694:B I *D sky130_fd_sc_hd__or3b_1
*I *700:B1 I *D sky130_fd_sc_hd__a2111oi_1
*I *687:Y O *D sky130_fd_sc_hd__nor2_1
*CAP
1 *694:B 0
2 *700:B1 0.000228925
3 *687:Y 0.000152594
4 *92:8 0.000381519
5 *700:B1 *700:A1 2.97438e-05
6 *92:8 *687:A 2.45351e-05
7 *92:8 *687:B 2.75229e-05
8 *92:8 *694:A 0.000234674
9 *92:8 *701:A 9.80943e-06
10 *92:8 *701:B 0.00015896
11 *92:8 *702:C1 4.99619e-05
12 *689:A2 *700:B1 0.000148258
13 *689:A2 *92:8 1.08758e-05
14 *88:12 *700:B1 7.4027e-05
*RES
1 *687:Y *92:8 5.515 
2 *92:8 *700:B1 8.99 
3 *92:8 *694:B 1.6 
*END

*D_NET *93 0.00194043
*CONN
*I *697:A2 I *D sky130_fd_sc_hd__a21oi_1
*I *689:B1 I *D sky130_fd_sc_hd__o221a_1
*I *688:X O *D sky130_fd_sc_hd__or2_1
*CAP
1 *697:A2 0.000269892
2 *689:B1 1.17375e-05
3 *688:X 0.000170751
4 *93:8 0.00045238
5 *689:B1 *682:A 4.82919e-05
6 *689:B1 *698:A2 2.75229e-05
7 *697:A2 *673:A 7.45794e-05
8 *697:A2 *691:A3 0.000120186
9 *697:A2 *698:A3 0.000168253
10 *697:A2 *698:B1 7.55136e-05
11 *697:A2 *698:C1 1.26626e-05
12 *697:A2 *705:B1 7.73372e-05
13 *697:A2 *705:B2 0
14 *697:A2 *706:B1 4.75576e-05
15 *697:A2 *749:CLK 8.65905e-05
16 *93:8 *698:A3 0.000155579
17 *93:8 *705:B1 3.83305e-05
18 *93:8 *112:37 4.70241e-05
19 *93:8 *203:19 0
20 *684:B *697:A2 5.05437e-05
21 *696:A2 *93:8 5.69898e-06
22 *696:C1 *93:8 0
23 *87:14 *697:A2 0
*RES
1 *688:X *93:8 7.02 
2 *93:8 *689:B1 4.05 
3 *93:8 *697:A2 10.875 
*END

*D_NET *94 0.00336322
*CONN
*I *692:B1 I *D sky130_fd_sc_hd__o22a_1
*I *689:X O *D sky130_fd_sc_hd__o221a_1
*CAP
1 *692:B1 0.001258
2 *689:X 0.001258
3 *692:B1 *635:A 1.56428e-05
4 *692:B1 *692:B2 0.000221488
5 *692:B1 *698:A2 0.000495107
6 *692:B1 *784:CLK 1.83847e-05
7 *784:D *692:B1 9.66021e-05
*RES
1 *689:X *692:B1 19.355 
*END

*D_NET *95 0.00358124
*CONN
*I *702:A2 I *D sky130_fd_sc_hd__a211o_1
*I *700:A2 I *D sky130_fd_sc_hd__a2111oi_1
*I *691:A3 I *D sky130_fd_sc_hd__a31o_1
*I *690:Y O *D sky130_fd_sc_hd__nand2_1
*CAP
1 *702:A2 7.88382e-05
2 *700:A2 0
3 *691:A3 0.000250975
4 *690:Y 0.000254926
5 *95:20 0.000459674
6 *95:10 0.000542462
7 *691:A3 *691:B1 0
8 *691:A3 *705:B2 0
9 *702:A2 *702:A1 4.82919e-05
10 *702:A2 *702:B1 0.000344459
11 *702:A2 *705:A2 0.000118229
12 *702:A2 *853:A 8.65905e-05
13 *95:10 *679:C1 8.25609e-05
14 *95:10 *700:A1 4.00565e-05
15 *95:10 *701:A 0.000128346
16 *95:10 *203:75 2.53191e-06
17 *95:10 *203:85 4.9968e-05
18 *95:10 *204:67 0.000155227
19 *95:10 *205:66 3.9442e-05
20 *95:10 *206:14 0
21 *95:10 *206:18 1.01661e-05
22 *95:20 *700:A1 4.85795e-05
23 *95:20 *700:C1 2.42043e-05
24 *95:20 *702:B1 8.49205e-05
25 *95:20 *705:A2 6.27029e-05
26 *689:A2 *95:10 0.000179015
27 *690:A *95:10 8.53113e-06
28 *697:A2 *691:A3 0.000120186
29 *90:20 *691:A3 0.00023635
30 *90:20 *95:20 7.40446e-05
31 *90:22 *691:A3 4.99619e-05
*RES
1 *690:Y *95:10 11.57 
2 *95:10 *95:20 3.795 
3 *95:20 *691:A3 9.5 
4 *95:20 *700:A2 1.6 
5 *95:10 *702:A2 4.81 
*END

*D_NET *96 0.00327293
*CONN
*I *692:B2 I *D sky130_fd_sc_hd__o22a_1
*I *691:X O *D sky130_fd_sc_hd__a31o_1
*CAP
1 *692:B2 0.00113484
2 *691:X 0.00113484
3 *692:B2 *635:A 4.66108e-05
4 *692:B2 *682:B 1.09931e-05
5 *692:B2 *695:B1 4.01548e-05
6 *692:B2 *698:A2 0.000159269
7 *692:B2 *699:A1 0
8 *692:B2 *706:B1 0.000192125
9 *692:B2 *784:CLK 4.99619e-05
10 *692:B2 *784:RESET_B 5.08304e-06
11 *692:B2 *204:8 8.53113e-06
12 *689:C1 *692:B2 2.68721e-05
13 *692:B1 *692:B2 0.000221488
14 *697:B1 *692:B2 4.65565e-05
15 *745:D *692:B2 8.65905e-05
16 *746:D *692:B2 0
17 *784:D *692:B2 9.66021e-05
18 *87:14 *692:B2 1.2412e-05
*RES
1 *691:X *692:B2 25.185 
*END

*D_NET *97 0.00285195
*CONN
*I *695:B1 I *D sky130_fd_sc_hd__a21o_1
*I *741:A3 I *D sky130_fd_sc_hd__a31o_1
*I *693:X O *D sky130_fd_sc_hd__and2_1
*CAP
1 *695:B1 0.000643719
2 *741:A3 0.000359315
3 *693:X 0
4 *97:6 0.00100303
5 *695:B1 *700:A1 6.16226e-06
6 *695:B1 *784:RESET_B 5.17198e-05
7 *695:B1 *203:69 0.000225209
8 *695:B1 *204:8 2.86817e-05
9 *695:B1 *204:14 1.52329e-05
10 *741:A3 *703:A2 7.23602e-05
11 *741:A3 *740:B1 9.21735e-05
12 *741:A3 *741:B1 1.23392e-05
13 *741:A3 *784:RESET_B 4.43871e-06
14 *741:A3 *112:43 0.000160635
15 *741:A3 *136:83 6.10014e-05
16 *741:A3 *204:14 2.68721e-05
17 *692:B2 *695:B1 4.01548e-05
18 *784:D *741:A3 3.00381e-05
19 *88:12 *695:B1 1.88656e-05
*RES
1 *693:X *97:6 3.6 
2 *97:6 *741:A3 9.495 
3 *97:6 *695:B1 7.1718 
*END

*D_NET *98 0.000259389
*CONN
*I *695:A2 I *D sky130_fd_sc_hd__a21o_1
*I *694:X O *D sky130_fd_sc_hd__or3b_1
*CAP
1 *695:A2 6.43755e-05
2 *694:X 6.43755e-05
3 *695:A2 *679:C1 4.66108e-05
4 *689:A2 *695:A2 8.40269e-05
*RES
1 *694:X *695:A2 4.61 
*END

*D_NET *99 0.00158381
*CONN
*I *698:A2 I *D sky130_fd_sc_hd__a311o_1
*I *695:X O *D sky130_fd_sc_hd__a21o_1
*CAP
1 *698:A2 0.000175822
2 *695:X 0.000175822
3 *698:A2 *682:A 2.4526e-05
4 *698:A2 *113:27 7.67415e-06
5 *689:A2 *698:A2 0.000201508
6 *689:B1 *698:A2 2.75229e-05
7 *689:C1 *698:A2 0.000316562
8 *692:B1 *698:A2 0.000495107
9 *692:B2 *698:A2 0.000159269
*RES
1 *695:X *698:A2 14.025 
*END

*D_NET *100 0.0012569
*CONN
*I *698:A3 I *D sky130_fd_sc_hd__a311o_1
*I *696:X O *D sky130_fd_sc_hd__a211o_1
*CAP
1 *698:A3 0.000271497
2 *696:X 0.000271497
3 *698:A3 *698:C1 5.23362e-05
4 *698:A3 *699:A2 0
5 *698:A3 *699:B1 4.00541e-06
6 *698:A3 *118:25 0.000105508
7 *698:A3 *118:42 2.49909e-05
8 *696:A2 *698:A3 6.33803e-05
9 *697:A2 *698:A3 0.000168253
10 *87:14 *698:A3 5.35078e-05
11 *90:22 *698:A3 8.63479e-05
12 *93:8 *698:A3 0.000155579
*RES
1 *696:X *698:A3 13.665 
*END

*D_NET *101 0.000862624
*CONN
*I *698:B1 I *D sky130_fd_sc_hd__a311o_1
*I *697:Y O *D sky130_fd_sc_hd__a21oi_1
*CAP
1 *698:B1 0.000159559
2 *697:Y 0.000159559
3 *698:B1 *698:C1 9.50342e-06
4 *698:B1 *706:B1 9.30717e-05
5 *698:B1 *749:CLK 7.40581e-05
6 *697:A2 *698:B1 7.55136e-05
7 *87:14 *698:B1 0.000291358
*RES
1 *697:Y *698:B1 11.415 
*END

*D_NET *102 0.0001301
*CONN
*I *699:B1 I *D sky130_fd_sc_hd__o21ai_1
*I *698:X O *D sky130_fd_sc_hd__a311o_1
*CAP
1 *699:B1 3.12709e-05
2 *698:X 3.12709e-05
3 *699:B1 *118:25 5.94962e-05
4 *698:A3 *699:B1 4.00541e-06
5 *746:D *699:B1 4.05674e-06
*RES
1 *698:X *699:B1 4.01 
*END

*D_NET *103 0.00107118
*CONN
*I *702:B1 I *D sky130_fd_sc_hd__a211o_1
*I *700:Y O *D sky130_fd_sc_hd__a2111oi_1
*CAP
1 *702:B1 0.000306675
2 *700:Y 0.000306675
3 *702:B1 *702:A1 2.84447e-05
4 *702:A2 *702:B1 0.000344459
5 *95:20 *702:B1 8.49205e-05
*RES
1 *700:Y *702:B1 8.495 
*END

*D_NET *104 0.000475782
*CONN
*I *702:C1 I *D sky130_fd_sc_hd__a211o_1
*I *701:X O *D sky130_fd_sc_hd__and3_1
*CAP
1 *702:C1 0.000199581
2 *701:X 0.000199581
3 *702:C1 *687:A 2.66586e-05
4 *702:C1 *205:84 0
5 *92:8 *702:C1 4.99619e-05
*RES
1 *701:X *702:C1 9.975 
*END

*D_NET *105 0.00171151
*CONN
*I *705:A2 I *D sky130_fd_sc_hd__a221o_1
*I *702:X O *D sky130_fd_sc_hd__a211o_1
*CAP
1 *705:A2 0.000295779
2 *702:X 0.000295779
3 *705:A2 *700:A1 4.35432e-05
4 *705:A2 *700:C1 8.57024e-05
5 *705:A2 *700:D1 8.49205e-05
6 *705:A2 *705:B2 7.25921e-06
7 *705:A2 *853:A 4.99619e-05
8 *705:A2 *118:42 0.000199819
9 *705:A2 *205:34 0.000344459
10 *702:A2 *705:A2 0.000118229
11 *90:20 *705:A2 9.34355e-05
12 *90:22 *705:A2 2.99227e-05
13 *95:20 *705:A2 6.27029e-05
*RES
1 *702:X *705:A2 11.6337 
*END

*D_NET *106 0.000969072
*CONN
*I *705:B1 I *D sky130_fd_sc_hd__a221o_1
*I *703:X O *D sky130_fd_sc_hd__a21o_1
*CAP
1 *705:B1 0.000336694
2 *703:X 0.000336694
3 *705:B1 *705:B2 5.53249e-06
4 *705:B1 *112:37 2.75145e-05
5 *705:B1 *112:43 9.27255e-06
6 *705:B1 *118:42 2.54692e-05
7 *689:A1 *705:B1 5.44032e-05
8 *696:A2 *705:B1 4.92935e-05
9 *696:C1 *705:B1 8.53113e-06
10 *697:A2 *705:B1 7.73372e-05
11 *88:12 *705:B1 0
12 *93:8 *705:B1 3.83305e-05
*RES
1 *703:X *705:B1 12.705 
*END

*D_NET *107 0.000393462
*CONN
*I *705:B2 I *D sky130_fd_sc_hd__a221o_1
*I *704:X O *D sky130_fd_sc_hd__and3_1
*CAP
1 *705:B2 0.000105336
2 *704:X 0.000105336
3 *705:B2 *691:B1 0.000103592
4 *705:B2 *118:42 8.53113e-06
5 *705:B2 *206:74 4.66108e-05
6 *691:A3 *705:B2 0
7 *697:A2 *705:B2 0
8 *705:A2 *705:B2 7.25921e-06
9 *705:B1 *705:B2 5.53249e-06
10 *90:20 *705:B2 1.12643e-05
*RES
1 *704:X *705:B2 9.13875 
*END

*D_NET *108 0.00200885
*CONN
*I *706:B1 I *D sky130_fd_sc_hd__o21a_1
*I *705:X O *D sky130_fd_sc_hd__a221o_1
*CAP
1 *706:B1 0.000645779
2 *705:X 0.000645779
3 *706:B1 *706:A1 0.000300012
4 *706:B1 *706:A2 3.45679e-05
5 *692:B2 *706:B1 0.000192125
6 *697:A2 *706:B1 4.75576e-05
7 *698:B1 *706:B1 9.30717e-05
8 *90:22 *706:B1 4.99619e-05
*RES
1 *705:X *706:B1 18.555 
*END

*D_NET *109 0.00116038
*CONN
*I *739:B I *D sky130_fd_sc_hd__xnor2_1
*I *738:A I *D sky130_fd_sc_hd__and2_1
*I *736:Y O *D sky130_fd_sc_hd__nand2_1
*CAP
1 *739:B 0
2 *738:A 2.61107e-05
3 *736:Y 0.00016502
4 *109:14 0.00019113
5 *738:A *737:A 9.91257e-05
6 *738:A *117:34 0.000162311
7 *109:14 *737:A 0.000183289
8 *109:14 *739:A 1.70935e-05
9 *109:14 *748:CLK 2.30292e-05
10 *109:14 *782:CLK 0.000120655
11 *109:14 *782:RESET_B 2.29156e-05
12 *109:14 *117:34 4.82863e-05
13 *109:14 *126:16 8.08153e-06
14 *109:14 *126:18 9.3062e-06
15 *109:14 *202:23 8.40213e-05
*RES
1 *736:Y *109:14 9.77 
2 *109:14 *738:A 3.085 
3 *109:14 *739:B 1.6 
*END

*D_NET *110 0.000498795
*CONN
*I *738:B I *D sky130_fd_sc_hd__and2_1
*I *737:X O *D sky130_fd_sc_hd__or2_1
*CAP
1 *738:B 3.08272e-05
2 *737:X 3.08272e-05
3 *738:B *737:A 0.000241483
4 *738:B *117:19 0.00012657
5 *738:B *117:34 6.90876e-05
*RES
1 *737:X *738:B 5.375 
*END

*D_NET *111 0.000198148
*CONN
*I *741:B1 I *D sky130_fd_sc_hd__a31o_1
*I *740:Y O *D sky130_fd_sc_hd__a31oi_1
*CAP
1 *741:B1 5.64088e-05
2 *740:Y 5.64088e-05
3 *741:B1 *740:A1 4.99619e-05
4 *741:B1 *740:B1 2.30292e-05
5 *741:B1 *745:CLK 0
6 *741:A3 *741:B1 1.23392e-05
*RES
1 *740:Y *741:B1 4.355 
*END

*D_NET *112 0.00616091
*CONN
*I *687:A I *D sky130_fd_sc_hd__nor2_1
*I *696:A1 I *D sky130_fd_sc_hd__a211o_1
*I *693:A I *D sky130_fd_sc_hd__and2_1
*I *740:B1 I *D sky130_fd_sc_hd__a31oi_1
*I *688:A I *D sky130_fd_sc_hd__or2_1
*I *628:Y O *D sky130_fd_sc_hd__inv_2
*CAP
1 *687:A 0.000388586
2 *696:A1 0
3 *693:A 0
4 *740:B1 9.88268e-05
5 *688:A 0.000138679
6 *628:Y 0
7 *112:43 0.000374136
8 *112:37 0.000408016
9 *112:18 0.000711222
10 *112:4 0.000828423
11 *687:A *687:B 4.82919e-05
12 *687:A *694:A 2.49909e-05
13 *687:A *136:53 0.000199567
14 *687:A *205:10 0.00022448
15 *687:A *205:19 0.000150453
16 *688:A *688:B 0
17 *688:A *202:70 8.8266e-05
18 *740:B1 *740:A1 4.99619e-05
19 *740:B1 *203:34 0.000468744
20 *112:18 *683:A 8.65961e-05
21 *112:18 *686:B 7.5583e-05
22 *112:18 *703:A2 0
23 *112:18 *202:89 0.000271015
24 *112:37 *688:B 0
25 *112:37 *203:19 0
26 *112:43 *703:B1 3.74161e-05
27 *112:43 *203:25 0.000213267
28 *112:43 *203:34 2.59835e-05
29 *690:B *687:A 0.000160635
30 *690:B *112:18 9.78003e-05
31 *696:A2 *112:43 0.000193288
32 *696:B1 *112:43 2.85515e-05
33 *696:C1 *112:37 6.27098e-05
34 *701:C *687:A 5.28255e-05
35 *702:C1 *687:A 2.66586e-05
36 *705:B1 *112:37 2.75145e-05
37 *705:B1 *112:43 9.27255e-06
38 *741:A3 *740:B1 9.21735e-05
39 *741:A3 *112:43 0.000160635
40 *741:B1 *740:B1 2.30292e-05
41 *748:D *112:18 4.10092e-05
42 *748:D *112:37 0.000152452
43 *784:D *740:B1 4.82919e-05
44 *92:8 *687:A 2.45351e-05
45 *93:8 *112:37 4.70241e-05
*RES
1 *628:Y *112:4 1.6 
2 *112:4 *112:18 9.0425 
3 *112:18 *688:A 5.7675 
4 *112:18 *112:37 4.9775 
5 *112:37 *112:43 6.165 
6 *112:43 *740:B1 5.845 
7 *112:43 *693:A 1.6 
8 *112:37 *696:A1 1.6 
9 *112:4 *687:A 14.06 
*END

*D_NET *113 0.00295291
*CONN
*I *678:A I *D sky130_fd_sc_hd__nor2_1
*I *689:B2 I *D sky130_fd_sc_hd__o221a_1
*I *682:A I *D sky130_fd_sc_hd__nand2_1
*I *679:A2 I *D sky130_fd_sc_hd__a211o_1
*I *629:Y O *D sky130_fd_sc_hd__inv_2
*CAP
1 *678:A 0.000250348
2 *689:B2 1.5211e-05
3 *682:A 9.63384e-05
4 *679:A2 0
5 *629:Y 0
6 *113:27 0.00041329
7 *113:12 0.000422096
8 *113:4 0.000370703
9 *678:A *680:C1 9.50342e-06
10 *678:A *686:B 0.000161266
11 *678:A *136:53 0.000157602
12 *678:A *204:67 7.21296e-06
13 *682:A *682:B 1.10085e-05
14 *113:27 *679:C1 0.00015896
15 *681:A1 *113:12 0.000133164
16 *681:A2 *113:12 9.30717e-05
17 *689:A2 *113:27 4.01778e-05
18 *689:B1 *682:A 4.82919e-05
19 *689:C1 *682:A 3.65496e-05
20 *689:C1 *689:B2 3.21081e-06
21 *690:A *678:A 0.000112349
22 *690:A *113:12 4.82863e-05
23 *695:A1 *113:27 5.19173e-05
24 *698:A2 *682:A 2.4526e-05
25 *698:A2 *113:27 7.67415e-06
26 *11:10 *678:A 0.000123368
27 *11:42 *678:A 3.31282e-05
28 *88:12 *113:12 1.38676e-05
29 *88:12 *113:27 0.000109786
*RES
1 *629:Y *113:4 1.6 
2 *113:4 *113:12 4.535 
3 *113:12 *679:A2 3.6 
4 *113:12 *113:27 6.605 
5 *113:27 *682:A 3.445 
6 *113:27 *689:B2 1.96 
7 *113:4 *678:A 10.82 
*END

*D_NET *114 0.000597278
*CONN
*I *796:A I *D sky130_fd_sc_hd__clkbuf_2
*I *631:Y O *D sky130_fd_sc_hd__inv_2
*CAP
1 *796:A 0.00027811
2 *631:Y 0.00027811
3 *796:A *131:21 4.10576e-05
*RES
1 *631:Y *796:A 7.1 
*END

*D_NET *115 0.0182252
*CONN
*I *699:A1 I *D sky130_fd_sc_hd__o21ai_1
*I *654:A1 I *D sky130_fd_sc_hd__o211ai_1
*I *638:A1 I *D sky130_fd_sc_hd__o211ai_1
*I *637:B2 I *D sky130_fd_sc_hd__a2bb2o_1
*I *653:B2 I *D sky130_fd_sc_hd__a2bb2o_1
*I *641:B2 I *D sky130_fd_sc_hd__a2bb2o_1
*I *642:A1 I *D sky130_fd_sc_hd__o211ai_1
*I *659:A2 I *D sky130_fd_sc_hd__a221o_1
*I *658:B2 I *D sky130_fd_sc_hd__o22ai_1
*I *632:Y O *D sky130_fd_sc_hd__inv_2
*CAP
1 *699:A1 0.000764894
2 *654:A1 0.000810404
3 *638:A1 0.000231398
4 *637:B2 6.25631e-05
5 *653:B2 1.16927e-05
6 *641:B2 0
7 *642:A1 0.000223038
8 *659:A2 0.000240539
9 *658:B2 0.000569615
10 *632:Y 0
11 *115:99 0.00120945
12 *115:93 0.00196742
13 *115:80 0.000639478
14 *115:41 0.000810946
15 *115:18 0.00175281
16 *115:6 0.00131876
17 *115:4 0.000861577
18 *638:A1 *639:A2 0.000158297
19 *638:A1 *639:C1 0.000356326
20 *638:A1 *754:CLK 2.75229e-05
21 *638:A1 *132:49 0.000185411
22 *638:A1 *135:102 1.82667e-05
23 *638:A1 *217:19 3.26889e-05
24 *642:A1 *642:B1 1.19206e-05
25 *642:A1 *798:A 4.77719e-05
26 *642:A1 *138:33 8.30853e-06
27 *642:A1 *211:24 0.000328399
28 *653:B2 *653:A2_N 4.66108e-05
29 *654:A1 *654:A2 2.16389e-05
30 *654:A1 *662:A 0.000153482
31 *654:A1 *663:A1 0.000421068
32 *654:A1 *735:A1 3.18137e-05
33 *654:A1 *780:D 0.000141599
34 *654:A1 *132:22 2.7881e-05
35 *654:A1 *197:94 0
36 *654:A1 *199:67 4.21973e-05
37 *654:A1 *223:10 0
38 *658:B2 *643:A2 0
39 *658:B2 *658:A1 8.07175e-05
40 *658:B2 *658:A2 9.7938e-05
41 *658:B2 *666:A 0.00031916
42 *658:B2 *667:A2 0
43 *658:B2 *731:A1 0
44 *658:B2 *766:RESET_B 0
45 *658:B2 *134:36 4.43871e-06
46 *658:B2 *199:16 7.30547e-05
47 *658:B2 *210:10 0
48 *658:B2 *211:12 0.000116853
49 *659:A2 *659:A1 0.000104041
50 *659:A2 *720:A0 2.20014e-05
51 *659:A2 *720:A1 4.89295e-05
52 *659:A2 *720:S 5.6983e-05
53 *699:A1 *699:A2 8.65961e-05
54 *699:A1 *706:A1 6.55406e-05
55 *699:A1 *747:RESET_B 0
56 *699:A1 *797:A 0.000363653
57 *699:A1 *118:25 5.30673e-05
58 *699:A1 *126:82 0
59 *699:A1 *199:44 0
60 *699:A1 *199:57 0
61 *115:6 *632:A 2.75145e-05
62 *115:18 *641:A1_N 4.21973e-05
63 *115:18 *641:A2_N 8.65905e-05
64 *115:18 *716:A0 8.8266e-05
65 *115:41 *720:A0 2.42043e-05
66 *115:41 *720:A1 7.20899e-05
67 *115:41 *211:14 8.63479e-05
68 *115:41 *211:24 0.000122714
69 *115:80 *789:A 0
70 *115:80 *790:A 0
71 *115:80 *127:14 7.71367e-05
72 *115:80 *127:20 3.31282e-05
73 *115:80 *131:57 0.000124768
74 *115:80 *138:81 7.70758e-05
75 *115:80 *199:57 0.000139058
76 *115:93 *750:RESET_B 0
77 *115:93 *127:10 0.000129047
78 *115:93 *127:12 0.000128346
79 *115:93 *127:14 4.9968e-05
80 *115:93 *127:80 0
81 *115:93 *131:57 1.01661e-05
82 *115:93 *137:45 0
83 *115:93 *199:57 3.84331e-05
84 *115:99 *647:A2 0.000104175
85 *115:99 *130:97 2.59926e-05
86 *115:99 *199:67 0.000155444
87 *115:99 *216:14 0.00022333
88 *643:B1 *115:18 0.000237249
89 *643:B1 *115:41 4.82863e-05
90 *647:B1 *115:99 0.000423637
91 *654:C1 *654:A1 3.09233e-05
92 *655:C1 *653:B2 4.82863e-05
93 *655:C1 *654:A1 0
94 *660:B1 *658:B2 5.83121e-06
95 *668:B1 *658:B2 3.35338e-05
96 *669:C *115:18 0.000278117
97 *692:B2 *699:A1 0
98 *746:D *699:A1 9.41173e-05
99 *760:D *115:18 6.23651e-05
100 *786:A *638:A1 6.81315e-05
*RES
1 *632:Y *115:4 1.6 
2 *115:4 *115:6 1.14 
3 *115:6 *115:18 15.195 
4 *115:18 *658:B2 17.105 
5 *115:18 *115:41 5.4 
6 *115:41 *659:A2 5.7025 
7 *115:41 *642:A1 10.28 
8 *115:18 *641:B2 1.6 
9 *115:6 *115:80 9.95 
10 *115:80 *653:B2 4.05 
11 *115:80 *115:93 6.95 
12 *115:93 *115:99 12.645 
13 *115:99 *637:B2 2.395 
14 *115:99 *638:A1 12.32 
15 *115:93 *654:A1 18.065 
16 *115:4 *699:A1 18.38 
*END

*D_NET *116 0.00135734
*CONN
*I *659:C1 I *D sky130_fd_sc_hd__a221o_1
*I *633:Y O *D sky130_fd_sc_hd__inv_2
*CAP
1 *659:C1 0.000494229
2 *633:Y 0.000494229
3 *659:C1 *633:A 7.00889e-06
4 *659:C1 *642:B1 0
5 *659:C1 *659:A1 0
6 *659:C1 *667:B1 7.23533e-05
7 *659:C1 *727:A1 0
8 *659:C1 *133:20 0
9 *659:C1 *133:22 0
10 *659:C1 *172:41 4.19513e-05
11 *771:D *659:C1 0.000247567
*RES
1 *633:Y *659:C1 15.96 
*END

*D_NET *117 0.00665377
*CONN
*I *635:A I *D sky130_fd_sc_hd__inv_2
*I *706:A2 I *D sky130_fd_sc_hd__o21a_1
*I *699:A2 I *D sky130_fd_sc_hd__o21ai_1
*I *740:A3 I *D sky130_fd_sc_hd__a31oi_1
*I *741:A2 I *D sky130_fd_sc_hd__a31o_1
*I *736:B I *D sky130_fd_sc_hd__nand2_1
*I *692:A2 I *D sky130_fd_sc_hd__o22a_1
*I *737:B I *D sky130_fd_sc_hd__or2_1
*I *634:X O *D sky130_fd_sc_hd__or2_2
*CAP
1 *635:A 1.83028e-05
2 *706:A2 0.000168799
3 *699:A2 0.000347714
4 *740:A3 0
5 *741:A2 0.000170834
6 *736:B 9.85554e-05
7 *692:A2 0.0002423
8 *737:B 0.000163872
9 *634:X 0
10 *117:79 0.00067695
11 *117:75 0.000263987
12 *117:66 0.000168663
13 *117:38 0.000363846
14 *117:34 0.000435634
15 *117:19 0.000648679
16 *117:4 0.000312488
17 *692:A2 *634:B 0
18 *692:A2 *674:A 0
19 *692:A2 *725:A1 0.000187766
20 *692:A2 *739:A 0
21 *692:A2 *192:10 3.25831e-05
22 *699:A2 *671:B1 4.82919e-05
23 *699:A2 *118:25 0.000216009
24 *706:A2 *789:A 0
25 *706:A2 *126:71 5.42646e-05
26 *706:A2 *126:82 0
27 *736:B *126:16 1.22676e-05
28 *736:B *126:18 1.73877e-05
29 *736:B *202:31 6.10014e-05
30 *736:B *202:35 2.75707e-05
31 *737:B *634:A 7.60965e-05
32 *741:A2 *136:83 0
33 *741:A2 *202:31 4.43682e-05
34 *741:A2 *202:35 0.000164686
35 *741:A2 *202:55 1.83847e-05
36 *117:19 *634:A 0.00016063
37 *117:19 *674:A 0.000187381
38 *117:19 *737:A 4.60584e-05
39 *117:34 *737:A 3.94338e-05
40 *117:66 *739:A 0
41 *117:66 *126:14 4.38051e-05
42 *117:66 *126:16 0.000118527
43 *117:75 *739:A 0
44 *117:75 *126:14 0.000157595
45 *117:79 *789:A 0
46 *117:79 *118:10 0.000117825
47 *117:79 *126:10 1.61461e-05
48 *117:79 *126:71 2.54606e-05
49 *692:B1 *635:A 1.56428e-05
50 *692:B2 *635:A 4.66108e-05
51 *698:A3 *699:A2 0
52 *699:A1 *699:A2 8.65961e-05
53 *706:B1 *706:A2 3.45679e-05
54 *738:A *117:34 0.000162311
55 *738:B *117:19 0.00012657
56 *738:B *117:34 6.90876e-05
57 *745:D *692:A2 0
58 *746:D *699:A2 1.16578e-05
59 *783:D *117:38 9.2741e-05
60 *784:D *741:A2 5.53249e-06
61 *109:14 *117:34 4.82863e-05
*RES
1 *634:X *117:4 1.6 
2 *117:4 *737:B 4.15 
3 *117:4 *117:19 4.86 
4 *117:19 *692:A2 9.785 
5 *117:19 *117:34 4.605 
6 *117:34 *117:38 1.845 
7 *117:38 *736:B 7.745 
8 *117:38 *741:A2 8.975 
9 *117:34 *117:66 3.89 
10 *117:66 *740:A3 3.6 
11 *117:66 *117:75 1.89 
12 *117:75 *117:79 3.105 
13 *117:79 *699:A2 9.93 
14 *117:79 *706:A2 6.54 
15 *117:75 *635:A 4.05 
*END

*D_NET *118 0.00437958
*CONN
*I *691:B1 I *D sky130_fd_sc_hd__a31o_1
*I *705:C1 I *D sky130_fd_sc_hd__a221o_1
*I *698:C1 I *D sky130_fd_sc_hd__a311o_1
*I *671:B1 I *D sky130_fd_sc_hd__a21oi_1
*I *635:Y O *D sky130_fd_sc_hd__inv_2
*CAP
1 *691:B1 0.000100163
2 *705:C1 0
3 *698:C1 2.30692e-05
4 *671:B1 0.00033996
5 *635:Y 4.37816e-05
6 *118:42 0.000347965
7 *118:25 0.000804082
8 *118:10 0.000916952
9 *671:B1 *850:A 8.8266e-05
10 *671:B1 *192:10 9.93004e-05
11 *691:B1 *691:A2 5.05437e-05
12 *691:B1 *206:74 8.65905e-05
13 *118:10 *126:10 5.13155e-05
14 *118:10 *126:71 1.1561e-05
15 *118:25 *126:8 0.000239813
16 *691:A3 *691:B1 0
17 *697:A2 *698:C1 1.26626e-05
18 *698:A3 *698:C1 5.23362e-05
19 *698:A3 *118:25 0.000105508
20 *698:A3 *118:42 2.49909e-05
21 *698:B1 *698:C1 9.50342e-06
22 *699:A1 *118:25 5.30673e-05
23 *699:A2 *671:B1 4.82919e-05
24 *699:A2 *118:25 0.000216009
25 *699:B1 *118:25 5.94962e-05
26 *705:A2 *118:42 0.000199819
27 *705:B1 *118:42 2.54692e-05
28 *705:B2 *691:B1 0.000103592
29 *705:B2 *118:42 8.53113e-06
30 *746:D *118:25 1.68507e-05
31 *87:14 *698:C1 3.57924e-05
32 *88:12 *691:B1 4.11194e-05
33 *88:12 *118:42 2.96553e-05
34 *90:22 *118:42 1.56936e-05
35 *117:79 *118:10 0.000117825
*RES
1 *635:Y *118:10 6.98 
2 *118:10 *671:B1 7.84 
3 *118:10 *118:25 9.54 
4 *118:25 *698:C1 6.47 
5 *118:25 *118:42 5.735 
6 *118:42 *705:C1 3.6 
7 *118:42 *691:B1 6.285 
*END

*D_NET *119 0.00432909
*CONN
*I *638:C1 I *D sky130_fd_sc_hd__o211ai_1
*I *636:Y O *D sky130_fd_sc_hd__xnor2_1
*CAP
1 *638:C1 0.00141982
2 *636:Y 0.00141982
3 *638:C1 *636:B 3.58592e-05
4 *638:C1 *638:B1 0.00021917
5 *638:C1 *732:A0 0
6 *638:C1 *732:A1 0
7 *638:C1 *733:S 0.000135652
8 *638:C1 *755:CLK 0.000580633
9 *638:C1 *196:79 0.000237249
10 *638:C1 *221:6 1.40383e-05
11 *638:C1 *221:21 8.73389e-06
12 *755:D *638:C1 0.000123225
13 *778:D *638:C1 4.82863e-05
14 *809:A *638:C1 8.65961e-05
*RES
1 *636:Y *638:C1 27.675 
*END

*D_NET *120 0.000671796
*CONN
*I *639:B1 I *D sky130_fd_sc_hd__a211o_1
*I *637:X O *D sky130_fd_sc_hd__a2bb2o_1
*CAP
1 *639:B1 0.000144213
2 *637:X 0.000144213
3 *639:B1 *639:A1 0.000227732
4 *639:B1 *639:A2 7.44012e-05
5 *639:B1 *756:RESET_B 3.68682e-05
6 *639:B1 *805:A 4.43682e-05
*RES
1 *637:X *639:B1 10.86 
*END

*D_NET *121 0.00126385
*CONN
*I *639:C1 I *D sky130_fd_sc_hd__a211o_1
*I *638:Y O *D sky130_fd_sc_hd__o211ai_1
*CAP
1 *639:C1 0.000232284
2 *638:Y 0.000232284
3 *639:C1 *754:CLK 8.34281e-06
4 *639:C1 *217:19 0.000124895
5 *638:A1 *639:C1 0.000356326
6 *786:A *639:C1 0.000309715
*RES
1 *638:Y *639:C1 12.705 
*END

*D_NET *122 0.00117621
*CONN
*I *670:A I *D sky130_fd_sc_hd__and4_1
*I *639:X O *D sky130_fd_sc_hd__a211o_1
*CAP
1 *670:A 0.000289377
2 *639:X 0.000289377
3 *670:A *637:B1 0
4 *670:A *650:B1 0.000121437
5 *650:C1 *670:A 0.000476017
6 *786:A *670:A 0
*RES
1 *639:X *670:A 13.8 
*END

*D_NET *123 0.00974459
*CONN
*I *790:A I *D sky130_fd_sc_hd__clkbuf_16
*I *789:A I *D sky130_fd_sc_hd__clkbuf_16
*I *788:A I *D sky130_fd_sc_hd__clkbuf_16
*I *787:A I *D sky130_fd_sc_hd__clkbuf_16
*I *786:X O *D sky130_fd_sc_hd__clkbuf_16
*CAP
1 *790:A 0.000482719
2 *789:A 0.000606757
3 *788:A 0.000685067
4 *787:A 0.000202926
5 *786:X 0
6 *123:32 0.00145388
7 *123:8 0.00142281
8 *123:4 0.000899228
9 *787:A *720:A1 1.44177e-05
10 *787:A *764:D 0.000130219
11 *787:A *172:27 0.000162318
12 *787:A *211:24 0
13 *788:A *731:A1 0
14 *788:A *731:S 1.82563e-05
15 *788:A *732:A1 0.000193564
16 *788:A *819:A 0.000289698
17 *788:A *125:10 0.000678818
18 *788:A *138:27 0
19 *788:A *211:24 0
20 *788:A *214:8 8.6099e-05
21 *789:A *763:CLK 0.000144282
22 *789:A *126:82 0
23 *789:A *199:44 0
24 *789:A *199:57 0
25 *790:A *646:A2 7.1301e-06
26 *790:A *707:A1 0.000262861
27 *790:A *130:97 0
28 *790:A *199:67 9.50342e-06
29 *790:A *219:21 5.55616e-05
30 *790:A *219:32 8.42239e-05
31 *123:8 *660:A2 5.41776e-05
32 *123:8 *129:55 0.000157081
33 *123:8 *130:62 0.000272978
34 *123:32 *129:55 1.19928e-05
35 *647:C1 *790:A 0
36 *655:C1 *790:A 0.000159964
37 *660:B1 *787:A 0.000494374
38 *668:B1 *123:8 0.000232999
39 *669:C *789:A 0
40 *669:C *790:A 0
41 *670:C *788:A 6.92175e-05
42 *670:C *123:8 0.000122325
43 *670:D *790:A 0.000139252
44 *706:A2 *789:A 0
45 *747:D *789:A 2.37234e-05
46 *753:D *790:A 0
47 *776:D *788:A 0.000116158
48 *821:A *789:A 0
49 *115:80 *789:A 0
50 *115:80 *790:A 0
51 *117:79 *789:A 0
*RES
1 *786:X *123:4 1.6 
2 *123:4 *123:8 11.765 
3 *123:8 *787:A 9.825 
4 *123:8 *788:A 17.415 
5 *123:4 *123:32 6.935 
6 *123:32 *789:A 13.905 
7 *123:32 *790:A 13.65 
*END

*D_NET *124 0.0107129
*CONN
*I *764:CLK I *D sky130_fd_sc_hd__dfrtp_1
*I *771:CLK I *D sky130_fd_sc_hd__dfrtp_1
*I *767:CLK I *D sky130_fd_sc_hd__dfrtp_1
*I *772:CLK I *D sky130_fd_sc_hd__dfrtp_1
*I *774:CLK I *D sky130_fd_sc_hd__dfrtp_1
*I *775:CLK I *D sky130_fd_sc_hd__dfrtp_1
*I *766:CLK I *D sky130_fd_sc_hd__dfrtp_1
*I *770:CLK I *D sky130_fd_sc_hd__dfrtp_1
*I *785:CLK I *D sky130_fd_sc_hd__dfrtp_1
*I *781:CLK I *D sky130_fd_sc_hd__dfrtp_1
*I *769:CLK I *D sky130_fd_sc_hd__dfrtp_1
*I *773:CLK I *D sky130_fd_sc_hd__dfrtp_1
*I *759:CLK I *D sky130_fd_sc_hd__dfrtp_1
*I *787:X O *D sky130_fd_sc_hd__clkbuf_16
*CAP
1 *764:CLK 6.37493e-05
2 *771:CLK 0
3 *767:CLK 0
4 *772:CLK 0.000298816
5 *774:CLK 0
6 *775:CLK 0.000451421
7 *766:CLK 0.000320088
8 *770:CLK 8.45702e-05
9 *785:CLK 0
10 *781:CLK 0
11 *769:CLK 0.000280888
12 *773:CLK 0
13 *759:CLK 0.000220247
14 *787:X 0.000120751
15 *124:93 0.000451421
16 *124:73 0.000479512
17 *124:64 0.000434399
18 *124:57 0.000748685
19 *124:42 0.000939436
20 *124:35 0.000269408
21 *124:24 0.000338226
22 *124:22 0.000438025
23 *124:20 0.000721269
24 *124:16 0.000548551
25 *124:14 0.000736079
26 *124:8 0.000474436
27 *759:CLK *759:D 4.91189e-05
28 *764:CLK *642:B1 0.000107627
29 *766:CLK *730:A0 0
30 *766:CLK *731:A1 4.19967e-05
31 *766:CLK *134:36 0
32 *766:CLK *141:8 0
33 *766:CLK *161:37 0
34 *769:CLK *759:RESET_B 0
35 *769:CLK *769:RESET_B 1.08758e-05
36 *769:CLK *133:24 0
37 *769:CLK *133:26 0
38 *770:CLK *141:8 0
39 *770:CLK *161:18 0
40 *772:CLK *862:A 0.000169591
41 *775:CLK *774:RESET_B 2.20753e-05
42 *775:CLK *775:RESET_B 6.77501e-05
43 *124:8 *208:21 6.11706e-05
44 *124:14 *642:B1 0.000229904
45 *124:14 *667:B1 4.57407e-05
46 *124:14 *771:RESET_B 0.000171215
47 *124:16 *771:RESET_B 0.000220379
48 *124:22 *728:A 0
49 *124:57 *773:RESET_B 2.40101e-05
50 *124:57 *228:10 7.22354e-05
51 *124:64 *781:D 0.000199016
52 *124:64 *781:RESET_B 9.17602e-05
53 *124:73 *781:RESET_B 7.36828e-05
54 *766:D *766:CLK 4.61658e-05
55 *767:D *772:CLK 0
56 *767:D *124:22 0
57 *770:D *766:CLK 4.7043e-05
58 *770:D *770:CLK 6.14602e-05
59 *771:D *124:14 4.39921e-05
60 *773:D *759:CLK 2.24336e-05
61 *773:D *769:CLK 0
62 *773:D *124:22 0.00012455
63 *773:D *124:24 7.45968e-05
64 *774:D *775:CLK 7.35813e-05
65 *785:D *770:CLK 0.000140905
66 *860:A *759:CLK 0
*RES
1 *787:X *124:8 5.085 
2 *124:8 *124:14 8.555 
3 *124:14 *124:16 7.35 
4 *124:16 *124:20 3.485 
5 *124:20 *124:22 6.225 
6 *124:22 *124:24 2.145 
7 *124:24 *759:CLK 7.785 
8 *124:24 *124:35 2 
9 *124:35 *773:CLK 1.6 
10 *124:35 *124:42 3.9 
11 *124:42 *769:CLK 9.92 
12 *124:42 *124:57 6.315 
13 *124:57 *781:CLK 1.6 
14 *124:57 *124:64 7.005 
15 *124:64 *785:CLK 1.6 
16 *124:64 *124:73 3.485 
17 *124:73 *770:CLK 5.745 
18 *124:73 *766:CLK 9.57 
19 *124:22 *124:93 2 
20 *124:93 *775:CLK 8.965 
21 *124:93 *774:CLK 1.6 
22 *124:20 *772:CLK 9.57 
23 *124:16 *767:CLK 1.6 
24 *124:14 *771:CLK 1.6 
25 *124:8 *764:CLK 4.98 
*END

*D_NET *125 0.0158359
*CONN
*I *756:CLK I *D sky130_fd_sc_hd__dfrtp_1
*I *776:CLK I *D sky130_fd_sc_hd__dfrtp_1
*I *761:CLK I *D sky130_fd_sc_hd__dfrtp_1
*I *778:CLK I *D sky130_fd_sc_hd__dfrtp_1
*I *777:CLK I *D sky130_fd_sc_hd__dfrtp_1
*I *758:CLK I *D sky130_fd_sc_hd__dfrtp_1
*I *755:CLK I *D sky130_fd_sc_hd__dfrtp_1
*I *754:CLK I *D sky130_fd_sc_hd__dfrtp_1
*I *757:CLK I *D sky130_fd_sc_hd__dfrtp_1
*I *762:CLK I *D sky130_fd_sc_hd__dfrtp_1
*I *791:A I *D sky130_fd_sc_hd__clkbuf_4
*I *765:CLK I *D sky130_fd_sc_hd__dfrtp_1
*I *768:CLK I *D sky130_fd_sc_hd__dfrtp_1
*I *788:X O *D sky130_fd_sc_hd__clkbuf_16
*CAP
1 *756:CLK 0.000182449
2 *776:CLK 0
3 *761:CLK 0
4 *778:CLK 0.00037342
5 *777:CLK 0
6 *758:CLK 0
7 *755:CLK 0.000219318
8 *754:CLK 0.000308642
9 *757:CLK 0
10 *762:CLK 0
11 *791:A 0.000594486
12 *765:CLK 0
13 *768:CLK 8.56218e-05
14 *788:X 0
15 *125:102 0.000926939
16 *125:93 0.000697909
17 *125:76 0.000489812
18 *125:62 0.000799935
19 *125:53 0.000491294
20 *125:51 0.000475903
21 *125:40 0.00110289
22 *125:31 0.000407845
23 *125:20 0.000892014
24 *125:14 0.000626281
25 *125:10 0.00048998
26 *125:4 0.000603297
27 *754:CLK *757:D 6.35284e-05
28 *754:CLK *135:24 2.75145e-05
29 *754:CLK *135:58 0.000153702
30 *754:CLK *135:83 0.000147713
31 *754:CLK *135:102 0.000722368
32 *754:CLK *138:25 0.000166061
33 *754:CLK *217:8 0.000187381
34 *754:CLK *217:19 0.000119631
35 *755:CLK *636:A 0.00054624
36 *755:CLK *636:B 6.69054e-05
37 *768:CLK *768:D 3.89528e-05
38 *778:CLK *777:RESET_B 8.95088e-05
39 *778:CLK *778:RESET_B 0.000223186
40 *778:CLK *232:8 2.11084e-05
41 *125:10 *761:RESET_B 1.89685e-05
42 *125:10 *765:RESET_B 8.49205e-05
43 *125:10 *135:28 1.07797e-05
44 *125:10 *135:30 6.00003e-05
45 *125:10 *212:25 6.23206e-05
46 *125:14 *640:B 7.45968e-05
47 *125:14 *761:RESET_B 0.000105068
48 *125:14 *212:25 4.18603e-06
49 *125:20 *640:A 8.65961e-05
50 *125:20 *640:B 9.91257e-05
51 *125:20 *768:D 8.65961e-05
52 *125:51 *762:D 0
53 *125:62 *757:D 2.75229e-05
54 *125:62 *762:D 7.35729e-05
55 *125:62 *762:RESET_B 0.000150952
56 *125:62 *800:A 6.90876e-05
57 *125:62 *135:24 0.000161837
58 *125:62 *138:25 4.21666e-05
59 *125:76 *762:D 0
60 *125:93 *803:A 7.60965e-05
61 *125:102 *803:A 0.000264018
62 *638:A1 *754:CLK 2.75229e-05
63 *638:C1 *755:CLK 0.000580633
64 *639:C1 *754:CLK 8.34281e-06
65 *642:C1 *125:20 0.000164874
66 *758:D *125:93 0
67 *765:D *125:31 3.89528e-05
68 *786:A *755:CLK 0.000107405
69 *788:A *125:10 0.000678818
70 *859:A *125:76 0.000198663
71 *859:A *125:93 0.00013042
*RES
1 *788:X *125:4 1.6 
2 *125:4 *125:10 11.585 
3 *125:10 *125:14 4.145 
4 *125:14 *125:20 11.345 
5 *125:20 *768:CLK 5.235 
6 *125:20 *125:31 4.44 
7 *125:31 *765:CLK 3.6 
8 *125:31 *125:40 2.655 
9 *125:40 *791:A 11.64 
10 *125:40 *125:51 5.715 
11 *125:51 *125:53 2 
12 *125:53 *762:CLK 1.6 
13 *125:53 *125:62 9.435 
14 *125:62 *757:CLK 1.6 
15 *125:62 *754:CLK 13.435 
16 *125:51 *125:76 2.655 
17 *125:76 *755:CLK 10.965 
18 *125:76 *125:93 5.12 
19 *125:93 *758:CLK 1.6 
20 *125:93 *125:102 9.78 
21 *125:102 *777:CLK 1.6 
22 *125:102 *778:CLK 8.605 
23 *125:14 *761:CLK 1.6 
24 *125:10 *776:CLK 3.6 
25 *125:4 *756:CLK 4.12 
*END

*D_NET *126 0.010485
*CONN
*I *749:CLK I *D sky130_fd_sc_hd__dfrtp_4
*I *746:CLK I *D sky130_fd_sc_hd__dfrtp_4
*I *763:CLK I *D sky130_fd_sc_hd__dfrtp_1
*I *747:CLK I *D sky130_fd_sc_hd__dfrtp_1
*I *792:A I *D sky130_fd_sc_hd__bufinv_16
*I *784:CLK I *D sky130_fd_sc_hd__dfrtp_2
*I *745:CLK I *D sky130_fd_sc_hd__dfrtp_1
*I *783:CLK I *D sky130_fd_sc_hd__dfrtp_4
*I *782:CLK I *D sky130_fd_sc_hd__dfrtp_2
*I *748:CLK I *D sky130_fd_sc_hd__dfrtp_4
*I *789:X O *D sky130_fd_sc_hd__clkbuf_16
*CAP
1 *749:CLK 0.000207487
2 *746:CLK 0.000122677
3 *763:CLK 0.000212825
4 *747:CLK 0.000144902
5 *792:A 0
6 *784:CLK 1.11194e-05
7 *745:CLK 8.23706e-05
8 *783:CLK 0
9 *782:CLK 0.000652392
10 *748:CLK 0.000586715
11 *789:X 0.000151898
12 *126:112 0.000777585
13 *126:84 0.0005833
14 *126:82 0.000776428
15 *126:71 0.000271174
16 *126:18 0.00129427
17 *126:16 0.000147922
18 *126:14 0.000324592
19 *126:10 0.000239905
20 *126:8 0.000398956
21 *745:CLK *739:A 6.97034e-05
22 *746:CLK *797:A 0
23 *748:CLK *737:A 2.59981e-05
24 *748:CLK *782:RESET_B 0.000661153
25 *748:CLK *202:23 4.82919e-05
26 *748:CLK *202:31 4.9968e-05
27 *749:CLK *811:A 5.05521e-05
28 *763:CLK *763:D 2.16833e-05
29 *763:CLK *199:16 0.000467068
30 *782:CLK *782:RESET_B 4.2554e-05
31 *126:14 *202:35 0
32 *126:16 *202:35 0
33 *126:18 *737:A 4.5783e-05
34 *126:18 *202:31 7.23602e-05
35 *126:112 *811:A 0.00011577
36 *126:112 *200:6 2.20732e-05
37 *684:B *749:CLK 2.10673e-05
38 *692:B1 *784:CLK 1.83847e-05
39 *692:B2 *784:CLK 4.99619e-05
40 *697:A2 *749:CLK 8.65905e-05
41 *697:B1 *746:CLK 0
42 *698:B1 *749:CLK 7.40581e-05
43 *699:A1 *126:82 0
44 *706:A2 *126:71 5.42646e-05
45 *706:A2 *126:82 0
46 *736:B *126:16 1.22676e-05
47 *736:B *126:18 1.73877e-05
48 *741:B1 *745:CLK 0
49 *746:D *746:CLK 7.16437e-05
50 *747:D *747:CLK 5.83121e-06
51 *747:D *763:CLK 5.23362e-05
52 *747:D *126:82 0
53 *747:D *126:84 2.49909e-05
54 *748:D *748:CLK 7.00889e-06
55 *749:D *746:CLK 0
56 *749:D *749:CLK 7.00889e-06
57 *784:D *126:10 0
58 *784:D *126:14 0
59 *789:A *763:CLK 0.000144282
60 *789:A *126:82 0
61 *821:A *763:CLK 0.000316421
62 *87:14 *746:CLK 0
63 *87:14 *749:CLK 1.67553e-05
64 *109:14 *748:CLK 2.30292e-05
65 *109:14 *782:CLK 0.000120655
66 *109:14 *126:16 8.08153e-06
67 *109:14 *126:18 9.3062e-06
68 *117:66 *126:14 4.38051e-05
69 *117:66 *126:16 0.000118527
70 *117:75 *126:14 0.000157595
71 *117:79 *126:10 1.61461e-05
72 *117:79 *126:71 2.54606e-05
73 *118:10 *126:10 5.13155e-05
74 *118:10 *126:71 1.1561e-05
75 *118:25 *126:8 0.000239813
*RES
1 *789:X *126:8 5.775 
2 *126:8 *126:10 1.635 
3 *126:10 *126:14 2.85 
4 *126:14 *126:16 1.89 
5 *126:16 *126:18 1.38 
6 *126:18 *748:CLK 15.27 
7 *126:18 *782:CLK 11.22 
8 *126:16 *783:CLK 3.6 
9 *126:14 *745:CLK 5.1 
10 *126:10 *784:CLK 4.05 
11 *126:8 *126:71 3.105 
12 *126:71 *792:A 3.6 
13 *126:71 *126:82 3.635 
14 *126:82 *126:84 2.52 
15 *126:84 *747:CLK 3.355 
16 *126:84 *763:CLK 12.755 
17 *126:82 *126:112 6.09 
18 *126:112 *746:CLK 8 
19 *126:112 *749:CLK 5.62 
*END

*D_NET *127 0.0114121
*CONN
*I *744:CLK I *D sky130_fd_sc_hd__dfrtp_1
*I *752:CLK I *D sky130_fd_sc_hd__dfrtp_1
*I *779:CLK I *D sky130_fd_sc_hd__dfrtp_1
*I *751:CLK I *D sky130_fd_sc_hd__dfrtp_1
*I *780:CLK I *D sky130_fd_sc_hd__dfrtp_1
*I *793:A I *D sky130_fd_sc_hd__clkinv_2
*I *743:CLK I *D sky130_fd_sc_hd__dfrtp_1
*I *742:CLK I *D sky130_fd_sc_hd__dfrtp_1
*I *750:CLK I *D sky130_fd_sc_hd__dfrtp_1
*I *760:CLK I *D sky130_fd_sc_hd__dfrtp_1
*I *753:CLK I *D sky130_fd_sc_hd__dfrtp_1
*I *790:X O *D sky130_fd_sc_hd__clkbuf_16
*CAP
1 *744:CLK 4.91127e-05
2 *752:CLK 0.000566356
3 *779:CLK 0
4 *751:CLK 0.000289031
5 *780:CLK 0.000170384
6 *793:A 1.93533e-05
7 *743:CLK 0.000159464
8 *742:CLK 2.44773e-05
9 *750:CLK 0
10 *760:CLK 3.55506e-05
11 *753:CLK 0.000352411
12 *790:X 0
13 *127:123 0.000798146
14 *127:110 0.000305481
15 *127:95 0.000668408
16 *127:80 0.000605504
17 *127:44 0.000178242
18 *127:20 0.00108965
19 *127:14 0.000925336
20 *127:12 0.000271981
21 *127:10 0.000249674
22 *127:4 0.000366234
23 *742:CLK *138:81 1.34503e-05
24 *743:CLK *653:A2_N 0.000193806
25 *743:CLK *675:A0 0.000141323
26 *743:CLK *131:78 0.000234674
27 *744:CLK *677:S 0
28 *744:CLK *734:A1 4.75576e-05
29 *744:CLK *224:25 0.000105266
30 *751:CLK *751:RESET_B 9.00322e-06
31 *751:CLK *137:37 4.80291e-07
32 *751:CLK *137:43 3.64622e-05
33 *752:CLK *709:A1 0.0001711
34 *752:CLK *709:S 2.76356e-05
35 *752:CLK *752:D 0.000124895
36 *753:CLK *713:A1 0
37 *753:CLK *713:S 8.53113e-06
38 *753:CLK *716:A0 0
39 *753:CLK *131:21 3.68682e-05
40 *780:CLK *708:S 4.82919e-05
41 *780:CLK *780:RESET_B 0.000256706
42 *793:A *197:45 2.49909e-05
43 *127:10 *662:A 6.05513e-05
44 *127:10 *199:57 0.000137578
45 *127:10 *199:67 1.56428e-05
46 *127:12 *199:57 0.00013521
47 *127:14 *199:57 0.000199734
48 *127:20 *707:A0 2.30292e-05
49 *127:20 *707:A1 0.000163204
50 *127:20 *707:S 9.63964e-05
51 *127:20 *138:81 7.5416e-05
52 *127:20 *199:57 0.000137571
53 *127:44 *138:81 0.00014729
54 *127:44 *222:29 0.000109377
55 *127:80 *663:A1 3.983e-05
56 *127:80 *137:45 0
57 *127:80 *199:57 0
58 *127:95 *708:S 9.37731e-05
59 *127:95 *137:37 1.04258e-05
60 *127:95 *137:43 0
61 *127:110 *708:S 0
62 *127:110 *137:29 1.34361e-05
63 *127:110 *137:37 4.94404e-05
64 *127:110 *197:115 0
65 *127:123 *652:B 0.000112123
66 *127:123 *677:S 0.000163204
67 *127:123 *734:A1 4.43871e-06
68 *127:123 *132:22 8.93957e-05
69 *127:123 *224:25 0.000119221
70 *654:C1 *127:123 2.30292e-05
71 *655:C1 *743:CLK 9.80943e-06
72 *664:B1 *127:80 0
73 *669:B *753:CLK 0.00011067
74 *670:D *793:A 2.49909e-05
75 *815:A *743:CLK 8.57024e-05
76 *827:A *127:95 0
77 *827:A *127:110 8.98913e-05
78 *827:A *127:123 4.82919e-05
79 *115:80 *127:14 7.71367e-05
80 *115:80 *127:20 3.31282e-05
81 *115:93 *127:10 0.000129047
82 *115:93 *127:12 0.000128346
83 *115:93 *127:14 4.9968e-05
84 *115:93 *127:80 0
*RES
1 *790:X *127:4 1.6 
2 *127:4 *127:10 5.465 
3 *127:10 *127:12 1.635 
4 *127:12 *127:14 2.4 
5 *127:14 *127:20 11.33 
6 *127:20 *753:CLK 10.85 
7 *127:20 *760:CLK 2.215 
8 *127:14 *127:44 5.555 
9 *127:44 *750:CLK 1.6 
10 *127:44 *742:CLK 2.05 
11 *127:12 *743:CLK 8.205 
12 *127:10 *793:A 4.05 
13 *127:4 *127:80 4.91 
14 *127:80 *780:CLK 7.155 
15 *127:80 *127:95 5.555 
16 *127:95 *751:CLK 5.08 
17 *127:95 *127:110 6.655 
18 *127:110 *779:CLK 1.6 
19 *127:110 *127:123 6.845 
20 *127:123 *752:CLK 10.875 
21 *127:123 *744:CLK 4.98 
*END

*D_NET *128 0.000824458
*CONN
*I *634:A I *D sky130_fd_sc_hd__or2_2
*I *858:X O *D sky130_fd_sc_hd__clkbuf_1
*CAP
1 *634:A 0.00025275
2 *858:X 0.00025275
3 *634:A *634:B 3.09164e-05
4 *634:A *161:12 0
5 *737:B *634:A 7.60965e-05
6 *782:D *634:A 5.13155e-05
7 *117:19 *634:A 0.00016063
*RES
1 *858:X *634:A 12.105 
*END

*D_NET *129 0.0125661
*CONN
*I *677:S I *D sky130_fd_sc_hd__mux2_1
*I *805:A I *D sky130_fd_sc_hd__clkbuf_4
*I *806:A I *D sky130_fd_sc_hd__clkbuf_4
*I *716:S I *D sky130_fd_sc_hd__mux2_1
*I *719:S I *D sky130_fd_sc_hd__mux2_1
*I *804:A I *D sky130_fd_sc_hd__clkbuf_4
*I *794:X O *D sky130_fd_sc_hd__clkbuf_2
*CAP
1 *677:S 0.000917417
2 *805:A 0.000396997
3 *806:A 0
4 *716:S 0
5 *719:S 0
6 *804:A 5.64603e-05
7 *794:X 0.000301196
8 *129:64 0.0015164
9 *129:55 0.000823352
10 *129:38 0.000771354
11 *129:27 0.000575211
12 *129:14 0.000782876
13 *677:S *646:B1 0
14 *677:S *652:B 0.000238137
15 *677:S *677:A0 2.30292e-05
16 *677:S *677:A1 0.000239813
17 *677:S *711:S 5.12772e-05
18 *677:S *734:A1 4.75576e-05
19 *677:S *744:D 0.000143266
20 *677:S *132:22 3.06947e-05
21 *677:S *132:37 0.000316421
22 *677:S *137:29 0.000140345
23 *677:S *220:10 0
24 *677:S *220:14 0
25 *677:S *224:25 0
26 *804:A *725:A1 0.000239813
27 *804:A *725:S 0
28 *804:A *194:6 8.65961e-05
29 *805:A *639:A2 0.000262219
30 *805:A *649:A 0.00100009
31 *805:A *711:S 1.03755e-05
32 *129:14 *725:A1 9.61248e-05
33 *129:14 *161:18 1.94892e-05
34 *129:14 *194:14 8.33824e-05
35 *129:27 *658:A2 0.000155069
36 *129:27 *847:A 0
37 *129:27 *130:30 7.89767e-05
38 *129:27 *131:21 4.70343e-05
39 *129:27 *134:36 0
40 *129:27 *161:18 2.46007e-05
41 *129:27 *161:31 4.40812e-05
42 *129:27 *207:21 0
43 *129:38 *716:A1 0.000295393
44 *129:38 *820:A 2.23485e-05
45 *129:38 *130:30 3.31204e-05
46 *129:38 *130:43 0.000153441
47 *129:38 *130:56 0
48 *129:38 *131:21 9.29751e-06
49 *129:55 *713:A0 0.000141606
50 *129:55 *716:A0 9.30717e-05
51 *129:55 *130:43 8.53113e-06
52 *129:55 *130:56 0.00015997
53 *129:55 *130:62 5.83121e-06
54 *129:55 *131:21 0
55 *129:64 *646:A1 0
56 *129:64 *711:S 8.78096e-05
57 *129:64 *713:A0 9.50342e-06
58 *129:64 *130:97 0
59 *129:64 *167:8 0.000131408
60 *129:64 *220:14 0
61 *639:B1 *805:A 4.43682e-05
62 *647:B1 *677:S 0
63 *654:C1 *677:S 0.000349587
64 *669:A *129:55 0.000309612
65 *669:B *129:55 0.000168768
66 *669:B *129:64 8.15598e-05
67 *669:C *129:55 0
68 *674:C *129:27 0
69 *744:CLK *677:S 0
70 *753:D *129:55 0
71 *770:D *129:14 4.66108e-05
72 *794:A *804:A 9.21168e-05
73 *794:A *129:14 4.43682e-05
74 *794:A *129:27 0
75 *81:18 *129:55 0.000425829
76 *123:8 *129:55 0.000157081
77 *123:32 *129:55 1.19928e-05
78 *127:123 *677:S 0.000163204
*RES
1 *794:X *129:14 8.58 
2 *129:14 *804:A 6.135 
3 *129:14 *129:27 8.265 
4 *129:27 *719:S 3.6 
5 *129:27 *129:38 4.635 
6 *129:38 *716:S 3.6 
7 *129:38 *129:55 18.655 
8 *129:55 *806:A 3.6 
9 *129:55 *129:64 4.5675 
10 *129:64 *805:A 14.0775 
11 *129:64 *677:S 27.2575 
*END

*D_NET *130 0.00977559
*CONN
*I *639:A1 I *D sky130_fd_sc_hd__a211o_1
*I *646:A1 I *D sky130_fd_sc_hd__o211ai_1
*I *647:A1 I *D sky130_fd_sc_hd__a211o_1
*I *637:A1_N I *D sky130_fd_sc_hd__a2bb2o_1
*I *643:A1 I *D sky130_fd_sc_hd__a211o_1
*I *660:A2 I *D sky130_fd_sc_hd__a211o_1
*I *641:A1_N I *D sky130_fd_sc_hd__a2bb2o_1
*I *668:A1 I *D sky130_fd_sc_hd__a211o_1
*I *658:A2 I *D sky130_fd_sc_hd__o22ai_1
*I *667:A1 I *D sky130_fd_sc_hd__o211ai_1
*I *795:X O *D sky130_fd_sc_hd__buf_2
*CAP
1 *639:A1 0.00025875
2 *646:A1 0.000228101
3 *647:A1 0
4 *637:A1_N 0
5 *643:A1 0
6 *660:A2 0.000183418
7 *641:A1_N 5.95235e-05
8 *668:A1 0.000195146
9 *658:A2 0.000478539
10 *667:A1 7.26559e-05
11 *795:X 0
12 *130:97 0.000547064
13 *130:82 0.000318963
14 *130:80 0.000722635
15 *130:62 0.000262035
16 *130:56 0.000652569
17 *130:43 0.000273312
18 *130:30 0.000363057
19 *130:17 0.000606982
20 *130:4 0.000136909
21 *639:A1 *639:A2 0.000176536
22 *639:A1 *756:RESET_B 0
23 *641:A1_N *641:A2_N 4.82863e-05
24 *646:A1 *645:B 8.65961e-05
25 *646:A1 *646:A2 4.82919e-05
26 *646:A1 *708:A1 0.000162525
27 *658:A2 *766:RESET_B 0.000183745
28 *658:A2 *134:36 5.23585e-05
29 *660:A2 *643:A2 3.26889e-05
30 *667:A1 *667:A2 3.23663e-05
31 *667:A1 *795:A 0
32 *668:A1 *668:A2 4.60584e-05
33 *130:17 *667:A2 4.99619e-05
34 *130:17 *795:A 2.49909e-05
35 *130:30 *766:RESET_B 0.000195925
36 *130:43 *766:RESET_B 8.28738e-05
37 *130:43 *210:10 0.000110323
38 *130:56 *643:A2 6.9117e-05
39 *130:56 *716:A0 2.05583e-05
40 *130:56 *210:10 1.07797e-05
41 *130:62 *643:A2 7.72844e-05
42 *130:80 *650:A1 8.10146e-05
43 *130:80 *713:A1 0.000108322
44 *130:80 *713:S 0
45 *130:80 *716:A0 0.000404416
46 *130:80 *756:RESET_B 0
47 *130:97 *647:A2 5.78206e-05
48 *130:97 *216:14 0.000235568
49 *639:B1 *639:A1 0.000227732
50 *643:B1 *130:56 0
51 *647:B1 *130:97 0.000171749
52 *647:C1 *646:A1 4.32126e-05
53 *647:C1 *130:97 4.18603e-06
54 *658:B2 *658:A2 9.7938e-05
55 *660:C1 *660:A2 0
56 *667:C1 *667:A1 0
57 *668:B1 *660:A2 6.58339e-05
58 *668:B1 *668:A1 1.85674e-05
59 *669:A *130:62 2.17931e-05
60 *669:B *130:97 0.000160641
61 *669:D *668:A1 0.000122325
62 *756:D *130:80 3.47837e-05
63 *786:A *639:A1 0
64 *786:A *130:56 1.0183e-05
65 *786:A *130:62 4.82919e-05
66 *786:A *130:80 0
67 *790:A *130:97 0
68 *115:18 *641:A1_N 4.21973e-05
69 *115:99 *130:97 2.59926e-05
70 *123:8 *660:A2 5.41776e-05
71 *123:8 *130:62 0.000272978
72 *129:27 *658:A2 0.000155069
73 *129:27 *130:30 7.89767e-05
74 *129:38 *130:30 3.31204e-05
75 *129:38 *130:43 0.000153441
76 *129:38 *130:56 0
77 *129:55 *130:43 8.53113e-06
78 *129:55 *130:56 0.00015997
79 *129:55 *130:62 5.83121e-06
80 *129:64 *646:A1 0
81 *129:64 *130:97 0
*RES
1 *795:X *130:4 1.6 
2 *130:4 *667:A1 3.01 
3 *130:4 *130:17 3.14 
4 *130:17 *658:A2 11.355 
5 *130:17 *130:30 2.4 
6 *130:30 *668:A1 6.39 
7 *130:30 *130:43 3.42 
8 *130:43 *641:A1_N 4.74 
9 *130:43 *130:56 2.85 
10 *130:56 *130:62 4.88 
11 *130:62 *660:A2 4.84 
12 *130:62 *643:A1 1.6 
13 *130:56 *130:80 10.05 
14 *130:80 *130:82 2 
15 *130:82 *637:A1_N 1.6 
16 *130:82 *130:97 9.05 
17 *130:97 *647:A1 3.6 
18 *130:97 *646:A1 8.115 
19 *130:80 *639:A1 8.13 
*END

*D_NET *131 0.00920549
*CONN
*I *655:A1 I *D sky130_fd_sc_hd__a211o_1
*I *663:A1 I *D sky130_fd_sc_hd__o211ai_1
*I *664:A1 I *D sky130_fd_sc_hd__a211o_1
*I *653:A1_N I *D sky130_fd_sc_hd__a2bb2o_1
*I *650:A1 I *D sky130_fd_sc_hd__o211ai_1
*I *651:A1 I *D sky130_fd_sc_hd__a211o_1
*I *795:A I *D sky130_fd_sc_hd__buf_2
*I *796:X O *D sky130_fd_sc_hd__clkbuf_2
*CAP
1 *655:A1 1.0887e-05
2 *663:A1 0.000356221
3 *664:A1 0
4 *653:A1_N 0
5 *650:A1 0.000133845
6 *651:A1 8.39947e-05
7 *795:A 0.000102041
8 *796:X 0
9 *131:78 0.000756077
10 *131:57 0.000746561
11 *131:47 0.000694445
12 *131:23 0.000361686
13 *131:21 0.00114654
14 *131:4 0.000767882
15 *651:A1 *824:A 8.23457e-05
16 *651:A1 *138:81 2.16833e-05
17 *655:A1 *655:A2 4.22232e-05
18 *663:A1 *662:A 0.000572614
19 *663:A1 *662:B 9.91257e-05
20 *663:A1 *664:A2 6.52111e-05
21 *663:A1 *197:57 3.25831e-05
22 *663:A1 *199:57 0
23 *131:21 *716:A0 0.000176795
24 *131:21 *716:A1 0.000125634
25 *131:21 *820:A 0.000112123
26 *131:21 *207:21 0
27 *131:23 *824:A 4.82919e-05
28 *131:23 *138:81 0.000127921
29 *131:47 *655:A2 3.00381e-05
30 *131:47 *138:81 0.000297695
31 *131:57 *655:A2 0.000226928
32 *131:57 *750:RESET_B 0.000203067
33 *131:57 *138:81 2.76482e-05
34 *131:78 *653:A2_N 9.9919e-05
35 *131:78 *664:A2 9.50342e-06
36 *131:78 *197:57 0.000136626
37 *131:78 *199:57 0
38 *651:B1 *651:A1 1.85674e-05
39 *654:A1 *663:A1 0.000421068
40 *655:B1 *131:57 1.61831e-05
41 *655:C1 *131:78 1.34594e-05
42 *664:B1 *663:A1 0.000105776
43 *667:A1 *795:A 0
44 *669:A *131:21 0
45 *669:B *131:21 0
46 *670:D *650:A1 3.95073e-05
47 *743:CLK *131:78 0.000234674
48 *753:CLK *131:21 3.68682e-05
49 *756:D *650:A1 2.49909e-05
50 *760:D *131:21 0
51 *786:A *650:A1 0.000218084
52 *796:A *131:21 4.10576e-05
53 *81:18 *131:21 0
54 *115:80 *131:57 0.000124768
55 *115:93 *131:57 1.01661e-05
56 *127:80 *663:A1 3.983e-05
57 *129:27 *131:21 4.70343e-05
58 *129:38 *131:21 9.29751e-06
59 *129:55 *131:21 0
60 *130:17 *795:A 2.49909e-05
61 *130:80 *650:A1 8.10146e-05
*RES
1 *796:X *131:4 1.6 
2 *131:4 *795:A 3.265 
3 *131:4 *131:21 16.81 
4 *131:21 *131:23 2.52 
5 *131:23 *651:A1 3.1 
6 *131:23 *650:A1 9.05 
7 *131:21 *131:47 5.97 
8 *131:47 *131:57 10.48 
9 *131:57 *653:A1_N 1.6 
10 *131:57 *131:78 8.66 
11 *131:78 *664:A1 3.6 
12 *131:78 *663:A1 13.62 
13 *131:47 *655:A1 1.96 
*END

*D_NET *132 0.0164743
*CONN
*I *661:A I *D sky130_fd_sc_hd__xor2_1
*I *644:A I *D sky130_fd_sc_hd__xor2_1
*I *636:A I *D sky130_fd_sc_hd__xnor2_1
*I *648:A I *D sky130_fd_sc_hd__xor2_1
*I *640:A I *D sky130_fd_sc_hd__xnor2_1
*I *665:A I *D sky130_fd_sc_hd__xor2_1
*I *656:B I *D sky130_fd_sc_hd__nand2_1
*I *657:B I *D sky130_fd_sc_hd__or2_1
*I *727:A1 I *D sky130_fd_sc_hd__mux2_1
*I *652:A I *D sky130_fd_sc_hd__xnor2_1
*I *797:X O *D sky130_fd_sc_hd__clkbuf_4
*CAP
1 *661:A 0.000170221
2 *644:A 0.000123338
3 *636:A 0.000281033
4 *648:A 6.26211e-05
5 *640:A 3.4408e-05
6 *665:A 0.0001228
7 *656:B 0
8 *657:B 0
9 *727:A1 0.000242721
10 *652:A 0
11 *797:X 5.59096e-05
12 *132:65 0.000334011
13 *132:61 0.000108242
14 *132:59 0.000380644
15 *132:53 0.000676963
16 *132:51 0.000535564
17 *132:49 0.00182237
18 *132:37 0.00213975
19 *132:22 0.00149801
20 *132:8 0.00117779
21 *636:A *636:B 0.000300004
22 *636:A *715:A1 0.000173199
23 *636:A *718:A1 9.37731e-05
24 *636:A *215:8 0
25 *644:A *732:A0 5.16418e-05
26 *644:A *733:A0 0.000239813
27 *644:A *733:S 4.82919e-05
28 *644:A *221:21 8.09157e-05
29 *661:A *661:B 0.000287651
30 *665:A *656:A 4.87263e-05
31 *727:A1 *727:A0 0.000162311
32 *727:A1 *849:A 0.000256771
33 *727:A1 *133:20 8.09021e-06
34 *727:A1 *194:74 0.000152568
35 *132:8 *661:B 3.47668e-05
36 *132:8 *854:A 4.18603e-06
37 *132:22 *652:B 0.000239813
38 *132:22 *654:A2 7.58604e-05
39 *132:22 *661:B 1.22762e-05
40 *132:22 *751:D 7.35729e-05
41 *132:22 *779:RESET_B 0.00023142
42 *132:22 *797:A 0
43 *132:22 *813:A 7.01407e-05
44 *132:22 *234:21 0
45 *132:37 *135:102 0.000168219
46 *132:37 *220:10 5.07419e-05
47 *132:49 *711:A1 0.000187305
48 *132:49 *714:A0 2.50702e-05
49 *132:49 *714:A1 1.19928e-05
50 *132:49 *718:S 0.000510878
51 *132:49 *756:RESET_B 0
52 *132:49 *135:102 0
53 *132:49 *196:51 6.13115e-05
54 *132:51 *718:A1 0.000139933
55 *132:53 *640:B 0
56 *132:53 *718:A1 0.000296088
57 *132:53 *721:A1 7.5431e-05
58 *132:53 *212:25 0
59 *132:59 *656:A 2.49909e-05
60 *132:59 *721:A1 4.40899e-05
61 *132:59 *724:A0 9.36786e-05
62 *132:59 *724:A1 0.000124007
63 *132:59 *724:S 5.53249e-06
64 *132:59 *133:18 0.000119285
65 *132:59 *183:25 2.05056e-05
66 *132:61 *656:A 5.4155e-06
67 *132:61 *183:25 5.4155e-06
68 *132:65 *849:A 2.14129e-05
69 *132:65 *133:18 8.08153e-06
70 *132:65 *183:21 9.37731e-05
71 *638:A1 *132:49 0.000185411
72 *654:A1 *132:22 2.7881e-05
73 *654:C1 *132:22 8.9693e-05
74 *659:B1 *665:A 9.66914e-05
75 *659:B1 *727:A1 0
76 *659:B1 *132:65 0
77 *659:C1 *727:A1 0
78 *677:S *132:22 3.06947e-05
79 *677:S *132:37 0.000316421
80 *754:D *132:49 9.71067e-05
81 *755:CLK *636:A 0.00054624
82 *786:A *636:A 0.00011607
83 *786:A *644:A 3.94614e-05
84 *786:A *132:49 5.45641e-05
85 *827:A *132:22 2.75229e-05
86 *832:A *636:A 0.000116577
87 *837:A *132:49 4.86022e-05
88 *125:20 *640:A 8.65961e-05
89 *127:123 *132:22 8.93957e-05
*RES
1 *797:X *132:8 4.725 
2 *132:8 *132:22 17.24 
3 *132:22 *652:A 1.6 
4 *132:22 *132:37 10.775 
5 *132:37 *132:49 24.295 
6 *132:49 *132:51 1.635 
7 *132:51 *132:53 8.265 
8 *132:53 *132:59 7.76 
9 *132:59 *132:61 0.36 
10 *132:61 *132:65 3.635 
11 *132:65 *727:A1 9.465 
12 *132:65 *657:B 3.6 
13 *132:61 *656:B 1.6 
14 *132:59 *665:A 4.585 
15 *132:53 *640:A 4.395 
16 *132:51 *648:A 4.395 
17 *132:49 *636:A 13.485 
18 *132:37 *644:A 7.41 
19 *132:8 *661:A 6.825 
*END

*D_NET *133 0.00899135
*CONN
*I *760:RESET_B I *D sky130_fd_sc_hd__dfrtp_1
*I *772:RESET_B I *D sky130_fd_sc_hd__dfrtp_1
*I *771:RESET_B I *D sky130_fd_sc_hd__dfrtp_1
*I *767:RESET_B I *D sky130_fd_sc_hd__dfrtp_1
*I *775:RESET_B I *D sky130_fd_sc_hd__dfrtp_1
*I *774:RESET_B I *D sky130_fd_sc_hd__dfrtp_1
*I *773:RESET_B I *D sky130_fd_sc_hd__dfrtp_1
*I *769:RESET_B I *D sky130_fd_sc_hd__dfrtp_1
*I *759:RESET_B I *D sky130_fd_sc_hd__dfrtp_1
*I *768:RESET_B I *D sky130_fd_sc_hd__dfrtp_1
*I *798:X O *D sky130_fd_sc_hd__clkbuf_4
*CAP
1 *760:RESET_B 0.000646101
2 *772:RESET_B 3.24164e-05
3 *771:RESET_B 0.000179236
4 *767:RESET_B 0.00023474
5 *775:RESET_B 0.000168149
6 *774:RESET_B 2.8133e-05
7 *773:RESET_B 2.48235e-05
8 *769:RESET_B 0.000228057
9 *759:RESET_B 0.000218364
10 *768:RESET_B 1.85291e-05
11 *798:X 0
12 *133:56 0.000196282
13 *133:26 0.000516242
14 *133:24 0.000239945
15 *133:22 0.000409461
16 *133:20 0.000715894
17 *133:18 0.000614691
18 *133:8 0.000489835
19 *133:4 0.000931362
20 *759:RESET_B *769:D 4.91189e-05
21 *760:RESET_B *717:A1 0.000158536
22 *760:RESET_B *731:A0 8.57024e-05
23 *760:RESET_B *798:A 3.08022e-05
24 *760:RESET_B *819:A 8.40213e-05
25 *760:RESET_B *211:24 0.000158532
26 *760:RESET_B *213:10 8.8266e-05
27 *768:RESET_B *176:8 4.24575e-05
28 *771:RESET_B *667:B1 0.000265365
29 *775:RESET_B *229:10 0.000277223
30 *133:8 *176:8 0.0001249
31 *133:8 *209:6 0.00016569
32 *133:18 *665:B 0
33 *133:18 *724:S 0
34 *133:18 *849:A 1.71013e-05
35 *133:18 *183:21 4.84393e-05
36 *133:20 *724:S 0
37 *133:20 *849:A 0.000116629
38 *133:20 *194:48 0
39 *133:20 *194:61 0
40 *133:20 *208:12 0
41 *133:22 *633:A 0.000204456
42 *133:22 *667:B1 0
43 *133:22 *158:12 5.13029e-05
44 *133:22 *194:37 0
45 *133:22 *194:48 0
46 *133:22 *228:10 0.000131408
47 *133:22 *229:10 0
48 *133:24 *228:10 0.000160658
49 num_to_send_o[2] *133:18 6.06649e-05
50 *643:C1 *760:RESET_B 0.000126054
51 *659:C1 *133:20 0
52 *659:C1 *133:22 0
53 *727:A1 *133:20 8.09021e-06
54 *769:CLK *759:RESET_B 0
55 *769:CLK *769:RESET_B 1.08758e-05
56 *769:CLK *133:24 0
57 *769:CLK *133:26 0
58 *771:D *133:20 0
59 *775:CLK *774:RESET_B 2.20753e-05
60 *775:CLK *775:RESET_B 6.77501e-05
61 *775:D *133:22 0
62 *775:D *133:24 0
63 *124:14 *771:RESET_B 0.000171215
64 *124:16 *771:RESET_B 0.000220379
65 *124:57 *773:RESET_B 2.40101e-05
66 *132:59 *133:18 0.000119285
67 *132:65 *133:18 8.08153e-06
*RES
1 *798:X *133:4 1.6 
2 *133:4 *133:8 5.295 
3 *133:8 *768:RESET_B 0.3975 
4 *133:8 *133:18 6.185 
5 *133:18 *133:20 6.735 
6 *133:20 *133:22 5.715 
7 *133:22 *133:24 2.91 
8 *133:24 *133:26 1.125 
9 *133:26 *759:RESET_B 5.5625 
10 *133:26 *769:RESET_B 5.1725 
11 *133:24 *773:RESET_B 2.3975 
12 *133:22 *133:56 2 
13 *133:56 *774:RESET_B 0.3975 
14 *133:56 *775:RESET_B 3.8475 
15 *133:20 *767:RESET_B 2.795 
16 *767:RESET_B *771:RESET_B 5.295 
17 *133:18 *772:RESET_B 2.3975 
18 *133:4 *760:RESET_B 10.1775 
*END

*D_NET *134 0.00648531
*CONN
*I *763:RESET_B I *D sky130_fd_sc_hd__dfrtp_1
*I *781:RESET_B I *D sky130_fd_sc_hd__dfrtp_1
*I *785:RESET_B I *D sky130_fd_sc_hd__dfrtp_1
*I *770:RESET_B I *D sky130_fd_sc_hd__dfrtp_1
*I *766:RESET_B I *D sky130_fd_sc_hd__dfrtp_1
*I *764:RESET_B I *D sky130_fd_sc_hd__dfrtp_1
*I *799:X O *D sky130_fd_sc_hd__clkbuf_2
*CAP
1 *763:RESET_B 1.2985e-05
2 *781:RESET_B 0.000288422
3 *785:RESET_B 0.000288422
4 *770:RESET_B 0.00016859
5 *766:RESET_B 0.000616001
6 *764:RESET_B 0.000573634
7 *799:X 0.000380921
8 *134:36 0.00058014
9 *134:21 0.00041015
10 *763:RESET_B *820:A 3.0297e-05
11 *763:RESET_B *199:16 2.20753e-05
12 *764:RESET_B *731:A1 0.00048729
13 *766:RESET_B *667:A2 0.000139933
14 *766:RESET_B *210:10 2.92496e-05
15 *770:RESET_B *161:18 0
16 *781:RESET_B *781:D 8.07616e-05
17 *134:21 *726:A1 6.62074e-05
18 *134:21 *820:A 4.66108e-05
19 *134:21 *199:16 0.000177055
20 *134:21 *210:6 4.82863e-05
21 *134:36 *731:A1 0
22 *134:36 *161:18 0
23 *134:36 *194:14 0.000183043
24 *643:C1 *764:RESET_B 0.000399252
25 *658:A2 *766:RESET_B 0.000183745
26 *658:A2 *134:36 5.23585e-05
27 *658:B2 *766:RESET_B 0
28 *658:B2 *134:36 4.43871e-06
29 *668:B1 *764:RESET_B 0.000382038
30 *766:CLK *134:36 0
31 *766:D *134:36 0.000116158
32 *770:D *770:RESET_B 0.00011852
33 *770:D *134:36 0.000154481
34 *124:64 *781:RESET_B 9.17602e-05
35 *124:73 *781:RESET_B 7.36828e-05
36 *129:27 *134:36 0
37 *130:30 *766:RESET_B 0.000195925
38 *130:43 *766:RESET_B 8.28738e-05
*RES
1 *799:X *764:RESET_B 14.525 
2 *764:RESET_B *134:21 3.9675 
3 *134:21 *766:RESET_B 9.46 
4 *766:RESET_B *134:36 10.4225 
5 *134:36 *770:RESET_B 4.8125 
6 *134:36 *785:RESET_B 2 
7 *785:RESET_B *781:RESET_B 5.07 
8 *134:21 *763:RESET_B 0.3975 
*END

*D_NET *135 0.0106527
*CONN
*I *758:RESET_B I *D sky130_fd_sc_hd__dfrtp_1
*I *754:RESET_B I *D sky130_fd_sc_hd__dfrtp_1
*I *756:RESET_B I *D sky130_fd_sc_hd__dfrtp_1
*I *757:RESET_B I *D sky130_fd_sc_hd__dfrtp_1
*I *777:RESET_B I *D sky130_fd_sc_hd__dfrtp_1
*I *755:RESET_B I *D sky130_fd_sc_hd__dfrtp_1
*I *765:RESET_B I *D sky130_fd_sc_hd__dfrtp_1
*I *776:RESET_B I *D sky130_fd_sc_hd__dfrtp_1
*I *761:RESET_B I *D sky130_fd_sc_hd__dfrtp_1
*I *762:RESET_B I *D sky130_fd_sc_hd__dfrtp_1
*I *800:X O *D sky130_fd_sc_hd__clkbuf_4
*CAP
1 *758:RESET_B 0.000105316
2 *754:RESET_B 0
3 *756:RESET_B 0.000399945
4 *757:RESET_B 3.47575e-05
5 *777:RESET_B 0.000206509
6 *755:RESET_B 0
7 *765:RESET_B 0.000238662
8 *776:RESET_B 0.000125476
9 *761:RESET_B 0.000203484
10 *762:RESET_B 8.64417e-05
11 *800:X 6.52939e-05
12 *135:102 0.000932656
13 *135:83 0.000773593
14 *135:62 0.000324593
15 *135:58 0.000510418
16 *135:30 0.000365295
17 *135:28 0.000752717
18 *135:24 0.000882316
19 *135:10 0.00033403
20 *135:8 0.000199812
21 *756:RESET_B *639:A2 0
22 *756:RESET_B *711:S 0
23 *756:RESET_B *713:S 0
24 *756:RESET_B *216:12 0.000139238
25 *757:RESET_B *778:RESET_B 4.99524e-05
26 *758:RESET_B *715:A1 7.67036e-05
27 *758:RESET_B *800:A 6.61904e-05
28 *758:RESET_B *803:A 8.74684e-05
29 *758:RESET_B *833:A 0
30 *761:RESET_B *717:A1 0
31 *761:RESET_B *761:D 0.000208477
32 *762:RESET_B *800:A 0.000123013
33 *762:RESET_B *803:A 3.9442e-05
34 *765:RESET_B *718:A1 4.20162e-05
35 *765:RESET_B *212:25 3.69909e-05
36 *776:RESET_B *721:S 8.73389e-06
37 *777:RESET_B *777:D 9.50342e-06
38 *777:RESET_B *778:RESET_B 0
39 *135:8 *636:B 8.23457e-05
40 *135:10 *800:A 6.28498e-05
41 *135:10 *803:A 3.67779e-05
42 *135:28 *648:B 0
43 *135:28 *757:D 4.94326e-05
44 *135:28 *761:D 0.000365327
45 *135:28 *803:A 0
46 *135:28 *212:25 0
47 *135:28 *215:8 0
48 *135:30 *761:D 0.00011686
49 *135:62 *778:RESET_B 0
50 *638:A1 *135:102 1.82667e-05
51 *639:A1 *756:RESET_B 0
52 *639:B1 *756:RESET_B 3.68682e-05
53 *642:C1 *761:RESET_B 0.0002313
54 *647:B1 *756:RESET_B 0.000188177
55 *647:B1 *135:102 2.24336e-05
56 *754:CLK *135:24 2.75145e-05
57 *754:CLK *135:58 0.000153702
58 *754:CLK *135:83 0.000147713
59 *754:CLK *135:102 0.000722368
60 *754:D *756:RESET_B 0
61 *755:D *777:RESET_B 0
62 *776:D *776:RESET_B 0.00011151
63 *778:CLK *777:RESET_B 8.95088e-05
64 *842:A *135:28 0
65 *125:10 *761:RESET_B 1.89685e-05
66 *125:10 *765:RESET_B 8.49205e-05
67 *125:10 *135:28 1.07797e-05
68 *125:10 *135:30 6.00003e-05
69 *125:14 *761:RESET_B 0.000105068
70 *125:62 *762:RESET_B 0.000150952
71 *125:62 *135:24 0.000161837
72 *130:80 *756:RESET_B 0
73 *132:37 *135:102 0.000168219
74 *132:49 *756:RESET_B 0
75 *132:49 *135:102 0
*RES
1 *800:X *135:8 4.395 
2 *135:8 *135:10 0.87 
3 *135:10 *762:RESET_B 4.3025 
4 *135:10 *135:24 4.865 
5 *135:24 *135:28 11.285 
6 *135:28 *135:30 1.38 
7 *135:30 *761:RESET_B 7.0325 
8 *135:30 *776:RESET_B 4.1225 
9 *135:28 *765:RESET_B 5.8475 
10 *135:24 *135:58 2.52 
11 *135:58 *135:62 3.89 
12 *135:62 *755:RESET_B 2 
13 *135:62 *777:RESET_B 5.2625 
14 *135:58 *135:83 2.88 
15 *135:83 *757:RESET_B 4.615 
16 *135:83 *135:102 12.5 
17 *135:102 *756:RESET_B 10.265 
18 *135:102 *754:RESET_B 2 
19 *135:8 *758:RESET_B 4.655 
*END

*D_NET *136 0.0162171
*CONN
*I *742:RESET_B I *D sky130_fd_sc_hd__dfrtp_1
*I *749:RESET_B I *D sky130_fd_sc_hd__dfrtp_4
*I *748:RESET_B I *D sky130_fd_sc_hd__dfrtp_4
*I *784:RESET_B I *D sky130_fd_sc_hd__dfrtp_2
*I *745:RESET_B I *D sky130_fd_sc_hd__dfrtp_1
*I *783:RESET_B I *D sky130_fd_sc_hd__dfrtp_4
*I *782:RESET_B I *D sky130_fd_sc_hd__dfrtp_2
*I *746:RESET_B I *D sky130_fd_sc_hd__dfrtp_4
*I *747:RESET_B I *D sky130_fd_sc_hd__dfrtp_1
*I *743:RESET_B I *D sky130_fd_sc_hd__dfrtp_1
*I *801:X O *D sky130_fd_sc_hd__clkbuf_4
*CAP
1 *742:RESET_B 0.000247975
2 *749:RESET_B 0.000102294
3 *748:RESET_B 6.80016e-05
4 *784:RESET_B 6.86698e-05
5 *745:RESET_B 0.000724798
6 *783:RESET_B 1.85291e-05
7 *782:RESET_B 0.000522241
8 *746:RESET_B 3.25553e-05
9 *747:RESET_B 0.000217854
10 *743:RESET_B 0.000153776
11 *801:X 0.000157075
12 *136:83 0.000982941
13 *136:73 0.000243307
14 *136:57 0.00134703
15 *136:53 0.00169646
16 *136:47 0.00126688
17 *136:22 0.001135
18 *136:20 0.00171511
19 *136:16 0.000953036
20 *136:6 0.000510996
21 *742:RESET_B *138:81 8.07616e-05
22 *742:RESET_B *225:10 2.61299e-05
23 *743:RESET_B *675:A0 1.62441e-05
24 *743:RESET_B *138:81 0.000353049
25 *743:RESET_B *226:10 8.8266e-05
26 *745:RESET_B *739:A 0.000197264
27 *745:RESET_B *203:34 0.000656919
28 *749:RESET_B *206:10 2.49909e-05
29 *782:RESET_B *737:A 3.00381e-05
30 *782:RESET_B *202:6 1.85674e-05
31 *782:RESET_B *202:23 1.60203e-05
32 *783:RESET_B *202:55 4.24575e-05
33 *136:6 *138:81 0.000114024
34 *136:16 *138:81 0
35 *136:16 *225:23 0
36 *136:20 *673:A 0
37 *136:20 *673:B 4.20983e-05
38 *136:22 *673:A 5.05521e-05
39 *136:22 *673:B 0.000115474
40 *136:47 *673:B 3.1835e-05
41 *136:53 *673:B 0
42 *136:53 *680:C1 2.4997e-05
43 *136:53 *685:B 6.95335e-05
44 *136:53 *203:69 0
45 *136:53 *204:67 0
46 *136:53 *205:10 2.53191e-06
47 *136:53 *205:19 1.44259e-05
48 *136:53 *205:30 3.60648e-05
49 *136:53 *205:84 1.65192e-05
50 *136:53 *206:10 0.000186099
51 *136:53 *206:12 0.000284976
52 *136:53 *206:14 7.06865e-05
53 *136:53 *206:18 5.46877e-05
54 *136:57 *203:69 0
55 *136:57 *204:14 9.51882e-05
56 *136:57 *204:41 1.51887e-05
57 *136:73 *703:A2 8.68097e-06
58 *136:83 *703:A2 6.23119e-05
59 *678:A *136:53 0.000157602
60 *687:A *136:53 0.000199567
61 *692:B2 *784:RESET_B 5.08304e-06
62 *695:B1 *784:RESET_B 5.17198e-05
63 *699:A1 *747:RESET_B 0
64 *741:A2 *136:83 0
65 *741:A3 *784:RESET_B 4.43871e-06
66 *741:A3 *136:83 6.10014e-05
67 *748:CLK *782:RESET_B 0.000661153
68 *748:D *748:RESET_B 0
69 *782:CLK *782:RESET_B 4.2554e-05
70 *784:D *784:RESET_B 0
71 *109:14 *782:RESET_B 2.29156e-05
*RES
1 *801:X *136:6 4.12 
2 *136:6 *743:RESET_B 3.5025 
3 *136:6 *136:16 4.91 
4 *136:16 *136:20 10.52 
5 *136:20 *136:22 10.11 
6 *136:22 *747:RESET_B 6.865 
7 *136:22 *746:RESET_B 0.7575 
8 *136:20 *136:47 5.99 
9 *136:47 *136:53 12.5149 
10 *136:53 *136:57 1.81987 
11 *136:57 *782:RESET_B 12.125 
12 *136:57 *136:73 0.4875 
13 *136:73 *783:RESET_B 2.3975 
14 *136:73 *136:83 3.165 
15 *136:83 *745:RESET_B 12.1775 
16 *136:83 *784:RESET_B 3.38 
17 *136:53 *748:RESET_B 3.4975 
18 *136:47 *749:RESET_B 3.4325 
19 *136:16 *742:RESET_B 5.8475 
*END

*D_NET *137 0.00773661
*CONN
*I *744:RESET_B I *D sky130_fd_sc_hd__dfrtp_1
*I *779:RESET_B I *D sky130_fd_sc_hd__dfrtp_1
*I *751:RESET_B I *D sky130_fd_sc_hd__dfrtp_1
*I *780:RESET_B I *D sky130_fd_sc_hd__dfrtp_1
*I *753:RESET_B I *D sky130_fd_sc_hd__dfrtp_1
*I *750:RESET_B I *D sky130_fd_sc_hd__dfrtp_1
*I *752:RESET_B I *D sky130_fd_sc_hd__dfrtp_1
*I *802:X O *D sky130_fd_sc_hd__buf_2
*CAP
1 *744:RESET_B 7.14377e-05
2 *779:RESET_B 5.41125e-05
3 *751:RESET_B 9.11985e-06
4 *780:RESET_B 0.000534416
5 *753:RESET_B 0.000135353
6 *750:RESET_B 9.87281e-05
7 *752:RESET_B 3.9393e-05
8 *802:X 0.000221615
9 *137:45 0.00051847
10 *137:43 0.0010024
11 *137:37 0.00037301
12 *137:29 0.000458804
13 *137:21 0.000597645
14 *137:10 0.000562819
15 *750:RESET_B *655:A2 1.26548e-05
16 *750:RESET_B *219:21 4.92206e-05
17 *752:RESET_B *709:A1 0.000117825
18 *752:RESET_B *709:S 6.28687e-05
19 *780:RESET_B *708:A0 0.000238919
20 *780:RESET_B *708:A1 0.000239813
21 *780:RESET_B *708:S 4.47125e-05
22 *137:10 *646:B1 1.52945e-05
23 *137:10 *709:A0 0.000139245
24 *137:10 *709:S 2.15594e-05
25 *137:10 *744:D 0
26 *137:10 *752:D 0
27 *137:10 *802:A 2.75145e-05
28 *137:10 *224:25 2.03321e-05
29 *137:21 *734:A1 0.000230435
30 *137:29 *197:115 0
31 *137:43 *646:B1 0
32 *137:43 *751:D 9.50342e-06
33 *137:43 *199:67 2.54692e-05
34 *137:45 *646:A2 7.17811e-05
35 *137:45 *199:67 1.94723e-05
36 *137:45 *219:21 8.07863e-05
37 *137:45 *219:32 8.78813e-05
38 *654:C1 *779:RESET_B 7.44317e-05
39 *655:B1 *750:RESET_B 0.000113797
40 *655:C1 *753:RESET_B 4.16353e-05
41 *670:D *753:RESET_B 6.6199e-05
42 *677:S *137:29 0.000140345
43 *751:CLK *751:RESET_B 9.00322e-06
44 *751:CLK *137:37 4.80291e-07
45 *751:CLK *137:43 3.64622e-05
46 *779:D *137:29 8.77968e-05
47 *780:CLK *780:RESET_B 0.000256706
48 *827:A *137:43 0.000162318
49 *830:A *137:10 4.70343e-05
50 *115:93 *750:RESET_B 0
51 *115:93 *137:45 0
52 *127:80 *137:45 0
53 *127:95 *137:37 1.04258e-05
54 *127:95 *137:43 0
55 *127:110 *137:29 1.34361e-05
56 *127:110 *137:37 4.94404e-05
57 *131:57 *750:RESET_B 0.000203067
58 *132:22 *779:RESET_B 0.00023142
*RES
1 *802:X *137:10 8.235 
2 *137:10 *752:RESET_B 3.38 
3 *137:10 *137:21 5.555 
4 *137:21 *137:29 6.485 
5 *137:29 *137:37 4.625 
6 *137:37 *137:43 5.795 
7 *137:43 *137:45 5.715 
8 *137:45 *750:RESET_B 4.655 
9 *137:45 *753:RESET_B 4.1225 
10 *137:43 *780:RESET_B 12.1775 
11 *137:37 *751:RESET_B 0.3975 
12 *137:29 *779:RESET_B 4.1225 
13 *137:21 *744:RESET_B 1.1025 
*END

*D_NET *138 0.0174153
*CONN
*I *802:A I *D sky130_fd_sc_hd__buf_2
*I *778:RESET_B I *D sky130_fd_sc_hd__dfrtp_1
*I *801:A I *D sky130_fd_sc_hd__clkbuf_4
*I *799:A I *D sky130_fd_sc_hd__clkbuf_2
*I *798:A I *D sky130_fd_sc_hd__clkbuf_4
*I *800:A I *D sky130_fd_sc_hd__clkbuf_4
*I *803:X O *D sky130_fd_sc_hd__clkbuf_2
*CAP
1 *802:A 0.00070351
2 *778:RESET_B 0.00166602
3 *801:A 0
4 *799:A 0
5 *798:A 0.000158596
6 *800:A 0.000165002
7 *803:X 0
8 *138:81 0.00198666
9 *138:33 0.000310128
10 *138:27 0.00265545
11 *138:25 0.00201101
12 *138:4 0.000696248
13 *778:RESET_B *777:D 0
14 *778:RESET_B *843:A 0.000283798
15 *778:RESET_B *196:73 0.000148274
16 *778:RESET_B *232:8 6.62652e-05
17 *778:RESET_B *233:8 1.37328e-05
18 *798:A *642:A2 3.50152e-06
19 *798:A *642:B1 4.77719e-05
20 *798:A *717:A1 6.67223e-05
21 *798:A *211:24 3.4465e-05
22 *800:A *715:A1 0.000226147
23 *802:A *734:A1 0.0001249
24 *802:A *752:D 0
25 *802:A *233:8 0.000163199
26 *138:25 *757:D 0.000159333
27 *138:27 *717:A1 0
28 *138:27 *731:S 0.000118513
29 *138:27 *196:10 0.000156155
30 *138:27 *196:12 0.00039658
31 *138:27 *196:47 0.000191897
32 *138:27 *196:73 0.000128353
33 *138:33 *717:A1 0
34 *138:33 *211:24 2.97746e-05
35 *138:81 *655:A2 9.95239e-05
36 *138:81 *675:A0 0.0001249
37 *138:81 *731:S 0.000310389
38 *138:81 *814:A 0.000135652
39 *138:81 *824:A 0.000119762
40 *138:81 *222:6 8.23457e-05
41 *138:81 *222:29 0.000154182
42 *138:81 *225:10 9.37731e-05
43 *138:81 *225:23 5.16418e-05
44 *642:A1 *798:A 4.77719e-05
45 *642:A1 *138:33 8.30853e-06
46 *642:C1 *138:33 0
47 *643:C1 *798:A 0.000159156
48 *651:A1 *138:81 2.16833e-05
49 *651:B1 *138:81 8.26314e-05
50 *655:B1 *138:81 0.000191226
51 *742:CLK *138:81 1.34503e-05
52 *742:RESET_B *138:81 8.07616e-05
53 *743:RESET_B *138:81 0.000353049
54 *754:CLK *138:25 0.000166061
55 *757:RESET_B *778:RESET_B 4.99524e-05
56 *758:RESET_B *800:A 6.61904e-05
57 *760:RESET_B *798:A 3.08022e-05
58 *762:RESET_B *800:A 0.000123013
59 *777:RESET_B *778:RESET_B 0
60 *778:CLK *778:RESET_B 0.000223186
61 *788:A *138:27 0
62 *830:A *802:A 0
63 *842:A *138:27 0
64 *81:18 *138:81 0.000845146
65 *115:80 *138:81 7.70758e-05
66 *125:62 *800:A 6.90876e-05
67 *125:62 *138:25 4.21666e-05
68 *127:20 *138:81 7.5416e-05
69 *127:44 *138:81 0.00014729
70 *131:23 *138:81 0.000127921
71 *131:47 *138:81 0.000297695
72 *131:57 *138:81 2.76482e-05
73 *135:10 *800:A 6.28498e-05
74 *135:62 *778:RESET_B 0
75 *136:6 *138:81 0.000114024
76 *136:16 *138:81 0
77 *137:10 *802:A 2.75145e-05
*RES
1 *803:X *138:4 1.6 
2 *138:4 *800:A 10.1 
3 *138:4 *138:25 9.11 
4 *138:25 *138:27 11.835 
5 *138:27 *138:33 4.34 
6 *138:33 *798:A 5.53 
7 *138:33 *799:A 1.6 
8 *138:27 *138:81 48.61 
9 *138:81 *801:A 1.6 
10 *138:25 *778:RESET_B 18.3725 
11 *778:RESET_B *802:A 17.4425 
*END

*D_NET *139 0.0021511
*CONN
*I *803:A I *D sky130_fd_sc_hd__clkbuf_2
*I *859:X O *D sky130_fd_sc_hd__clkbuf_1
*CAP
1 *803:A 0.000736302
2 *859:X 0.000736302
3 *803:A *636:B 6.97143e-05
4 *758:RESET_B *803:A 8.74684e-05
5 *762:RESET_B *803:A 3.9442e-05
6 *786:A *803:A 0.000104979
7 *125:93 *803:A 7.60965e-05
8 *125:102 *803:A 0.000264018
9 *135:10 *803:A 3.67779e-05
10 *135:28 *803:A 0
*RES
1 *859:X *803:A 17.88 
*END

*D_NET *140 0.000564914
*CONN
*I *769:D I *D sky130_fd_sc_hd__dfrtp_1
*I *807:X O *D sky130_fd_sc_hd__dlygate4sd3_1
*CAP
1 *769:D 0.00019682
2 *807:X 0.00019682
3 *769:D *807:A 0.000122155
4 *759:RESET_B *769:D 4.91189e-05
*RES
1 *807:X *769:D 10.41 
*END

*D_NET *141 0.00187477
*CONN
*I *781:D I *D sky130_fd_sc_hd__dfrtp_1
*I *672:B I *D sky130_fd_sc_hd__and2b_1
*I *818:X O *D sky130_fd_sc_hd__dlygate4sd3_1
*CAP
1 *781:D 0.000421463
2 *672:B 0.000175933
3 *818:X 0.00013741
4 *141:8 0.000734806
5 *672:B *672:A_N 0
6 *672:B *829:A 0.000116853
7 *141:8 *829:A 8.53113e-06
8 *766:CLK *141:8 0
9 *770:CLK *141:8 0
10 *781:RESET_B *781:D 8.07616e-05
11 *785:D *672:B 0
12 *124:64 *781:D 0.000199016
*RES
1 *818:X *141:8 5.745 
2 *141:8 *672:B 6.765 
3 *141:8 *781:D 9.24 
*END

*D_NET *142 0.000291484
*CONN
*I *672:A_N I *D sky130_fd_sc_hd__and2b_1
*I *829:X O *D sky130_fd_sc_hd__dlygate4sd3_1
*CAP
1 *672:A_N 9.58045e-05
2 *829:X 9.58045e-05
3 *672:A_N *161:18 0
4 *672:B *672:A_N 0
5 *785:D *672:A_N 9.98747e-05
*RES
1 *829:X *672:A_N 9.03 
*END

*D_NET *143 0.000908974
*CONN
*I *735:A0 I *D sky130_fd_sc_hd__mux2_1
*I *840:X O *D sky130_fd_sc_hd__dlygate4sd3_1
*CAP
1 *735:A0 0.000198621
2 *840:X 0.000198621
3 *735:A0 *735:A1 4.96443e-05
4 *735:A0 *735:S 0
5 *735:A0 *780:D 0.000177702
6 *851:A *735:A0 0.000284386
*RES
1 *840:X *735:A0 8.255 
*END

*D_NET *144 0.000782054
*CONN
*I *780:D I *D sky130_fd_sc_hd__dfrtp_1
*I *851:X O *D sky130_fd_sc_hd__dlygate4sd3_1
*CAP
1 *780:D 0.000198643
2 *851:X 0.000198643
3 *780:D *735:A1 1.03423e-05
4 *780:D *197:94 5.51245e-05
5 *654:A1 *780:D 0.000141599
6 *735:A0 *780:D 0.000177702
*RES
1 *851:X *780:D 11.355 
*END

*D_NET *145 0.000460374
*CONN
*I *677:A0 I *D sky130_fd_sc_hd__mux2_1
*I *854:X O *D sky130_fd_sc_hd__dlygate4sd3_1
*CAP
1 *677:A0 0.000193691
2 *854:X 0.000193691
3 *677:A0 *677:A1 4.99619e-05
4 *677:S *677:A0 2.30292e-05
*RES
1 *854:X *677:A0 6.41 
*END

*D_NET *146 0.000601214
*CONN
*I *744:D I *D sky130_fd_sc_hd__dfrtp_1
*I *855:X O *D sky130_fd_sc_hd__dlygate4sd3_1
*CAP
1 *744:D 0.000209647
2 *855:X 0.000209647
3 *744:D *224:25 0
4 *677:S *744:D 0.000143266
5 *855:A *744:D 3.86529e-05
6 *137:10 *744:D 0
*RES
1 *855:X *744:D 11.07 
*END

*D_NET *147 0.0010287
*CONN
*I *676:A0 I *D sky130_fd_sc_hd__mux2_1
*I *856:X O *D sky130_fd_sc_hd__dlygate4sd3_1
*CAP
1 *676:A0 0.0002005
2 *856:X 0.0002005
3 *676:A0 *743:D 0.0001249
4 *664:C1 *676:A0 0.000502803
*RES
1 *856:X *676:A0 7.79 
*END

*D_NET *148 0.000632486
*CONN
*I *743:D I *D sky130_fd_sc_hd__dfrtp_1
*I *857:X O *D sky130_fd_sc_hd__dlygate4sd3_1
*CAP
1 *743:D 0.000215744
2 *857:X 0.000215744
3 *743:D *675:A0 7.60965e-05
4 *743:D *742:D 0
5 *655:C1 *743:D 0
6 *676:A0 *743:D 0.0001249
*RES
1 *857:X *743:D 10.605 
*END

*D_NET *149 0.00206712
*CONN
*I *733:A1 I *D sky130_fd_sc_hd__mux2_1
*I *732:A0 I *D sky130_fd_sc_hd__mux2_1
*I *808:X O *D sky130_fd_sc_hd__dlygate4sd3_1
*CAP
1 *733:A1 3.38648e-05
2 *732:A0 0.000231657
3 *808:X 0.000188626
4 *149:8 0.000454148
5 *732:A0 *638:B1 0
6 *732:A0 *732:A1 3.09233e-05
7 *732:A0 *733:S 0.000423626
8 *732:A0 *196:73 0
9 *732:A0 *196:79 3.96737e-05
10 *732:A0 *196:97 0
11 *732:A0 *221:21 0.000499351
12 *733:A1 *733:A0 4.82919e-05
13 *149:8 *808:A 0
14 *638:C1 *732:A0 0
15 *644:A *732:A0 5.16418e-05
16 *778:D *732:A0 0
17 *786:A *732:A0 6.08733e-05
18 *809:A *732:A0 4.43871e-06
*RES
1 *808:X *149:8 6.51 
2 *149:8 *732:A0 14.44 
3 *149:8 *733:A1 4.05 
*END

*D_NET *150 0.000331797
*CONN
*I *759:D I *D sky130_fd_sc_hd__dfrtp_1
*I *860:X O *D sky130_fd_sc_hd__clkbuf_1
*CAP
1 *759:D 0.000141339
2 *860:X 0.000141339
3 *759:CLK *759:D 4.91189e-05
*RES
1 *860:X *759:D 9.375 
*END

*D_NET *151 0.000702565
*CONN
*I *777:D I *D sky130_fd_sc_hd__dfrtp_1
*I *809:X O *D sky130_fd_sc_hd__dlygate4sd3_1
*CAP
1 *777:D 0.000247222
2 *809:X 0.000247222
3 *777:D *843:A 0
4 *777:D *196:97 0.000198618
5 *755:D *777:D 0
6 *777:RESET_B *777:D 9.50342e-06
7 *778:RESET_B *777:D 0
*RES
1 *809:X *777:D 10.92 
*END

*D_NET *152 0.00348255
*CONN
*I *734:A1 I *D sky130_fd_sc_hd__mux2_1
*I *733:A0 I *D sky130_fd_sc_hd__mux2_1
*I *810:X O *D sky130_fd_sc_hd__dlygate4sd3_1
*CAP
1 *734:A1 0.000720848
2 *733:A0 0.000288117
3 *810:X 0
4 *152:4 0.00100896
5 *733:A0 *709:A1 7.60965e-05
6 *733:A0 *733:S 1.91597e-05
7 *733:A0 *752:D 0
8 *733:A0 *221:21 9.27255e-06
9 *734:A1 *646:B1 0.000227261
10 *734:A1 *709:A0 0.000124007
11 *734:A1 *709:S 0.000125425
12 *734:A1 *734:A0 3.00381e-05
13 *734:A1 *233:8 0.000110365
14 *644:A *733:A0 0.000239813
15 *677:S *734:A1 4.75576e-05
16 *733:A1 *733:A0 4.82919e-05
17 *744:CLK *734:A1 4.75576e-05
18 *802:A *734:A1 0.0001249
19 *127:123 *734:A1 4.43871e-06
20 *137:21 *734:A1 0.000230435
*RES
1 *810:X *152:4 1.6 
2 *152:4 *733:A0 10.985 
3 *152:4 *734:A1 17.75 
*END

*D_NET *153 0.000985243
*CONN
*I *706:A1 I *D sky130_fd_sc_hd__o21a_1
*I *811:X O *D sky130_fd_sc_hd__dlygate4sd3_1
*CAP
1 *706:A1 0.000250582
2 *811:X 0.000250582
3 *699:A1 *706:A1 6.55406e-05
4 *706:B1 *706:A1 0.000300012
5 *746:D *706:A1 0.000118527
*RES
1 *811:X *706:A1 13.17 
*END

*D_NET *154 0.00114447
*CONN
*I *729:A1 I *D sky130_fd_sc_hd__mux2_1
*I *728:A I *D sky130_fd_sc_hd__or2_1
*I *812:X O *D sky130_fd_sc_hd__dlygate4sd3_1
*CAP
1 *729:A1 8.80831e-05
2 *728:A 0.000100723
3 *812:X 9.67471e-05
4 *154:6 0.000285553
5 *728:A *633:A 0
6 *728:A *194:37 6.9451e-05
7 *729:A1 *729:A0 4.82919e-05
8 *729:A1 *812:A 0.000163199
9 *729:A1 *194:37 0.000198046
10 *773:D *728:A 0
11 *774:D *729:A1 2.7441e-05
12 *774:D *154:6 6.69341e-05
13 *124:22 *728:A 0
*RES
1 *812:X *154:6 3.43 
2 *154:6 *728:A 7.745 
3 *154:6 *729:A1 4.465 
*END

*D_NET *155 0.00052789
*CONN
*I *734:A0 I *D sky130_fd_sc_hd__mux2_1
*I *813:X O *D sky130_fd_sc_hd__dlygate4sd3_1
*CAP
1 *734:A0 0.00017129
2 *813:X 0.00017129
3 *734:A0 *709:S 0.000124895
4 *664:B1 *734:A0 3.03775e-05
5 *734:A1 *734:A0 3.00381e-05
*RES
1 *813:X *734:A0 6.41 
*END

*D_NET *156 0.00163826
*CONN
*I *675:A0 I *D sky130_fd_sc_hd__mux2_1
*I *814:X O *D sky130_fd_sc_hd__dlygate4sd3_1
*CAP
1 *675:A0 0.000347091
2 *814:X 0.000347091
3 *675:A0 *653:A2_N 3.19654e-05
4 *675:A0 *814:A 0.000160635
5 *655:C1 *675:A0 0.000392909
6 *743:CLK *675:A0 0.000141323
7 *743:D *675:A0 7.60965e-05
8 *743:RESET_B *675:A0 1.62441e-05
9 *138:81 *675:A0 0.0001249
*RES
1 *814:X *675:A0 12.635 
*END

*D_NET *157 0.00125273
*CONN
*I *742:D I *D sky130_fd_sc_hd__dfrtp_1
*I *815:X O *D sky130_fd_sc_hd__dlygate4sd3_1
*CAP
1 *742:D 0.00038598
2 *815:X 0.00038598
3 *742:D *662:A 7.89269e-05
4 *742:D *797:A 8.39681e-05
5 *742:D *197:94 0.000114492
6 *742:D *223:18 0.000157602
7 *655:C1 *742:D 0
8 *743:D *742:D 0
9 *815:A *742:D 4.5783e-05
*RES
1 *815:X *742:D 14.49 
*END

*D_NET *158 0.00151547
*CONN
*I *730:A1 I *D sky130_fd_sc_hd__mux2_1
*I *729:A0 I *D sky130_fd_sc_hd__mux2_1
*I *816:X O *D sky130_fd_sc_hd__dlygate4sd3_1
*CAP
1 *730:A1 0.000142544
2 *729:A0 5.31275e-05
3 *816:X 0.000138456
4 *158:12 0.000334127
5 *729:A0 *194:24 4.82863e-05
6 *729:A0 *194:37 1.60203e-05
7 *730:A1 *730:A0 4.89295e-05
8 *730:A1 *194:24 0.000500904
9 *158:12 *633:A 1.83756e-05
10 *158:12 *229:10 0
11 *729:A1 *729:A0 4.82919e-05
12 *775:D *730:A1 0.000115108
13 *133:22 *158:12 5.13029e-05
*RES
1 *816:X *158:12 7.685 
2 *158:12 *729:A0 2.74 
3 *158:12 *730:A1 6.19 
*END

*D_NET *159 0.0039213
*CONN
*I *731:A1 I *D sky130_fd_sc_hd__mux2_1
*I *730:A0 I *D sky130_fd_sc_hd__mux2_1
*I *817:X O *D sky130_fd_sc_hd__dlygate4sd3_1
*CAP
1 *731:A1 0.000743711
2 *730:A0 0.000328209
3 *817:X 0
4 *159:4 0.00107192
5 *730:A0 *642:B1 0
6 *730:A0 *817:A 4.8854e-05
7 *730:A0 *161:37 0
8 *730:A0 *194:22 0.000125369
9 *730:A0 *194:24 2.26739e-05
10 *730:A0 *230:10 0
11 *731:A1 *660:A1 0.000474453
12 *731:A1 *666:A 0
13 *731:A1 *731:A0 7.23602e-05
14 *731:A1 *161:37 8.5225e-05
15 *731:A1 *194:22 0.000138808
16 *731:A1 *213:10 0
17 *643:C1 *731:A1 7.21296e-06
18 *658:B2 *731:A1 0
19 *668:B1 *731:A1 7.26551e-05
20 *668:C1 *731:A1 5.92849e-05
21 *670:C *731:A1 9.23473e-05
22 *730:A1 *730:A0 4.89295e-05
23 *764:RESET_B *731:A1 0.00048729
24 *766:CLK *730:A0 0
25 *766:CLK *731:A1 4.19967e-05
26 *786:A *731:A1 0
27 *788:A *731:A1 0
28 *134:36 *731:A1 0
*RES
1 *817:X *159:4 1.6 
2 *159:4 *730:A0 10.97 
3 *159:4 *731:A1 22.925 
*END

*D_NET *160 0.000396627
*CONN
*I *731:A0 I *D sky130_fd_sc_hd__mux2_1
*I *819:X O *D sky130_fd_sc_hd__dlygate4sd3_1
*CAP
1 *731:A0 8.22686e-05
2 *819:X 8.22686e-05
3 *670:C *731:A0 7.4027e-05
4 *731:A1 *731:A0 7.23602e-05
5 *760:RESET_B *731:A0 8.57024e-05
*RES
1 *819:X *731:A0 8.865 
*END

*D_NET *161 0.00528821
*CONN
*I *861:A I *D sky130_fd_sc_hd__buf_2
*I *722:A1 I *D sky130_fd_sc_hd__mux2_1
*I *660:A1 I *D sky130_fd_sc_hd__a211o_1
*I *658:A1 I *D sky130_fd_sc_hd__o22ai_1
*I *725:A0 I *D sky130_fd_sc_hd__mux2_1
*I *770:Q O *D sky130_fd_sc_hd__dfrtp_1
*CAP
1 *861:A 0
2 *722:A1 0
3 *660:A1 0.000234384
4 *658:A1 6.27603e-05
5 *725:A0 0
6 *770:Q 0.000266672
7 *161:37 0.000583845
8 *161:31 0.000362549
9 *161:18 0.000604359
10 *161:12 0.000795183
11 *161:18 *194:14 1.94892e-05
12 *161:31 *722:A0 7.49327e-05
13 *161:31 *722:S 4.99619e-05
14 *161:31 *194:14 3.98952e-05
15 *161:37 *722:A0 4.82919e-05
16 *161:37 *722:S 3.74161e-05
17 *161:37 *194:22 0.000386221
18 num_to_send_o[0] *161:18 5.05521e-05
19 *634:A *161:12 0
20 *658:B2 *658:A1 8.07175e-05
21 *660:B1 *660:A1 0.000839999
22 *660:B1 *161:37 0.000100162
23 *672:A_N *161:18 0
24 *730:A0 *161:37 0
25 *731:A1 *660:A1 0.000474453
26 *731:A1 *161:37 8.5225e-05
27 *766:CLK *161:37 0
28 *770:CLK *161:18 0
29 *770:RESET_B *161:18 0
30 *785:D *161:18 0
31 *858:A *161:12 2.97004e-06
32 *129:14 *161:18 1.94892e-05
33 *129:27 *161:18 2.46007e-05
34 *129:27 *161:31 4.40812e-05
35 *134:36 *161:18 0
*RES
1 *770:Q *161:12 9.755 
2 *161:12 *161:18 10.475 
3 *161:18 *725:A0 3.6 
4 *161:18 *161:31 4.175 
5 *161:31 *161:37 8.555 
6 *161:37 *658:A1 4.755 
7 *161:37 *660:A1 13.395 
8 *161:31 *722:A1 1.6 
9 *161:12 *861:A 1.6 
*END

*D_NET *162 0.00122533
*CONN
*I *719:A0 I *D sky130_fd_sc_hd__mux2_1
*I *716:A1 I *D sky130_fd_sc_hd__mux2_1
*I *820:X O *D sky130_fd_sc_hd__dlygate4sd3_1
*CAP
1 *719:A0 0
2 *716:A1 0.000117204
3 *820:X 0.000131427
4 *162:6 0.000248631
5 *716:A1 *820:A 7.06865e-05
6 *669:D *716:A1 4.82863e-05
7 *669:D *162:6 0.000188063
8 *129:38 *716:A1 0.000295393
9 *131:21 *716:A1 0.000125634
*RES
1 *820:X *162:6 3.43 
2 *162:6 *716:A1 9.47 
3 *162:6 *719:A0 1.6 
*END

*D_NET *163 0.000421111
*CONN
*I *763:D I *D sky130_fd_sc_hd__dfrtp_1
*I *821:X O *D sky130_fd_sc_hd__dlygate4sd3_1
*CAP
1 *763:D 0.000127497
2 *821:X 0.000127497
3 *763:D *199:16 5.7838e-05
4 *763:CLK *763:D 2.16833e-05
5 *821:A *763:D 8.65961e-05
*RES
1 *821:X *763:D 5.375 
*END

*D_NET *164 0.00157269
*CONN
*I *707:A0 I *D sky130_fd_sc_hd__mux2_1
*I *822:X O *D sky130_fd_sc_hd__dlygate4sd3_1
*CAP
1 *707:A0 0.00034332
2 *822:X 0.00034332
3 *707:A0 *707:A1 8.8266e-05
4 *707:A0 *707:S 0.000456274
5 *707:A0 *822:A 0.000277223
6 *823:A *707:A0 4.12557e-05
7 *127:20 *707:A0 2.30292e-05
*RES
1 *822:X *707:A0 11.99 
*END

*D_NET *165 0.000367765
*CONN
*I *750:D I *D sky130_fd_sc_hd__dfrtp_1
*I *823:X O *D sky130_fd_sc_hd__dlygate4sd3_1
*CAP
1 *750:D 0.000114092
2 *823:X 0.000114092
3 *750:D *797:A 0
4 *750:D *822:A 0.000139582
*RES
1 *823:X *750:D 9.12 
*END

*D_NET *166 0.00189128
*CONN
*I *713:A1 I *D sky130_fd_sc_hd__mux2_1
*I *716:A0 I *D sky130_fd_sc_hd__mux2_1
*I *824:X O *D sky130_fd_sc_hd__dlygate4sd3_1
*CAP
1 *713:A1 6.16199e-05
2 *716:A0 0.000252017
3 *824:X 0.000104685
4 *166:8 0.000418322
5 *713:A1 *713:S 0
6 *753:CLK *713:A1 0
7 *753:CLK *716:A0 0
8 *81:18 *166:8 0.000163204
9 *115:18 *716:A0 8.8266e-05
10 *129:55 *716:A0 9.30717e-05
11 *130:56 *716:A0 2.05583e-05
12 *130:80 *713:A1 0.000108322
13 *130:80 *716:A0 0.000404416
14 *131:21 *716:A0 0.000176795
*RES
1 *824:X *166:8 5.085 
2 *166:8 *716:A0 10.62 
3 *166:8 *713:A1 4.98 
*END

*D_NET *167 0.00192888
*CONN
*I *710:A1 I *D sky130_fd_sc_hd__mux2_1
*I *713:A0 I *D sky130_fd_sc_hd__mux2_1
*I *825:X O *D sky130_fd_sc_hd__dlygate4sd3_1
*CAP
1 *710:A1 0.000149966
2 *713:A0 0.000351133
3 *825:X 7.03174e-05
4 *167:8 0.000571417
5 *710:A1 *710:A0 4.99619e-05
6 *710:A1 *197:8 5.05521e-05
7 *710:A1 *197:34 0.000184234
8 *713:A0 *713:S 7.35729e-05
9 *670:D *713:A0 7.54821e-05
10 *753:D *713:A0 6.97202e-05
11 *129:55 *713:A0 0.000141606
12 *129:64 *713:A0 9.50342e-06
13 *129:64 *167:8 0.000131408
*RES
1 *825:X *167:8 5.235 
2 *167:8 *713:A0 9.825 
3 *167:8 *710:A1 7.155 
*END

*D_NET *168 0.000462475
*CONN
*I *708:A0 I *D sky130_fd_sc_hd__mux2_1
*I *826:X O *D sky130_fd_sc_hd__dlygate4sd3_1
*CAP
1 *708:A0 0.000111778
2 *826:X 0.000111778
3 *780:RESET_B *708:A0 0.000238919
*RES
1 *826:X *708:A0 5.375 
*END

*D_NET *169 0.000406615
*CONN
*I *751:D I *D sky130_fd_sc_hd__dfrtp_1
*I *827:X O *D sky130_fd_sc_hd__dlygate4sd3_1
*CAP
1 *751:D 0.000138491
2 *827:X 0.000138491
3 *751:D *646:B1 0
4 *827:A *751:D 4.65565e-05
5 *132:22 *751:D 7.35729e-05
6 *137:43 *751:D 9.50342e-06
*RES
1 *827:X *751:D 9.465 
*END

*D_NET *170 0.00056661
*CONN
*I *709:A0 I *D sky130_fd_sc_hd__mux2_1
*I *828:X O *D sky130_fd_sc_hd__dlygate4sd3_1
*CAP
1 *709:A0 8.3198e-05
2 *828:X 8.3198e-05
3 *709:A0 *709:S 7.58604e-05
4 *709:A0 *224:25 6.11019e-05
5 *734:A1 *709:A0 0.000124007
6 *137:10 *709:A0 0.000139245
*RES
1 *828:X *709:A0 9.975 
*END

*D_NET *171 0.000658113
*CONN
*I *752:D I *D sky130_fd_sc_hd__dfrtp_1
*I *830:X O *D sky130_fd_sc_hd__dlygate4sd3_1
*CAP
1 *752:D 0.000228561
2 *830:X 0.000228561
3 *752:D *646:B1 0
4 *752:D *709:A1 7.60965e-05
5 *733:A0 *752:D 0
6 *752:CLK *752:D 0.000124895
7 *802:A *752:D 0
8 *830:A *752:D 0
9 *137:10 *752:D 0
*RES
1 *830:X *752:D 11.505 
*END

*D_NET *172 0.00586162
*CONN
*I *659:A1 I *D sky130_fd_sc_hd__a221o_1
*I *726:A0 I *D sky130_fd_sc_hd__mux2_1
*I *723:A1 I *D sky130_fd_sc_hd__mux2_1
*I *862:A I *D sky130_fd_sc_hd__buf_2
*I *658:B1 I *D sky130_fd_sc_hd__o22ai_1
*I *771:Q O *D sky130_fd_sc_hd__dfrtp_1
*CAP
1 *659:A1 0.000189966
2 *726:A0 0
3 *723:A1 0
4 *862:A 0.000628821
5 *658:B1 5.06721e-05
6 *771:Q 5.74818e-05
7 *172:41 0.00116072
8 *172:33 0.000596706
9 *172:27 0.000569231
10 *172:8 0.000422616
11 *659:A1 *642:B1 0.000160658
12 *862:A *723:A0 2.75229e-05
13 *862:A *724:A0 0
14 *172:8 *667:B1 8.65905e-05
15 *172:27 *666:B 6.84815e-05
16 *172:27 *720:A1 0.000114753
17 *172:27 *720:S 8.35106e-05
18 *172:27 *726:A1 0.000154646
19 *172:27 *764:D 0.000118679
20 *172:33 *720:S 6.30772e-05
21 *172:33 *726:A1 6.65544e-05
22 *172:33 *726:S 9.13949e-06
23 *172:33 *194:74 4.8854e-05
24 *172:41 *723:A0 0.000111285
25 *172:41 *208:12 4.80182e-05
26 *172:41 *208:21 6.02297e-05
27 *659:A2 *659:A1 0.000104041
28 *659:B2 *659:A1 1.37328e-05
29 *659:C1 *659:A1 0
30 *659:C1 *172:41 4.19513e-05
31 *660:B1 *658:B1 9.5433e-05
32 *660:B1 *172:27 0.000245727
33 *767:D *862:A 1.04258e-05
34 *772:CLK *862:A 0.000169591
35 *772:D *862:A 0.000120186
36 *787:A *172:27 0.000162318
*RES
1 *771:Q *172:8 4.395 
2 *172:8 *658:B1 4.725 
3 *172:8 *172:27 11.405 
4 *172:27 *172:33 1.95 
5 *172:33 *172:41 11.005 
6 *172:41 *862:A 15.305 
7 *172:41 *723:A1 1.6 
8 *172:33 *726:A0 1.6 
9 *172:27 *659:A1 9.335 
*END

*D_NET *173 0.00163033
*CONN
*I *715:A1 I *D sky130_fd_sc_hd__mux2_1
*I *718:A0 I *D sky130_fd_sc_hd__mux2_1
*I *831:X O *D sky130_fd_sc_hd__dlygate4sd3_1
*CAP
1 *715:A1 0.000336053
2 *718:A0 0.000114138
3 *831:X 0
4 *173:4 0.000450191
5 *715:A1 *757:D 0
6 *715:A1 *833:A 0
7 *715:A1 *215:8 4.05358e-05
8 *718:A0 *718:A1 0.000122325
9 *718:A0 *718:S 8.40269e-05
10 *636:A *715:A1 0.000173199
11 *758:D *715:A1 0
12 *758:RESET_B *715:A1 7.67036e-05
13 *800:A *715:A1 0.000226147
14 *832:A *718:A0 7.00889e-06
*RES
1 *831:X *173:4 1.6 
2 *173:4 *718:A0 4.045 
3 *173:4 *715:A1 13.1 
*END

*D_NET *174 0.000441364
*CONN
*I *762:D I *D sky130_fd_sc_hd__dfrtp_1
*I *832:X O *D sky130_fd_sc_hd__dlygate4sd3_1
*CAP
1 *762:D 0.000183896
2 *832:X 0.000183896
3 *832:A *762:D 0
4 *125:51 *762:D 0
5 *125:62 *762:D 7.35729e-05
6 *125:76 *762:D 0
*RES
1 *832:X *762:D 10.23 
*END

*D_NET *175 0.0010897
*CONN
*I *712:A1 I *D sky130_fd_sc_hd__mux2_1
*I *715:A0 I *D sky130_fd_sc_hd__mux2_1
*I *833:X O *D sky130_fd_sc_hd__dlygate4sd3_1
*CAP
1 *712:A1 0
2 *715:A0 0.000301316
3 *833:X 0.000123907
4 *175:12 0.000425222
5 *715:A0 *712:A0 4.77719e-05
6 *715:A0 *715:S 0.00019148
7 *175:12 *833:A 0
*RES
1 *833:X *175:12 7.175 
2 *175:12 *715:A0 6.88 
3 *175:12 *712:A1 1.6 
*END

*D_NET *176 0.00180836
*CONN
*I *721:A1 I *D sky130_fd_sc_hd__mux2_1
*I *724:A0 I *D sky130_fd_sc_hd__mux2_1
*I *834:X O *D sky130_fd_sc_hd__dlygate4sd3_1
*CAP
1 *721:A1 0.000131611
2 *724:A0 0.000136097
3 *834:X 0.000241521
4 *176:8 0.000509229
5 *724:A0 *724:A1 4.82863e-05
6 *724:A0 *724:S 5.16418e-05
7 *768:RESET_B *176:8 4.24575e-05
8 *835:A *721:A1 0.000108329
9 *835:A *724:A0 0.000201088
10 *862:A *724:A0 0
11 *132:53 *721:A1 7.5431e-05
12 *132:59 *721:A1 4.40899e-05
13 *132:59 *724:A0 9.36786e-05
14 *133:8 *176:8 0.0001249
*RES
1 *834:X *176:8 6.465 
2 *176:8 *724:A0 7.56 
3 *176:8 *721:A1 7.02 
*END

*D_NET *177 0.000352338
*CONN
*I *768:D I *D sky130_fd_sc_hd__dfrtp_1
*I *835:X O *D sky130_fd_sc_hd__dlygate4sd3_1
*CAP
1 *768:D 0.000113395
2 *835:X 0.000113395
3 *768:CLK *768:D 3.89528e-05
4 *835:A *768:D 0
5 *125:20 *768:D 8.65961e-05
*RES
1 *835:X *768:D 9.12 
*END

*D_NET *178 0.00221396
*CONN
*I *711:A1 I *D sky130_fd_sc_hd__mux2_1
*I *714:A0 I *D sky130_fd_sc_hd__mux2_1
*I *836:X O *D sky130_fd_sc_hd__dlygate4sd3_1
*CAP
1 *711:A1 0.000519667
2 *714:A0 0.000180605
3 *836:X 3.83566e-05
4 *178:10 0.000738629
5 *711:A1 *711:A0 4.99619e-05
6 *714:A0 *714:A1 0.00023178
7 *714:A0 *718:S 2.20014e-05
8 *178:10 *732:A1 9.54469e-05
9 *178:10 *196:73 3.68769e-05
10 *754:D *711:A1 8.8266e-05
11 *132:49 *711:A1 0.000187305
12 *132:49 *714:A0 2.50702e-05
*RES
1 *836:X *178:10 6.725 
2 *178:10 *714:A0 4.81 
3 *178:10 *711:A1 9.985 
*END

*D_NET *179 0.000488842
*CONN
*I *757:D I *D sky130_fd_sc_hd__dfrtp_1
*I *837:X O *D sky130_fd_sc_hd__dlygate4sd3_1
*CAP
1 *757:D 9.45124e-05
2 *837:X 9.45124e-05
3 *757:D *215:8 0
4 *715:A1 *757:D 0
5 *754:CLK *757:D 6.35284e-05
6 *125:62 *757:D 2.75229e-05
7 *135:28 *757:D 4.94326e-05
8 *138:25 *757:D 0.000159333
*RES
1 *837:X *757:D 9.81 
*END

*D_NET *180 0.000339254
*CONN
*I *711:A0 I *D sky130_fd_sc_hd__mux2_1
*I *838:X O *D sky130_fd_sc_hd__dlygate4sd3_1
*CAP
1 *711:A0 0.000144646
2 *838:X 0.000144646
3 *711:A1 *711:A0 4.99619e-05
*RES
1 *838:X *711:A0 5.375 
*END

*D_NET *181 0.000306108
*CONN
*I *721:A0 I *D sky130_fd_sc_hd__mux2_1
*I *839:X O *D sky130_fd_sc_hd__dlygate4sd3_1
*CAP
1 *721:A0 0.000110203
2 *839:X 0.000110203
3 *721:A0 *721:S 8.57024e-05
*RES
1 *839:X *721:A0 5.03 
*END

*D_NET *182 0.000476449
*CONN
*I *717:A0 I *D sky130_fd_sc_hd__mux2_1
*I *841:X O *D sky130_fd_sc_hd__dlygate4sd3_1
*CAP
1 *717:A0 0.000107661
2 *841:X 0.000107661
3 *717:A0 *717:A1 4.77719e-05
4 *717:A0 *717:S 0.000161984
5 *842:A *717:A0 5.13714e-05
*RES
1 *841:X *717:A0 5.72 
*END

*D_NET *183 0.00195804
*CONN
*I *657:A I *D sky130_fd_sc_hd__or2_1
*I *656:A I *D sky130_fd_sc_hd__nand2_1
*I *863:A I *D sky130_fd_sc_hd__buf_2
*I *724:A1 I *D sky130_fd_sc_hd__mux2_1
*I *849:A I *D sky130_fd_sc_hd__dlygate4sd3_1
*I *772:Q O *D sky130_fd_sc_hd__dfrtp_1
*CAP
1 *657:A 0.00013315
2 *656:A 7.05758e-05
3 *863:A 0
4 *724:A1 0.000139627
5 *849:A 9.14096e-05
6 *772:Q 0
7 *183:25 0.000185761
8 *183:21 0.00014879
9 *183:6 0.00012349
10 *183:4 0.00013315
11 *849:A *194:74 8.40269e-05
12 *659:B1 *656:A 1.16578e-05
13 *665:A *656:A 4.87263e-05
14 *724:A0 *724:A1 4.82863e-05
15 *727:A1 *849:A 0.000256771
16 *835:A *724:A1 4.9253e-06
17 *132:59 *656:A 2.49909e-05
18 *132:59 *724:A1 0.000124007
19 *132:59 *183:25 2.05056e-05
20 *132:61 *656:A 5.4155e-06
21 *132:61 *183:25 5.4155e-06
22 *132:65 *849:A 2.14129e-05
23 *132:65 *183:21 9.37731e-05
24 *133:18 *849:A 1.71013e-05
25 *133:18 *183:21 4.84393e-05
26 *133:20 *849:A 0.000116629
*RES
1 *772:Q *183:4 1.6 
2 *183:4 *183:6 2 
3 *183:6 *849:A 7.05 
4 *183:6 *183:21 3.125 
5 *183:21 *183:25 0.81 
6 *183:25 *724:A1 4.12 
7 *183:25 *863:A 1.6 
8 *183:21 *656:A 3.1 
9 *183:4 *657:A 3.1 
*END

*D_NET *184 0.00136041
*CONN
*I *761:D I *D sky130_fd_sc_hd__dfrtp_1
*I *842:X O *D sky130_fd_sc_hd__dlygate4sd3_1
*CAP
1 *761:D 0.000334875
2 *842:X 0.000334875
3 *761:RESET_B *761:D 0.000208477
4 *135:28 *761:D 0.000365327
5 *135:30 *761:D 0.00011686
*RES
1 *842:X *761:D 14.955 
*END

*D_NET *185 0.000511265
*CONN
*I *712:A0 I *D sky130_fd_sc_hd__mux2_1
*I *843:X O *D sky130_fd_sc_hd__dlygate4sd3_1
*CAP
1 *712:A0 0.000205238
2 *843:X 0.000205238
3 *712:A0 *715:S 2.33708e-05
4 *712:A0 *843:A 0
5 *712:A0 *196:97 2.96468e-05
6 *715:A0 *712:A0 4.77719e-05
*RES
1 *843:X *712:A0 9.9 
*END

*D_NET *186 0.000403774
*CONN
*I *720:A0 I *D sky130_fd_sc_hd__mux2_1
*I *844:X O *D sky130_fd_sc_hd__dlygate4sd3_1
*CAP
1 *720:A0 5.17524e-05
2 *844:X 5.17524e-05
3 *720:A0 *720:A1 0.000121019
4 *720:A0 *720:S 5.06989e-05
5 *720:A0 *211:24 8.23457e-05
6 *659:A2 *720:A0 2.20014e-05
7 *115:41 *720:A0 2.42043e-05
*RES
1 *844:X *720:A0 5.03 
*END

*D_NET *187 0.000943918
*CONN
*I *764:D I *D sky130_fd_sc_hd__dfrtp_1
*I *845:X O *D sky130_fd_sc_hd__dlygate4sd3_1
*CAP
1 *764:D 0.000245864
2 *845:X 0.000245864
3 *764:D *720:A1 0.00015829
4 *764:D *211:24 4.50017e-05
5 *787:A *764:D 0.000130219
6 *172:27 *764:D 0.000118679
*RES
1 *845:X *764:D 11.9888 
*END

*D_NET *188 0.000345719
*CONN
*I *710:A0 I *D sky130_fd_sc_hd__mux2_1
*I *846:X O *D sky130_fd_sc_hd__dlygate4sd3_1
*CAP
1 *710:A0 9.45734e-05
2 *846:X 9.45734e-05
3 *710:A0 *846:A 5.83121e-06
4 *710:A0 *197:34 2.96334e-05
5 *710:A0 *197:45 2.45351e-05
6 *670:D *710:A0 4.66108e-05
7 *710:A1 *710:A0 4.99619e-05
*RES
1 *846:X *710:A0 5.03 
*END

*D_NET *189 0.000512829
*CONN
*I *722:A0 I *D sky130_fd_sc_hd__mux2_1
*I *847:X O *D sky130_fd_sc_hd__dlygate4sd3_1
*CAP
1 *722:A0 0.000194802
2 *847:X 0.000194802
3 *161:31 *722:A0 7.49327e-05
4 *161:37 *722:A0 4.82919e-05
*RES
1 *847:X *722:A0 6.065 
*END

*D_NET *190 0.000357152
*CONN
*I *723:A0 I *D sky130_fd_sc_hd__mux2_1
*I *848:X O *D sky130_fd_sc_hd__dlygate4sd3_1
*CAP
1 *723:A0 8.3896e-05
2 *848:X 8.3896e-05
3 *723:A0 *723:S 5.05521e-05
4 *862:A *723:A0 2.75229e-05
5 *172:41 *723:A0 0.000111285
*RES
1 *848:X *723:A0 5.375 
*END

*D_NET *191 0.000368033
*CONN
*I *727:A0 I *D sky130_fd_sc_hd__mux2_1
*I *849:X O *D sky130_fd_sc_hd__dlygate4sd3_1
*CAP
1 *727:A0 0.000102861
2 *849:X 0.000102861
3 *727:A1 *727:A0 0.000162311
*RES
1 *849:X *727:A0 5.03 
*END

*D_NET *192 0.00236385
*CONN
*I *692:A1 I *D sky130_fd_sc_hd__o22a_1
*I *725:A1 I *D sky130_fd_sc_hd__mux2_1
*I *850:X O *D sky130_fd_sc_hd__dlygate4sd3_1
*CAP
1 *692:A1 0
2 *725:A1 0.00045202
3 *850:X 0.000257488
4 *192:10 0.000709507
5 *725:A1 *674:A 6.73751e-05
6 *725:A1 *725:S 9.53428e-06
7 *725:A1 *194:6 1.46744e-05
8 *725:A1 *194:14 3.00381e-05
9 *725:A1 *198:10 0.000124007
10 *192:10 *198:10 0
11 *671:B1 *192:10 9.93004e-05
12 *692:A2 *725:A1 0.000187766
13 *692:A2 *192:10 3.25831e-05
14 *794:A *725:A1 4.36241e-05
15 *804:A *725:A1 0.000239813
16 *129:14 *725:A1 9.61248e-05
*RES
1 *850:X *192:10 7.41 
2 *192:10 *725:A1 13.23 
3 *192:10 *692:A1 3.6 
*END

*D_NET *193 0.000362132
*CONN
*I *630:A I *D sky130_fd_sc_hd__inv_2
*I *852:X O *D sky130_fd_sc_hd__dlygate4sd3_1
*CAP
1 *630:A 0.000181066
2 *852:X 0.000181066
3 *630:A *205:10 0
*RES
1 *852:X *630:A 9.63 
*END

*D_NET *194 0.00848177
*CONN
*I *725:S I *D sky130_fd_sc_hd__mux2_1
*I *722:S I *D sky130_fd_sc_hd__mux2_1
*I *730:S I *D sky130_fd_sc_hd__mux2_1
*I *724:S I *D sky130_fd_sc_hd__mux2_1
*I *720:S I *D sky130_fd_sc_hd__mux2_1
*I *726:S I *D sky130_fd_sc_hd__mux2_1
*I *727:S I *D sky130_fd_sc_hd__mux2_1
*I *723:S I *D sky130_fd_sc_hd__mux2_1
*I *728:B I *D sky130_fd_sc_hd__or2_1
*I *729:S I *D sky130_fd_sc_hd__mux2_1
*I *804:X O *D sky130_fd_sc_hd__clkbuf_4
*CAP
1 *725:S 1.85694e-05
2 *722:S 3.54832e-05
3 *730:S 0
4 *724:S 0.000250825
5 *720:S 0.00027343
6 *726:S 1.8855e-05
7 *727:S 0
8 *723:S 6.61259e-05
9 *728:B 3.61979e-05
10 *729:S 0
11 *804:X 2.11198e-05
12 *194:74 0.000747236
13 *194:63 0.000454951
14 *194:61 0.000434616
15 *194:48 0.000469182
16 *194:37 0.000468236
17 *194:24 0.000441495
18 *194:22 0.000646212
19 *194:14 0.00056398
20 *194:6 0.000150696
21 *720:S *642:B1 0.000118527
22 *194:22 *817:A 8.52883e-05
23 *194:37 *633:A 6.73751e-05
24 num_to_send_o[2] *724:S 2.09527e-05
25 *659:A2 *720:S 5.6983e-05
26 *720:A0 *720:S 5.06989e-05
27 *723:A0 *723:S 5.05521e-05
28 *724:A0 *724:S 5.16418e-05
29 *725:A1 *725:S 9.53428e-06
30 *725:A1 *194:6 1.46744e-05
31 *725:A1 *194:14 3.00381e-05
32 *727:A1 *194:74 0.000152568
33 *728:A *194:37 6.9451e-05
34 *729:A0 *194:24 4.82863e-05
35 *729:A0 *194:37 1.60203e-05
36 *729:A1 *194:37 0.000198046
37 *730:A0 *194:22 0.000125369
38 *730:A0 *194:24 2.26739e-05
39 *730:A1 *194:24 0.000500904
40 *731:A1 *194:22 0.000138808
41 *766:D *194:22 5.30673e-05
42 *767:D *194:48 0
43 *772:D *724:S 0
44 *794:A *194:6 0.000124007
45 *794:A *194:14 0.000198945
46 *804:A *725:S 0
47 *804:A *194:6 8.65961e-05
48 *849:A *194:74 8.40269e-05
49 *129:14 *194:14 8.33824e-05
50 *132:59 *724:S 5.53249e-06
51 *133:18 *724:S 0
52 *133:20 *724:S 0
53 *133:20 *194:48 0
54 *133:20 *194:61 0
55 *133:22 *194:37 0
56 *133:22 *194:48 0
57 *134:36 *194:14 0.000183043
58 *161:18 *194:14 1.94892e-05
59 *161:31 *722:S 4.99619e-05
60 *161:31 *194:14 3.98952e-05
61 *161:37 *722:S 3.74161e-05
62 *161:37 *194:22 0.000386221
63 *172:27 *720:S 8.35106e-05
64 *172:33 *720:S 6.30772e-05
65 *172:33 *726:S 9.13949e-06
66 *172:33 *194:74 4.8854e-05
*RES
1 *804:X *194:6 2.74 
2 *194:6 *194:14 7.975 
3 *194:14 *194:22 9.21 
4 *194:22 *194:24 5.28 
5 *194:24 *729:S 1.6 
6 *194:24 *194:37 6.68 
7 *194:37 *728:B 4.05 
8 *194:37 *194:48 3.42 
9 *194:48 *723:S 4.755 
10 *194:48 *194:61 2.655 
11 *194:61 *194:63 2 
12 *194:63 *727:S 1.6 
13 *194:63 *194:74 7.125 
14 *194:74 *726:S 1.96 
15 *194:74 *720:S 10.655 
16 *194:61 *724:S 7.785 
17 *194:22 *730:S 1.6 
18 *194:14 *722:S 2.395 
19 *194:6 *725:S 1.96 
*END

*D_NET *195 0.00135283
*CONN
*I *673:B I *D sky130_fd_sc_hd__xor2_1
*I *853:X O *D sky130_fd_sc_hd__dlygate4sd3_1
*CAP
1 *673:B 0.000467419
2 *853:X 0.000467419
3 *673:B *205:66 0.000157595
4 *673:B *206:10 0
5 *684:B *673:B 0
6 *689:A2 *673:B 7.09921e-05
7 *136:20 *673:B 4.20983e-05
8 *136:22 *673:B 0.000115474
9 *136:47 *673:B 3.1835e-05
10 *136:53 *673:B 0
*RES
1 *853:X *673:B 16.125 
*END

*D_NET *196 0.0116192
*CONN
*I *712:S I *D sky130_fd_sc_hd__mux2_1
*I *715:S I *D sky130_fd_sc_hd__mux2_1
*I *733:S I *D sky130_fd_sc_hd__mux2_1
*I *732:S I *D sky130_fd_sc_hd__mux2_1
*I *714:S I *D sky130_fd_sc_hd__mux2_1
*I *718:S I *D sky130_fd_sc_hd__mux2_1
*I *717:S I *D sky130_fd_sc_hd__mux2_1
*I *721:S I *D sky130_fd_sc_hd__mux2_1
*I *731:S I *D sky130_fd_sc_hd__mux2_1
*I *805:X O *D sky130_fd_sc_hd__clkbuf_4
*CAP
1 *712:S 2.09808e-05
2 *715:S 0.000310932
3 *733:S 0.000135932
4 *732:S 0
5 *714:S 0
6 *718:S 0.000346389
7 *717:S 0.000165364
8 *721:S 0.000787579
9 *731:S 0.000150336
10 *805:X 2.89988e-05
11 *196:97 0.000636774
12 *196:79 0.000208218
13 *196:73 0.000557156
14 *196:51 0.000376678
15 *196:47 0.000275145
16 *196:12 0.0010361
17 *196:10 0.000300651
18 *196:8 0.000130947
19 *718:S *714:A1 8.64421e-05
20 *718:S *831:A 0.000163204
21 *731:S *214:8 7.23533e-05
22 *733:S *221:21 4.21973e-05
23 *196:8 *649:A 4.66108e-05
24 *196:10 *214:8 8.53113e-06
25 *196:10 *214:19 0.000154488
26 *196:12 *214:8 0.000405111
27 *196:47 *714:A1 0.000147397
28 *196:47 *214:19 4.9968e-05
29 *196:51 *714:A1 0.000121019
30 *196:73 *714:A1 2.92496e-05
31 *196:73 *732:A1 0
32 *196:73 *843:A 7.57315e-05
33 *196:79 *221:21 6.20088e-05
34 *196:97 *843:A 0.000300589
35 *638:C1 *733:S 0.000135652
36 *638:C1 *196:79 0.000237249
37 *644:A *733:S 4.82919e-05
38 *670:B *731:S 2.30292e-05
39 *712:A0 *715:S 2.33708e-05
40 *712:A0 *196:97 2.96468e-05
41 *714:A0 *718:S 2.20014e-05
42 *715:A0 *715:S 0.00019148
43 *717:A0 *717:S 0.000161984
44 *718:A0 *718:S 8.40269e-05
45 *721:A0 *721:S 8.57024e-05
46 *732:A0 *733:S 0.000423626
47 *732:A0 *196:73 0
48 *732:A0 *196:79 3.96737e-05
49 *732:A0 *196:97 0
50 *733:A0 *733:S 1.91597e-05
51 *776:D *721:S 0.000326031
52 *776:RESET_B *721:S 8.73389e-06
53 *777:D *196:97 0.000198618
54 *778:D *733:S 1.19928e-05
55 *778:RESET_B *196:73 0.000148274
56 *788:A *731:S 1.82563e-05
57 *809:A *196:97 0.0001471
58 *837:A *718:S 4.13385e-05
59 *81:18 *731:S 4.99619e-05
60 *132:49 *718:S 0.000510878
61 *132:49 *196:51 6.13115e-05
62 *138:27 *731:S 0.000118513
63 *138:27 *196:10 0.000156155
64 *138:27 *196:12 0.00039658
65 *138:27 *196:47 0.000191897
66 *138:27 *196:73 0.000128353
67 *138:81 *731:S 0.000310389
68 *178:10 *196:73 3.68769e-05
*RES
1 *805:X *196:8 4.05 
2 *196:8 *196:10 1.89 
3 *196:10 *196:12 4.695 
4 *196:12 *731:S 7.845 
5 *196:12 *721:S 14.43 
6 *196:10 *717:S 6.465 
7 *196:8 *196:47 2.4 
8 *196:47 *196:51 3.14 
9 *196:51 *718:S 11.26 
10 *196:51 *714:S 1.6 
11 *196:47 *196:73 4.44 
12 *196:73 *196:79 4.535 
13 *196:79 *732:S 1.6 
14 *196:79 *733:S 6.19 
15 *196:73 *196:97 9.23 
16 *196:97 *715:S 6.895 
17 *196:97 *712:S 1.96 
*END

*D_NET *197 0.0108968
*CONN
*I *735:S I *D sky130_fd_sc_hd__mux2_1
*I *734:S I *D sky130_fd_sc_hd__mux2_1
*I *709:S I *D sky130_fd_sc_hd__mux2_1
*I *708:S I *D sky130_fd_sc_hd__mux2_1
*I *676:S I *D sky130_fd_sc_hd__mux2_1
*I *675:S I *D sky130_fd_sc_hd__mux2_1
*I *707:S I *D sky130_fd_sc_hd__mux2_1
*I *710:S I *D sky130_fd_sc_hd__mux2_1
*I *711:S I *D sky130_fd_sc_hd__mux2_1
*I *713:S I *D sky130_fd_sc_hd__mux2_1
*I *806:X O *D sky130_fd_sc_hd__clkbuf_4
*CAP
1 *735:S 7.02658e-05
2 *734:S 0
3 *709:S 0.00035811
4 *708:S 0.00015429
5 *676:S 0
6 *675:S 0
7 *707:S 0.000252326
8 *710:S 2.08101e-05
9 *711:S 0.000176403
10 *713:S 0.000228731
11 *806:X 0
12 *197:115 0.000647291
13 *197:98 0.000674862
14 *197:94 0.000578375
15 *197:81 0.000342454
16 *197:57 0.000522467
17 *197:45 0.000706837
18 *197:34 0.000580335
19 *197:8 0.000551901
20 *197:4 0.000335333
21 *707:S *653:B1 4.43871e-06
22 *707:S *822:A 0.000204463
23 *707:S *199:57 0.000115782
24 *707:S *222:46 0.000107634
25 *709:S *709:A1 8.09021e-06
26 *709:S *224:8 2.49909e-05
27 *709:S *224:25 0.000202095
28 *711:S *216:12 5.21627e-05
29 *735:S *654:A2 1.4399e-05
30 *197:8 *216:12 4.66108e-05
31 *197:45 *653:B1 0.00010491
32 *197:45 *664:A2 8.40269e-05
33 *197:45 *846:A 0.000235573
34 *197:57 *653:B1 1.61696e-05
35 *197:57 *797:A 5.25088e-05
36 *197:57 *222:46 9.50342e-06
37 *197:81 *653:B1 4.21973e-05
38 *197:81 *664:A2 9.57985e-05
39 *197:94 *664:A2 2.49909e-05
40 *197:94 *223:10 6.4422e-05
41 *197:94 *223:18 9.57622e-05
42 *197:98 *654:A2 3.54025e-05
43 *197:98 *223:6 2.01259e-05
44 *197:115 *797:A 0
45 *647:B1 *711:S 0.000314438
46 *654:A1 *197:94 0
47 *655:C1 *197:94 0
48 *663:A1 *197:57 3.25831e-05
49 *664:B1 *708:S 0
50 *664:B1 *197:57 3.09164e-05
51 *664:B1 *197:115 0
52 *664:C1 *197:81 0.000118081
53 *664:C1 *197:94 3.74161e-05
54 *669:B *711:S 0.000116158
55 *669:B *713:S 0.000196944
56 *670:D *713:S 7.60965e-05
57 *670:D *197:45 1.21515e-05
58 *677:S *711:S 5.12772e-05
59 *707:A0 *707:S 0.000456274
60 *709:A0 *709:S 7.58604e-05
61 *710:A0 *197:34 2.96334e-05
62 *710:A0 *197:45 2.45351e-05
63 *710:A1 *197:8 5.05521e-05
64 *710:A1 *197:34 0.000184234
65 *713:A0 *713:S 7.35729e-05
66 *713:A1 *713:S 0
67 *734:A0 *709:S 0.000124895
68 *734:A1 *709:S 0.000125425
69 *735:A0 *735:S 0
70 *742:D *197:94 0.000114492
71 *752:CLK *709:S 2.76356e-05
72 *752:RESET_B *709:S 6.28687e-05
73 *753:CLK *713:S 8.53113e-06
74 *756:RESET_B *711:S 0
75 *756:RESET_B *713:S 0
76 *779:D *709:S 6.97118e-05
77 *779:D *197:115 0
78 *780:CLK *708:S 4.82919e-05
79 *780:D *197:94 5.51245e-05
80 *780:RESET_B *708:S 4.47125e-05
81 *793:A *197:45 2.49909e-05
82 *805:A *711:S 1.03755e-05
83 *127:20 *707:S 9.63964e-05
84 *127:95 *708:S 9.37731e-05
85 *127:110 *708:S 0
86 *127:110 *197:115 0
87 *129:64 *711:S 8.78096e-05
88 *130:80 *713:S 0
89 *131:78 *197:57 0.000136626
90 *137:10 *709:S 2.15594e-05
91 *137:29 *197:115 0
*RES
1 *806:X *197:4 1.6 
2 *197:4 *197:8 4.175 
3 *197:8 *713:S 8.64 
4 *197:8 *711:S 9.315 
5 *197:4 *197:34 3.555 
6 *197:34 *710:S 1.96 
7 *197:34 *197:45 6.675 
8 *197:45 *197:57 6.545 
9 *197:57 *707:S 11.205 
10 *197:57 *675:S 3.6 
11 *197:45 *197:81 1.83 
12 *197:81 *676:S 1.6 
13 *197:81 *197:94 10.165 
14 *197:94 *197:98 5.21 
15 *197:98 *708:S 6.48 
16 *197:98 *197:115 6.44 
17 *197:115 *709:S 13.73 
18 *197:115 *734:S 1.6 
19 *197:94 *735:S 2.755 
*END

*D_NET *198 0.00169267
*CONN
*I *631:A I *D sky130_fd_sc_hd__inv_2
*I *850:A I *D sky130_fd_sc_hd__dlygate4sd3_1
*I *745:Q O *D sky130_fd_sc_hd__dfrtp_1
*CAP
1 *631:A 5.49985e-05
2 *850:A 6.34263e-05
3 *745:Q 0.000157528
4 *198:10 0.000275952
5 *850:A *634:B 4.66826e-05
6 *198:10 *634:B 0.0003175
7 *198:10 *674:A 9.05377e-05
8 *671:A1 *850:A 1.56428e-05
9 *671:B1 *850:A 8.8266e-05
10 *674:B *631:A 7.5416e-05
11 *674:B *198:10 0.000114492
12 *674:C *631:A 1.1561e-05
13 *674:C *198:10 2.68721e-05
14 *725:A1 *198:10 0.000124007
15 *794:A *198:10 3.00381e-05
16 *80:8 *631:A 0.000109989
17 *81:18 *631:A 8.97642e-05
18 *192:10 *198:10 0
*RES
1 *745:Q *198:10 8.925 
2 *198:10 *850:A 5.085 
3 *198:10 *631:A 5.745 
*END

*D_NET *199 0.0149477
*CONN
*I *662:A I *D sky130_fd_sc_hd__xnor2_1
*I *645:A I *D sky130_fd_sc_hd__xnor2_1
*I *649:A I *D sky130_fd_sc_hd__xnor2_1
*I *632:A I *D sky130_fd_sc_hd__inv_2
*I *726:A1 I *D sky130_fd_sc_hd__mux2_1
*I *666:A I *D sky130_fd_sc_hd__xnor2_1
*I *746:Q O *D sky130_fd_sc_hd__dfrtp_4
*CAP
1 *662:A 0.00028723
2 *645:A 4.69499e-05
3 *649:A 0.000789029
4 *632:A 2.32329e-05
5 *726:A1 0.000691844
6 *666:A 0.00027318
7 *746:Q 2.08101e-05
8 *199:67 0.00146308
9 *199:57 0.00143255
10 *199:44 0.000839462
11 *199:16 0.00175208
12 *199:6 0.00110587
13 *645:A *645:B 3.26889e-05
14 *649:A *649:B 0.000156754
15 *666:A *667:B1 0.000196376
16 *199:16 *820:A 5.39956e-05
17 *199:16 *211:12 2.49909e-05
18 *199:57 *653:B1 0.000155234
19 *199:57 *664:A2 0
20 *199:57 *797:A 0
21 *199:67 *645:B 4.85494e-05
22 *199:67 *646:A2 0.000133981
23 *199:67 *646:B1 0
24 *199:67 *647:A2 4.82863e-05
25 *199:67 *708:A1 0.000124043
26 *199:67 *220:14 0
27 *646:C1 *199:67 0.000162311
28 *647:C1 *199:67 0
29 *650:C1 *649:A 0.000294963
30 *651:B1 *649:A 1.52352e-05
31 *654:A1 *662:A 0.000153482
32 *654:A1 *199:67 4.21973e-05
33 *658:B2 *666:A 0.00031916
34 *658:B2 *199:16 7.30547e-05
35 *663:A1 *662:A 0.000572614
36 *663:A1 *199:57 0
37 *667:C1 *666:A 3.00381e-05
38 *668:B1 *666:A 5.02217e-05
39 *668:B1 *199:16 3.68862e-05
40 *668:C1 *666:A 0.000143266
41 *699:A1 *199:44 0
42 *699:A1 *199:57 0
43 *707:S *199:57 0.000115782
44 *731:A1 *666:A 0
45 *742:D *662:A 7.89269e-05
46 *763:CLK *199:16 0.000467068
47 *763:D *199:16 5.7838e-05
48 *763:RESET_B *199:16 2.20753e-05
49 *789:A *199:44 0
50 *789:A *199:57 0
51 *790:A *199:67 9.50342e-06
52 *805:A *649:A 0.00100009
53 *115:6 *632:A 2.75145e-05
54 *115:80 *199:57 0.000139058
55 *115:93 *199:57 3.84331e-05
56 *115:99 *199:67 0.000155444
57 *127:10 *662:A 6.05513e-05
58 *127:10 *199:57 0.000137578
59 *127:10 *199:67 1.56428e-05
60 *127:12 *199:57 0.00013521
61 *127:14 *199:57 0.000199734
62 *127:20 *199:57 0.000137571
63 *127:80 *199:57 0
64 *131:78 *199:57 0
65 *134:21 *726:A1 6.62074e-05
66 *134:21 *199:16 0.000177055
67 *137:43 *199:67 2.54692e-05
68 *137:45 *199:67 1.94723e-05
69 *172:27 *726:A1 0.000154646
70 *172:33 *726:A1 6.65544e-05
71 *196:8 *649:A 4.66108e-05
*RES
1 *746:Q *199:6 1.96 
2 *199:6 *199:16 16.205 
3 *199:16 *666:A 9.9 
4 *199:16 *726:A1 11.64 
5 *199:6 *199:44 6.41 
6 *199:44 *632:A 4.05 
7 *199:44 *199:57 14.345 
8 *199:57 *199:67 14.8 
9 *199:67 *649:A 15.31 
10 *199:67 *645:A 2.47 
11 *199:57 *662:A 9.295 
*END

*D_NET *200 0.0052272
*CONN
*I *797:A I *D sky130_fd_sc_hd__clkbuf_4
*I *811:A I *D sky130_fd_sc_hd__dlygate4sd3_1
*I *747:Q O *D sky130_fd_sc_hd__dfrtp_1
*CAP
1 *797:A 0.00121715
2 *811:A 0.000159351
3 *747:Q 6.61303e-05
4 *200:6 0.00144263
5 *797:A *654:A2 0
6 *797:A *661:B 6.55406e-05
7 *797:A *822:A 0
8 *797:A *854:A 1.1561e-05
9 *797:A *222:46 0
10 *797:A *223:10 0.000242786
11 *797:A *223:18 0.000159755
12 *664:B1 *797:A 0.000835335
13 *699:A1 *797:A 0.000363653
14 *742:D *797:A 8.39681e-05
15 *746:CLK *797:A 0
16 *746:D *797:A 4.94404e-05
17 *749:CLK *811:A 5.05521e-05
18 *750:D *797:A 0
19 *815:A *797:A 0.000289004
20 *126:112 *811:A 0.00011577
21 *126:112 *200:6 2.20732e-05
22 *132:22 *797:A 0
23 *197:57 *797:A 5.25088e-05
24 *197:115 *797:A 0
25 *199:57 *797:A 0
*RES
1 *747:Q *200:6 2.395 
2 *200:6 *811:A 4.735 
3 *200:6 *797:A 32.69 
*END

*D_NET *201 0.00145153
*CONN
*I *634:B I *D sky130_fd_sc_hd__or2_2
*I *671:Y O *D sky130_fd_sc_hd__a21oi_1
*CAP
1 *634:B 0.000387522
2 *671:Y 0.000387522
3 *634:B *674:A 3.90266e-05
4 *634:A *634:B 3.09164e-05
5 *671:A2 *634:B 3.64998e-06
6 *674:C *634:B 0.000143266
7 *692:A2 *634:B 0
8 *794:A *634:B 9.54469e-05
9 *850:A *634:B 4.66826e-05
10 *198:10 *634:B 0.0003175
*RES
1 *671:Y *634:B 14.76 
*END

*D_NET *202 0.0072107
*CONN
*I *736:A I *D sky130_fd_sc_hd__nand2_1
*I *686:B I *D sky130_fd_sc_hd__nand2_1
*I *629:A I *D sky130_fd_sc_hd__inv_2
*I *683:B I *D sky130_fd_sc_hd__or2_1
*I *703:A2 I *D sky130_fd_sc_hd__a21o_1
*I *741:A1 I *D sky130_fd_sc_hd__a31o_1
*I *740:A1 I *D sky130_fd_sc_hd__a31oi_1
*I *737:A I *D sky130_fd_sc_hd__or2_1
*I *782:Q O *D sky130_fd_sc_hd__dfrtp_2
*CAP
1 *736:A 0
2 *686:B 0.000143742
3 *629:A 0
4 *683:B 0
5 *703:A2 9.47197e-05
6 *741:A1 0
7 *740:A1 0.000130854
8 *737:A 0.000306643
9 *782:Q 1.41956e-05
10 *202:89 0.000296701
11 *202:70 0.000445111
12 *202:55 0.000822355
13 *202:35 0.000253625
14 *202:31 0.000746885
15 *202:23 0.000205776
16 *202:6 0.000337983
17 *686:B *686:A 0.000198939
18 *703:A2 *688:B 3.24046e-05
19 *703:A2 *203:19 7.43875e-05
20 *703:A2 *204:14 4.12825e-05
21 *740:A1 *203:34 4.60584e-05
22 *202:70 *688:B 4.99619e-05
23 *202:89 *683:A 8.49205e-05
24 *678:A *686:B 0.000161266
25 *681:A1 *686:B 0
26 *681:A1 *202:89 8.43474e-05
27 *688:A *202:70 8.8266e-05
28 *689:A1 *202:89 1.47256e-05
29 *690:A *686:B 8.65905e-05
30 *690:A *202:89 1.12578e-05
31 *690:B *686:B 4.21889e-05
32 *690:B *202:89 0
33 *736:B *202:31 6.10014e-05
34 *736:B *202:35 2.75707e-05
35 *738:A *737:A 9.91257e-05
36 *738:B *737:A 0.000241483
37 *740:B1 *740:A1 4.99619e-05
38 *741:A2 *202:31 4.43682e-05
39 *741:A2 *202:35 0.000164686
40 *741:A2 *202:55 1.83847e-05
41 *741:A3 *703:A2 7.23602e-05
42 *741:B1 *740:A1 4.99619e-05
43 *748:CLK *737:A 2.59981e-05
44 *748:CLK *202:23 4.82919e-05
45 *748:CLK *202:31 4.9968e-05
46 *782:D *737:A 0.000201508
47 *782:RESET_B *737:A 3.00381e-05
48 *782:RESET_B *202:6 1.85674e-05
49 *782:RESET_B *202:23 1.60203e-05
50 *783:D *202:31 8.49205e-05
51 *783:RESET_B *202:55 4.24575e-05
52 *11:10 *686:B 0.000103554
53 *88:6 *202:89 5.67498e-05
54 *109:14 *737:A 0.000183289
55 *109:14 *202:23 8.40213e-05
56 *112:18 *686:B 7.5583e-05
57 *112:18 *703:A2 0
58 *112:18 *202:89 0.000271015
59 *117:19 *737:A 4.60584e-05
60 *117:34 *737:A 3.94338e-05
61 *126:14 *202:35 0
62 *126:16 *202:35 0
63 *126:18 *737:A 4.5783e-05
64 *126:18 *202:31 7.23602e-05
65 *136:73 *703:A2 8.68097e-06
66 *136:83 *703:A2 6.23119e-05
*RES
1 *782:Q *202:6 1.96 
2 *202:6 *737:A 13.31 
3 *202:6 *202:23 0.795 
4 *202:23 *202:31 7.21 
5 *202:31 *202:35 4.655 
6 *202:35 *740:A1 5.535 
7 *202:35 *741:A1 3.6 
8 *202:31 *202:55 4.935 
9 *202:55 *703:A2 8.51 
10 *202:55 *202:70 3.825 
11 *202:70 *683:B 1.6 
12 *202:70 *202:89 5.055 
13 *202:89 *629:A 1.6 
14 *202:89 *686:B 6.565 
15 *202:23 *736:A 1.6 
*END

*D_NET *203 0.00785673
*CONN
*I *682:B I *D sky130_fd_sc_hd__nand2_1
*I *700:A1 I *D sky130_fd_sc_hd__a2111oi_1
*I *680:A2 I *D sky130_fd_sc_hd__a211o_1
*I *687:B I *D sky130_fd_sc_hd__nor2_1
*I *678:B I *D sky130_fd_sc_hd__nor2_1
*I *703:B1 I *D sky130_fd_sc_hd__a21o_1
*I *740:A2 I *D sky130_fd_sc_hd__a31oi_1
*I *739:A I *D sky130_fd_sc_hd__xnor2_1
*I *693:B I *D sky130_fd_sc_hd__and2_1
*I *688:B I *D sky130_fd_sc_hd__or2_1
*I *783:Q O *D sky130_fd_sc_hd__dfrtp_4
*CAP
1 *682:B 8.43574e-05
2 *700:A1 0.000242673
3 *680:A2 0
4 *687:B 0.000214001
5 *678:B 0
6 *703:B1 3.06556e-05
7 *740:A2 0
8 *739:A 0.000207489
9 *693:B 0
10 *688:B 4.25042e-05
11 *783:Q 0
12 *203:85 0.000391283
13 *203:75 0.000204016
14 *203:69 0.000644085
15 *203:63 0.000473488
16 *203:34 0.000325028
17 *203:25 0.000221898
18 *203:21 0.000135015
19 *203:19 0.000103411
20 *203:6 0.000131463
21 *682:B *204:8 7.4027e-05
22 *682:B *204:14 3.46196e-05
23 *687:B *205:19 8.71001e-05
24 *700:A1 *679:C1 0.000150959
25 *700:A1 *700:C1 7.75359e-05
26 *700:A1 *205:66 1.71207e-05
27 *203:19 *204:14 1.7635e-05
28 *203:63 *204:14 3.35311e-05
29 *203:69 *204:14 0.000445351
30 *203:69 *204:41 9.70131e-05
31 *203:75 *204:52 8.49205e-05
32 *203:85 *204:52 0
33 *681:A1 *203:75 8.7152e-06
34 *681:A1 *203:85 1.44526e-05
35 *682:A *682:B 1.10085e-05
36 *687:A *687:B 4.82919e-05
37 *688:A *688:B 0
38 *689:C1 *682:B 4.82863e-05
39 *692:A2 *739:A 0
40 *692:B2 *682:B 1.09931e-05
41 *695:A1 *700:A1 9.38244e-05
42 *695:A1 *203:75 1.88602e-05
43 *695:B1 *700:A1 6.16226e-06
44 *695:B1 *203:69 0.000225209
45 *696:A2 *682:B 5.23123e-05
46 *696:A2 *203:19 3.59531e-06
47 *696:A2 *203:63 1.9488e-05
48 *700:B1 *700:A1 2.97438e-05
49 *703:A2 *688:B 3.24046e-05
50 *703:A2 *203:19 7.43875e-05
51 *705:A2 *700:A1 4.35432e-05
52 *740:A1 *203:34 4.60584e-05
53 *740:B1 *203:34 0.000468744
54 *745:CLK *739:A 6.97034e-05
55 *745:D *739:A 5.39961e-05
56 *745:RESET_B *739:A 0.000197264
57 *745:RESET_B *203:34 0.000656919
58 *11:16 *203:85 0.000119756
59 *83:10 *203:75 8.65905e-05
60 *83:10 *203:85 0.00022786
61 *87:14 *682:B 3.12319e-05
62 *88:12 *700:A1 2.54692e-05
63 *90:20 *700:A1 4.82919e-05
64 *92:8 *687:B 2.75229e-05
65 *93:8 *203:19 0
66 *95:10 *700:A1 4.00565e-05
67 *95:10 *203:75 2.53191e-06
68 *95:10 *203:85 4.9968e-05
69 *95:20 *700:A1 4.85795e-05
70 *109:14 *739:A 1.70935e-05
71 *112:37 *688:B 0
72 *112:37 *203:19 0
73 *112:43 *703:B1 3.74161e-05
74 *112:43 *203:25 0.000213267
75 *112:43 *203:34 2.59835e-05
76 *117:66 *739:A 0
77 *117:75 *739:A 0
78 *136:53 *203:69 0
79 *136:57 *203:69 0
80 *202:70 *688:B 4.99619e-05
*RES
1 *783:Q *203:6 3.6 
2 *203:6 *688:B 4.665 
3 *203:6 *203:19 1.89 
4 *203:19 *203:21 2 
5 *203:21 *203:25 2.19 
6 *203:25 *693:B 1.6 
7 *203:25 *203:34 6.33 
8 *203:34 *739:A 10.085 
9 *203:34 *740:A2 1.6 
10 *203:21 *703:B1 2.41 
11 *203:19 *203:63 0.4875 
12 *203:63 *203:69 2.0868 
13 *203:69 *203:75 3.0275 
14 *203:75 *203:85 7.75 
15 *203:85 *678:B 1.6 
16 *203:85 *687:B 9.425 
17 *203:75 *680:A2 1.6 
18 *203:69 *700:A1 9.3525 
19 *203:63 *682:B 5.9175 
*END

*D_NET *204 0.0049698
*CONN
*I *703:A1 I *D sky130_fd_sc_hd__a21o_1
*I *701:A I *D sky130_fd_sc_hd__and3_1
*I *686:A I *D sky130_fd_sc_hd__nand2_1
*I *628:A I *D sky130_fd_sc_hd__inv_2
*I *680:A1 I *D sky130_fd_sc_hd__a211o_1
*I *679:A1 I *D sky130_fd_sc_hd__a211o_1
*I *683:A I *D sky130_fd_sc_hd__or2_1
*I *784:Q O *D sky130_fd_sc_hd__dfrtp_2
*CAP
1 *703:A1 0
2 *701:A 0.000102766
3 *686:A 3.35504e-05
4 *628:A 0
5 *680:A1 0
6 *679:A1 0
7 *683:A 8.4815e-05
8 *784:Q 2.46808e-05
9 *204:67 0.000183026
10 *204:61 0.000267284
11 *204:52 0.000111538
12 *204:41 0.000183336
13 *204:14 0.000412215
14 *204:8 0.000265241
15 *701:A *694:A 6.3889e-05
16 *701:A *694:C_N 4.82863e-05
17 *701:A *206:18 1.1561e-05
18 *204:41 *679:B1 2.56884e-05
19 *204:52 *679:B1 0.000268739
20 *204:61 *679:B1 1.91597e-05
21 *678:A *204:67 7.21296e-06
22 *681:B1 *683:A 0.000175682
23 *682:B *204:8 7.4027e-05
24 *682:B *204:14 3.46196e-05
25 *686:B *686:A 0.000198939
26 *689:A1 *683:A 0.000100429
27 *689:A1 *204:41 3.63701e-06
28 *689:A2 *701:A 5.83121e-06
29 *690:A *204:67 2.34345e-05
30 *690:B *686:A 0.000198939
31 *692:B2 *204:8 8.53113e-06
32 *695:B1 *204:8 2.86817e-05
33 *695:B1 *204:14 1.52329e-05
34 *696:B1 *204:41 1.44453e-06
35 *696:C1 *204:41 3.42833e-06
36 *701:C *701:A 0.000265706
37 *703:A2 *204:14 4.12825e-05
38 *741:A3 *204:14 2.68721e-05
39 *748:D *683:A 4.92206e-05
40 *11:10 *204:67 7.06865e-05
41 *11:42 *701:A 8.53113e-06
42 *11:42 *204:67 6.21553e-05
43 *83:10 *204:41 5.17105e-05
44 *83:10 *204:52 8.93683e-05
45 *83:10 *204:61 4.66108e-05
46 *88:12 *683:A 4.46808e-07
47 *88:12 *204:41 1.7635e-05
48 *92:8 *701:A 9.80943e-06
49 *95:10 *701:A 0.000128346
50 *95:10 *204:67 0.000155227
51 *112:18 *683:A 8.65961e-05
52 *136:53 *204:67 0
53 *136:57 *204:14 9.51882e-05
54 *136:57 *204:41 1.51887e-05
55 *202:89 *683:A 8.49205e-05
56 *203:19 *204:14 1.7635e-05
57 *203:63 *204:14 3.35311e-05
58 *203:69 *204:14 0.000445351
59 *203:69 *204:41 9.70131e-05
60 *203:75 *204:52 8.49205e-05
61 *203:85 *204:52 0
*RES
1 *784:Q *204:8 4.47 
2 *204:8 *204:14 2.2347 
3 *204:14 *683:A 7.1675 
4 *204:14 *204:41 3.92203 
5 *204:41 *679:A1 1.6 
6 *204:41 *204:52 3.24 
7 *204:52 *680:A1 1.6 
8 *204:52 *204:61 2.45 
9 *204:61 *204:67 4.85 
10 *204:67 *628:A 1.6 
11 *204:67 *686:A 3.43 
12 *204:61 *701:A 7.065 
13 *204:8 *703:A1 3.6 
*END

*D_NET *205 0.00648576
*CONN
*I *685:B I *D sky130_fd_sc_hd__nand2_1
*I *702:A1 I *D sky130_fd_sc_hd__a211o_1
*I *853:A I *D sky130_fd_sc_hd__dlygate4sd3_1
*I *704:B I *D sky130_fd_sc_hd__and3_1
*I *691:A2 I *D sky130_fd_sc_hd__a31o_1
*I *679:C1 I *D sky130_fd_sc_hd__a211o_1
*I *700:D1 I *D sky130_fd_sc_hd__a2111oi_1
*I *694:A I *D sky130_fd_sc_hd__or3b_1
*I *852:A I *D sky130_fd_sc_hd__dlygate4sd3_1
*I *748:Q O *D sky130_fd_sc_hd__dfrtp_4
*CAP
1 *685:B 0.000163369
2 *702:A1 5.16909e-05
3 *853:A 1.24177e-05
4 *704:B 1.77753e-05
5 *691:A2 0.000146692
6 *679:C1 0.000237465
7 *700:D1 6.11579e-05
8 *694:A 5.80705e-05
9 *852:A 0
10 *748:Q 0.000257361
11 *205:86 6.41085e-05
12 *205:84 0.000193357
13 *205:66 0.000351617
14 *205:43 0.000424615
15 *205:34 0.000321753
16 *205:30 0.000371635
17 *205:19 0.000221176
18 *205:10 0.000339414
19 *679:C1 *679:B1 5.2403e-05
20 *691:A2 *206:74 5.66353e-05
21 *694:A *694:C_N 4.66108e-05
22 *205:66 *700:C1 0.000176647
23 *205:66 *206:66 2.49909e-05
24 *205:66 *206:70 7.35729e-05
25 *205:66 *206:74 2.7441e-05
26 *630:A *205:10 0
27 *673:B *205:66 0.000157595
28 *684:B *205:66 0.000124895
29 *687:A *694:A 2.49909e-05
30 *687:A *205:10 0.00022448
31 *687:A *205:19 0.000150453
32 *687:B *205:19 8.71001e-05
33 *689:A1 *679:C1 0.000133933
34 *689:A2 *679:C1 0.000153482
35 *689:A2 *704:B 0
36 *689:A2 *205:66 1.23331e-05
37 *691:B1 *691:A2 5.05437e-05
38 *695:A2 *679:C1 4.66108e-05
39 *700:A1 *679:C1 0.000150959
40 *700:A1 *205:66 1.71207e-05
41 *701:A *694:A 6.3889e-05
42 *701:C *694:A 9.80032e-06
43 *702:A2 *702:A1 4.82919e-05
44 *702:A2 *853:A 8.65905e-05
45 *702:B1 *702:A1 2.84447e-05
46 *702:C1 *205:84 0
47 *705:A2 *700:D1 8.49205e-05
48 *705:A2 *853:A 4.99619e-05
49 *705:A2 *205:34 0.000344459
50 *88:12 *679:C1 2.82121e-05
51 *92:8 *694:A 0.000234674
52 *95:10 *679:C1 8.25609e-05
53 *95:10 *205:66 3.9442e-05
54 *113:27 *679:C1 0.00015896
55 *136:53 *685:B 6.95335e-05
56 *136:53 *205:10 2.53191e-06
57 *136:53 *205:19 1.44259e-05
58 *136:53 *205:30 3.60648e-05
59 *136:53 *205:84 1.65192e-05
*RES
1 *748:Q *205:10 8.07 
2 *205:10 *852:A 3.6 
3 *205:10 *205:19 2.4 
4 *205:19 *694:A 5.775 
5 *205:19 *205:30 1.38 
6 *205:30 *205:34 5.555 
7 *205:34 *700:D1 2.395 
8 *205:34 *205:43 2 
9 *205:43 *679:C1 13.99 
10 *205:43 *205:66 7.34 
11 *205:66 *691:A2 4.135 
12 *205:66 *704:B 1.96 
13 *205:30 *205:84 0.615 
14 *205:84 *205:86 2 
15 *205:86 *853:A 2.395 
16 *205:86 *702:A1 2.755 
17 *205:84 *685:B 6.54 
*END

*D_NET *206 0.00616458
*CONN
*I *685:A I *D sky130_fd_sc_hd__nand2_1
*I *684:A I *D sky130_fd_sc_hd__and3_1
*I *700:C1 I *D sky130_fd_sc_hd__a2111oi_1
*I *704:A I *D sky130_fd_sc_hd__and3_1
*I *691:A1 I *D sky130_fd_sc_hd__a31o_1
*I *673:A I *D sky130_fd_sc_hd__xor2_1
*I *701:B I *D sky130_fd_sc_hd__and3_1
*I *694:C_N I *D sky130_fd_sc_hd__or3b_1
*I *679:B1 I *D sky130_fd_sc_hd__a211o_1
*I *680:C1 I *D sky130_fd_sc_hd__a211o_1
*I *749:Q O *D sky130_fd_sc_hd__dfrtp_4
*CAP
1 *685:A 0
2 *684:A 1.85694e-05
3 *700:C1 0.00011476
4 *704:A 0
5 *691:A1 0
6 *673:A 0.000248699
7 *701:B 0.000112497
8 *694:C_N 1.16927e-05
9 *679:B1 0.000363915
10 *680:C1 1.37534e-05
11 *749:Q 0.000161471
12 *206:74 0.00037959
13 *206:70 0.000167187
14 *206:66 0.000223268
15 *206:64 0.000113057
16 *206:62 2.22767e-05
17 *206:18 0.000460008
18 *206:14 0.000127009
19 *206:12 0.000264212
20 *206:10 0.000280208
21 *673:B *206:10 0
22 *678:A *680:C1 9.50342e-06
23 *679:C1 *679:B1 5.2403e-05
24 *684:B *673:A 0
25 *684:B *206:66 8.34281e-06
26 *684:C *206:70 1.46744e-05
27 *684:C *206:74 4.82919e-05
28 *689:A2 *206:10 7.21296e-06
29 *689:A2 *206:12 9.96921e-05
30 *689:A2 *206:14 1.7396e-05
31 *689:A2 *206:66 8.49205e-05
32 *691:A2 *206:74 5.66353e-05
33 *691:B1 *206:74 8.65905e-05
34 *694:A *694:C_N 4.66108e-05
35 *696:B1 *679:B1 2.65814e-06
36 *697:A2 *673:A 7.45794e-05
37 *700:A1 *700:C1 7.75359e-05
38 *701:A *694:C_N 4.82863e-05
39 *701:A *206:18 1.1561e-05
40 *701:C *680:C1 5.39961e-05
41 *701:C *206:18 6.21553e-05
42 *704:C *206:74 5.49479e-05
43 *705:A2 *700:C1 8.57024e-05
44 *705:B2 *206:74 4.66108e-05
45 *749:D *673:A 7.36562e-05
46 *749:RESET_B *206:10 2.49909e-05
47 *11:42 *680:C1 9.50342e-06
48 *83:10 *679:B1 3.47517e-05
49 *87:14 *673:A 0
50 *88:12 *679:B1 2.6502e-05
51 *90:20 *684:A 9.53428e-06
52 *90:20 *700:C1 6.02123e-05
53 *90:20 *206:64 2.05056e-05
54 *90:20 *206:66 0.00020596
55 *90:20 *206:70 8.49205e-05
56 *92:8 *701:B 0.00015896
57 *95:10 *206:14 0
58 *95:10 *206:18 1.01661e-05
59 *95:20 *700:C1 2.42043e-05
60 *136:20 *673:A 0
61 *136:22 *673:A 5.05521e-05
62 *136:53 *680:C1 2.4997e-05
63 *136:53 *206:10 0.000186099
64 *136:53 *206:12 0.000284976
65 *136:53 *206:14 7.06865e-05
66 *136:53 *206:18 5.46877e-05
67 *204:41 *679:B1 2.56884e-05
68 *204:52 *679:B1 0.000268739
69 *204:61 *679:B1 1.91597e-05
70 *205:66 *700:C1 0.000176647
71 *205:66 *206:66 2.49909e-05
72 *205:66 *206:70 7.35729e-05
73 *205:66 *206:74 2.7441e-05
*RES
1 *749:Q *206:10 6.885 
2 *206:10 *206:12 3.42 
3 *206:12 *206:14 0.87 
4 *206:14 *206:18 1.83 
5 *206:18 *680:C1 4.215 
6 *206:18 *679:B1 12.46 
7 *206:14 *694:C_N 4.05 
8 *206:12 *701:B 5.085 
9 *206:10 *206:62 2 
10 *206:62 *206:64 0.45 
11 *206:64 *206:66 2.175 
12 *206:66 *206:70 1.5 
13 *206:70 *206:74 3.135 
14 *206:74 *673:A 10.325 
15 *206:74 *691:A1 1.6 
16 *206:70 *704:A 1.6 
17 *206:66 *700:C1 8.54 
18 *206:64 *684:A 1.96 
19 *206:62 *685:A 1.6 
*END

*D_NET *207 0.00253328
*CONN
*I *667:A2 I *D sky130_fd_sc_hd__o211ai_1
*I *668:A2 I *D sky130_fd_sc_hd__a211o_1
*I *719:A1 I *D sky130_fd_sc_hd__mux2_1
*I *847:A I *D sky130_fd_sc_hd__dlygate4sd3_1
*I *766:Q O *D sky130_fd_sc_hd__dfrtp_1
*CAP
1 *667:A2 0.000181702
2 *668:A2 4.946e-05
3 *719:A1 0
4 *847:A 6.09617e-05
5 *766:Q 0
6 *207:30 0.000336683
7 *207:21 0.000400883
8 *207:6 0.000356324
9 *207:21 *820:A 0.000237243
10 *658:B2 *667:A2 0
11 *667:A1 *667:A2 3.23663e-05
12 *668:A1 *668:A2 4.60584e-05
13 *669:D *668:A2 4.82863e-05
14 *669:D *207:21 1.60203e-05
15 *669:D *207:30 0.000193806
16 *674:C *847:A 6.74079e-05
17 *674:C *207:21 4.58406e-05
18 *766:RESET_B *667:A2 0.000139933
19 *821:A *207:21 8.65905e-05
20 *81:18 *207:21 0.000183751
21 *129:27 *847:A 0
22 *129:27 *207:21 0
23 *130:17 *667:A2 4.99619e-05
24 *131:21 *207:21 0
*RES
1 *766:Q *207:6 3.6 
2 *207:6 *847:A 4.98 
3 *207:6 *207:21 9.215 
4 *207:21 *719:A1 1.6 
5 *207:21 *207:30 2.19 
6 *207:30 *668:A2 2.74 
7 *207:30 *667:A2 8.72 
*END

*D_NET *208 0.0027462
*CONN
*I *720:A1 I *D sky130_fd_sc_hd__mux2_1
*I *666:B I *D sky130_fd_sc_hd__xnor2_1
*I *848:A I *D sky130_fd_sc_hd__dlygate4sd3_1
*I *767:Q O *D sky130_fd_sc_hd__dfrtp_1
*CAP
1 *720:A1 0.000245442
2 *666:B 0.000149029
3 *848:A 0
4 *767:Q 0.000128641
5 *208:21 0.000775473
6 *208:12 0.000509642
7 *666:B *667:B1 7.35729e-05
8 *720:A1 *642:B1 0
9 *720:A1 *211:24 4.9968e-05
10 *659:A2 *720:A1 4.89295e-05
11 *720:A0 *720:A1 0.000121019
12 *764:D *720:A1 0.00015829
13 *771:D *208:12 4.70343e-05
14 *787:A *720:A1 1.44177e-05
15 *115:41 *720:A1 7.20899e-05
16 *124:8 *208:21 6.11706e-05
17 *133:20 *208:12 0
18 *172:27 *666:B 6.84815e-05
19 *172:27 *720:A1 0.000114753
20 *172:41 *208:12 4.80182e-05
21 *172:41 *208:21 6.02297e-05
*RES
1 *767:Q *208:12 8.12 
2 *208:12 *848:A 1.6 
3 *208:12 *208:21 7.97 
4 *208:21 *666:B 6.63 
5 *208:21 *720:A1 9.435 
*END

*D_NET *209 0.000631462
*CONN
*I *834:A I *D sky130_fd_sc_hd__dlygate4sd3_1
*I *665:B I *D sky130_fd_sc_hd__xor2_1
*I *768:Q O *D sky130_fd_sc_hd__dfrtp_1
*CAP
1 *834:A 0
2 *665:B 0.000118305
3 *768:Q 0.000114581
4 *209:6 0.000232886
5 *133:8 *209:6 0.00016569
6 *133:18 *665:B 0
*RES
1 *768:Q *209:6 4.12 
2 *209:6 *665:B 7.49 
3 *209:6 *834:A 1.6 
*END

*D_NET *210 0.00312671
*CONN
*I *820:A I *D sky130_fd_sc_hd__dlygate4sd3_1
*I *643:A2 I *D sky130_fd_sc_hd__a211o_1
*I *641:A2_N I *D sky130_fd_sc_hd__a2bb2o_1
*I *763:Q O *D sky130_fd_sc_hd__dfrtp_1
*CAP
1 *820:A 0.000324716
2 *643:A2 0.000207194
3 *641:A2_N 2.29416e-05
4 *763:Q 3.27521e-05
5 *210:10 0.000367428
6 *210:6 0.000494761
7 *641:A1_N *641:A2_N 4.82863e-05
8 *643:B1 *643:A2 0
9 *658:B2 *643:A2 0
10 *658:B2 *210:10 0
11 *660:A2 *643:A2 3.26889e-05
12 *668:B1 *643:A2 0
13 *669:A *643:A2 8.57024e-05
14 *669:D *820:A 0.000349592
15 *716:A1 *820:A 7.06865e-05
16 *763:RESET_B *820:A 3.0297e-05
17 *766:RESET_B *210:10 2.92496e-05
18 *786:A *643:A2 4.82863e-05
19 *821:A *820:A 0.000107424
20 *115:18 *641:A2_N 8.65905e-05
21 *129:38 *820:A 2.23485e-05
22 *130:43 *210:10 0.000110323
23 *130:56 *643:A2 6.9117e-05
24 *130:56 *210:10 1.07797e-05
25 *130:62 *643:A2 7.72844e-05
26 *131:21 *820:A 0.000112123
27 *134:21 *820:A 4.66108e-05
28 *134:21 *210:6 4.82863e-05
29 *199:16 *820:A 5.39956e-05
30 *207:21 *820:A 0.000237243
*RES
1 *763:Q *210:6 2.05 
2 *210:6 *210:10 4.91 
3 *210:10 *641:A2_N 4.395 
4 *210:10 *643:A2 7.53 
5 *210:6 *820:A 13.055 
*END

*D_NET *211 0.00385728
*CONN
*I *641:B1 I *D sky130_fd_sc_hd__a2bb2o_1
*I *844:A I *D sky130_fd_sc_hd__dlygate4sd3_1
*I *642:A2 I *D sky130_fd_sc_hd__o211ai_1
*I *717:A1 I *D sky130_fd_sc_hd__mux2_1
*I *764:Q O *D sky130_fd_sc_hd__dfrtp_1
*CAP
1 *641:B1 0
2 *844:A 0
3 *642:A2 1.95087e-05
4 *717:A1 0.000538858
5 *764:Q 7.70909e-05
6 *211:24 0.000981305
7 *211:14 0.000506868
8 *211:12 0.000161021
9 *717:A1 *642:B1 4.77719e-05
10 *211:24 *642:B1 0
11 *642:A1 *211:24 0.000328399
12 *642:C1 *717:A1 9.14049e-05
13 *643:C1 *211:24 1.19928e-05
14 *658:B2 *211:12 0.000116853
15 *668:B1 *211:12 6.55328e-05
16 *717:A0 *717:A1 4.77719e-05
17 *720:A0 *211:24 8.23457e-05
18 *720:A1 *211:24 4.9968e-05
19 *760:RESET_B *717:A1 0.000158536
20 *760:RESET_B *211:24 0.000158532
21 *761:RESET_B *717:A1 0
22 *764:D *211:24 4.50017e-05
23 *787:A *211:24 0
24 *788:A *211:24 0
25 *798:A *642:A2 3.50152e-06
26 *798:A *717:A1 6.67223e-05
27 *798:A *211:24 3.4465e-05
28 *115:41 *211:14 8.63479e-05
29 *115:41 *211:24 0.000122714
30 *138:27 *717:A1 0
31 *138:33 *717:A1 0
32 *138:33 *211:24 2.97746e-05
33 *199:16 *211:12 2.49909e-05
*RES
1 *764:Q *211:12 7.43 
2 *211:12 *211:14 1.485 
3 *211:14 *211:24 13.045 
4 *211:24 *717:A1 15.29 
5 *211:24 *642:A2 1.96 
6 *211:14 *844:A 1.6 
7 *211:12 *641:B1 1.6 
*END

*D_NET *212 0.00260029
*CONN
*I *839:A I *D sky130_fd_sc_hd__dlygate4sd3_1
*I *640:B I *D sky130_fd_sc_hd__xnor2_1
*I *718:A1 I *D sky130_fd_sc_hd__mux2_1
*I *765:Q O *D sky130_fd_sc_hd__dfrtp_1
*CAP
1 *839:A 0
2 *640:B 0.000169567
3 *718:A1 0.000389808
4 *765:Q 0
5 *212:25 0.000385238
6 *212:4 0.000605479
7 *718:A1 *648:B 7.16263e-05
8 *718:A1 *215:8 7.21296e-06
9 *636:A *718:A1 9.37731e-05
10 *718:A0 *718:A1 0.000122325
11 *765:RESET_B *718:A1 4.20162e-05
12 *765:RESET_B *212:25 3.69909e-05
13 *125:10 *212:25 6.23206e-05
14 *125:14 *640:B 7.45968e-05
15 *125:14 *212:25 4.18603e-06
16 *125:20 *640:B 9.91257e-05
17 *132:51 *718:A1 0.000139933
18 *132:53 *640:B 0
19 *132:53 *718:A1 0.000296088
20 *132:53 *212:25 0
21 *135:28 *212:25 0
*RES
1 *765:Q *212:4 1.6 
2 *212:4 *718:A1 13.85 
3 *212:4 *212:25 5.795 
4 *212:25 *640:B 7.23 
5 *212:25 *839:A 3.6 
*END

*D_NET *213 0.00117858
*CONN
*I *650:A2 I *D sky130_fd_sc_hd__o211ai_1
*I *824:A I *D sky130_fd_sc_hd__dlygate4sd3_1
*I *651:A2 I *D sky130_fd_sc_hd__a211o_1
*I *760:Q O *D sky130_fd_sc_hd__dfrtp_1
*CAP
1 *650:A2 0.000112582
2 *824:A 3.2247e-05
3 *651:A2 0
4 *760:Q 0.000127318
5 *213:12 3.2247e-05
6 *213:10 0.0002399
7 *651:A1 *824:A 8.23457e-05
8 *651:C1 *650:A2 0
9 *651:C1 *213:10 0
10 *670:C *213:10 0
11 *670:D *650:A2 4.82863e-05
12 *731:A1 *213:10 0
13 *760:RESET_B *213:10 8.8266e-05
14 *786:A *650:A2 0.000132842
15 *786:A *213:10 0.000114492
16 *131:23 *824:A 4.82919e-05
17 *138:81 *824:A 0.000119762
*RES
1 *760:Q *213:10 5.775 
2 *213:10 *213:12 2 
3 *213:12 *651:A2 1.6 
4 *213:12 *824:A 2.74 
5 *213:10 *650:A2 5.685 
*END

*D_NET *214 0.00284747
*CONN
*I *714:A1 I *D sky130_fd_sc_hd__mux2_1
*I *649:B I *D sky130_fd_sc_hd__xnor2_1
*I *841:A I *D sky130_fd_sc_hd__dlygate4sd3_1
*I *761:Q O *D sky130_fd_sc_hd__dfrtp_1
*CAP
1 *714:A1 0.000127017
2 *649:B 4.12202e-05
3 *841:A 3.37454e-05
4 *761:Q 0.000143746
5 *214:19 0.000240173
6 *214:8 0.000249428
7 *714:A1 *732:A1 6.65887e-05
8 *214:8 *732:A1 7.96996e-05
9 *214:19 *732:A1 7.97165e-05
10 *649:A *649:B 0.000156754
11 *650:C1 *649:B 4.66108e-05
12 *651:B1 *649:B 6.21763e-05
13 *714:A0 *714:A1 0.00023178
14 *718:S *714:A1 8.64421e-05
15 *731:S *214:8 7.23533e-05
16 *776:D *214:8 0.000116158
17 *788:A *214:8 8.6099e-05
18 *132:49 *714:A1 1.19928e-05
19 *196:10 *214:8 8.53113e-06
20 *196:10 *214:19 0.000154488
21 *196:12 *214:8 0.000405111
22 *196:47 *714:A1 0.000147397
23 *196:47 *214:19 4.9968e-05
24 *196:51 *714:A1 0.000121019
25 *196:73 *714:A1 2.92496e-05
*RES
1 *761:Q *214:8 9.06 
2 *214:8 *841:A 4.05 
3 *214:8 *214:19 2.4 
4 *214:19 *649:B 5.085 
5 *214:19 *714:A1 7.92 
*END

*D_NET *215 0.000841702
*CONN
*I *831:A I *D sky130_fd_sc_hd__dlygate4sd3_1
*I *648:B I *D sky130_fd_sc_hd__xor2_1
*I *762:Q O *D sky130_fd_sc_hd__dfrtp_1
*CAP
1 *831:A 6.46628e-05
2 *648:B 0.000142009
3 *762:Q 7.2889e-05
4 *215:8 0.000279561
5 *636:A *215:8 0
6 *715:A1 *215:8 4.05358e-05
7 *718:A1 *648:B 7.16263e-05
8 *718:A1 *215:8 7.21296e-06
9 *718:S *831:A 0.000163204
10 *757:D *215:8 0
11 *135:28 *648:B 0
12 *135:28 *215:8 0
*RES
1 *762:Q *215:8 4.98 
2 *215:8 *648:B 6.195 
3 *215:8 *831:A 5.085 
*END

*D_NET *216 0.00217919
*CONN
*I *825:A I *D sky130_fd_sc_hd__dlygate4sd3_1
*I *637:A2_N I *D sky130_fd_sc_hd__a2bb2o_1
*I *639:A2 I *D sky130_fd_sc_hd__a211o_1
*I *756:Q O *D sky130_fd_sc_hd__dfrtp_1
*CAP
1 *825:A 0
2 *637:A2_N 0
3 *639:A2 0.000151176
4 *756:Q 0.000185525
5 *216:14 0.000215239
6 *216:12 0.000249588
7 *638:A1 *639:A2 0.000158297
8 *639:A1 *639:A2 0.000176536
9 *639:B1 *639:A2 7.44012e-05
10 *711:S *216:12 5.21627e-05
11 *756:RESET_B *639:A2 0
12 *756:RESET_B *216:12 0.000139238
13 *786:A *639:A2 9.29751e-06
14 *805:A *639:A2 0.000262219
15 *115:99 *216:14 0.00022333
16 *130:97 *216:14 0.000235568
17 *197:8 *216:12 4.66108e-05
*RES
1 *756:Q *216:12 8.72 
2 *216:12 *216:14 2.52 
3 *216:14 *639:A2 10.28 
4 *216:14 *637:A2_N 1.6 
5 *216:12 *825:A 1.6 
*END

*D_NET *217 0.00205069
*CONN
*I *638:A2 I *D sky130_fd_sc_hd__o211ai_1
*I *637:B1 I *D sky130_fd_sc_hd__a2bb2o_1
*I *836:A I *D sky130_fd_sc_hd__dlygate4sd3_1
*I *757:Q O *D sky130_fd_sc_hd__dfrtp_1
*CAP
1 *638:A2 0
2 *637:B1 0.000294628
3 *836:A 2.08101e-05
4 *757:Q 0.00017756
5 *217:19 0.000350978
6 *217:8 0.00025472
7 *637:B1 *638:B1 5.53249e-06
8 *638:A1 *217:19 3.26889e-05
9 *639:C1 *217:19 0.000124895
10 *650:C1 *637:B1 0
11 *670:A *637:B1 0
12 *754:CLK *217:8 0.000187381
13 *754:CLK *217:19 0.000119631
14 *786:A *637:B1 0.000481866
*RES
1 *757:Q *217:8 4.825 
2 *217:8 *836:A 1.96 
3 *217:8 *217:19 2.19 
4 *217:19 *637:B1 11.315 
5 *217:19 *638:A2 1.6 
*END

*D_NET *218 0.00233768
*CONN
*I *833:A I *D sky130_fd_sc_hd__dlygate4sd3_1
*I *636:B I *D sky130_fd_sc_hd__xnor2_1
*I *758:Q O *D sky130_fd_sc_hd__dfrtp_1
*CAP
1 *833:A 0.00031294
2 *636:B 0.000521026
3 *758:Q 0
4 *218:6 0.000833966
5 *636:A *636:B 0.000300004
6 *638:C1 *636:B 3.58592e-05
7 *715:A1 *833:A 0
8 *755:CLK *636:B 6.69054e-05
9 *755:D *636:B 3.82443e-05
10 *755:D *833:A 7.66727e-05
11 *758:RESET_B *833:A 0
12 *803:A *636:B 6.97143e-05
13 *135:8 *636:B 8.23457e-05
14 *175:12 *833:A 0
*RES
1 *758:Q *218:6 3.6 
2 *218:6 *636:B 13.41 
3 *218:6 *833:A 9.09 
*END

*D_NET *219 0.00364957
*CONN
*I *646:A2 I *D sky130_fd_sc_hd__o211ai_1
*I *647:A2 I *D sky130_fd_sc_hd__a211o_1
*I *846:A I *D sky130_fd_sc_hd__dlygate4sd3_1
*I *707:A1 I *D sky130_fd_sc_hd__mux2_1
*I *753:Q O *D sky130_fd_sc_hd__dfrtp_1
*CAP
1 *646:A2 0.000216839
2 *647:A2 0.000195564
3 *846:A 5.60432e-05
4 *707:A1 0.000155491
5 *753:Q 0
6 *219:32 0.00046979
7 *219:21 0.000224285
8 *219:6 0.000266345
9 *646:A2 *708:A1 4.16262e-05
10 *707:A1 *655:A2 9.37731e-05
11 *646:A1 *646:A2 4.82919e-05
12 *647:B1 *647:A2 7.62408e-05
13 *647:C1 *646:A2 4.18603e-06
14 *655:B1 *707:A1 2.86895e-05
15 *655:B1 *219:21 9.50342e-06
16 *670:D *846:A 8.87364e-05
17 *670:D *219:21 0.000137578
18 *707:A0 *707:A1 8.8266e-05
19 *710:A0 *846:A 5.83121e-06
20 *750:RESET_B *219:21 4.92206e-05
21 *790:A *646:A2 7.1301e-06
22 *790:A *707:A1 0.000262861
23 *790:A *219:21 5.55616e-05
24 *790:A *219:32 8.42239e-05
25 *115:99 *647:A2 0.000104175
26 *127:20 *707:A1 0.000163204
27 *130:97 *647:A2 5.78206e-05
28 *137:45 *646:A2 7.17811e-05
29 *137:45 *219:21 8.07863e-05
30 *137:45 *219:32 8.78813e-05
31 *197:45 *846:A 0.000235573
32 *199:67 *646:A2 0.000133981
33 *199:67 *647:A2 4.82863e-05
*RES
1 *753:Q *219:6 3.6 
2 *219:6 *707:A1 8.25 
3 *219:6 *219:21 3.36 
4 *219:21 *846:A 5.775 
5 *219:21 *219:32 1.89 
6 *219:32 *647:A2 7.86 
7 *219:32 *646:A2 11.335 
*END

*D_NET *220 0.00224363
*CONN
*I *838:A I *D sky130_fd_sc_hd__dlygate4sd3_1
*I *708:A1 I *D sky130_fd_sc_hd__mux2_1
*I *645:B I *D sky130_fd_sc_hd__xnor2_1
*I *754:Q O *D sky130_fd_sc_hd__dfrtp_1
*CAP
1 *838:A 0
2 *708:A1 0.00023199
3 *645:B 9.34505e-05
4 *754:Q 0.000159416
5 *220:14 0.000431885
6 *220:10 0.000265861
7 *220:10 *646:B1 7.89611e-05
8 *220:14 *646:B1 8.89673e-05
9 *645:A *645:B 3.26889e-05
10 *646:A1 *645:B 8.65961e-05
11 *646:A1 *708:A1 0.000162525
12 *646:A2 *708:A1 4.16262e-05
13 *646:C1 *645:B 7.35729e-05
14 *646:C1 *708:A1 3.29384e-05
15 *677:S *220:10 0
16 *677:S *220:14 0
17 *780:RESET_B *708:A1 0.000239813
18 *129:64 *220:14 0
19 *132:37 *220:10 5.07419e-05
20 *199:67 *645:B 4.85494e-05
21 *199:67 *708:A1 0.000124043
22 *199:67 *220:14 0
*RES
1 *754:Q *220:10 6.375 
2 *220:10 *220:14 4.145 
3 *220:14 *645:B 4.135 
4 *220:14 *708:A1 7.69 
5 *220:10 *838:A 3.6 
*END

*D_NET *221 0.00478656
*CONN
*I *709:A1 I *D sky130_fd_sc_hd__mux2_1
*I *644:B I *D sky130_fd_sc_hd__xor2_1
*I *843:A I *D sky130_fd_sc_hd__dlygate4sd3_1
*I *755:Q O *D sky130_fd_sc_hd__dfrtp_1
*CAP
1 *709:A1 0.000345403
2 *644:B 0
3 *843:A 0.000281942
4 *755:Q 0.000105045
5 *221:21 0.00105056
6 *221:6 0.00109214
7 *709:A1 *646:B1 7.63204e-05
8 *638:C1 *221:6 1.40383e-05
9 *638:C1 *221:21 8.73389e-06
10 *644:A *221:21 8.09157e-05
11 *709:S *709:A1 8.09021e-06
12 *712:A0 *843:A 0
13 *732:A0 *221:21 0.000499351
14 *733:A0 *709:A1 7.60965e-05
15 *733:A0 *221:21 9.27255e-06
16 *733:S *221:21 4.21973e-05
17 *752:CLK *709:A1 0.0001711
18 *752:D *709:A1 7.60965e-05
19 *752:RESET_B *709:A1 0.000117825
20 *777:D *843:A 0
21 *778:RESET_B *843:A 0.000283798
22 *809:A *843:A 9.3062e-06
23 *196:73 *843:A 7.57315e-05
24 *196:79 *221:21 6.20088e-05
25 *196:97 *843:A 0.000300589
*RES
1 *755:Q *221:6 2.74 
2 *221:6 *843:A 12.335 
3 *221:6 *221:21 9.69 
4 *221:21 *644:B 1.6 
5 *221:21 *709:A1 13.55 
*END

*D_NET *222 0.00443998
*CONN
*I *653:A2_N I *D sky130_fd_sc_hd__a2bb2o_1
*I *675:A1 I *D sky130_fd_sc_hd__mux2_1
*I *822:A I *D sky130_fd_sc_hd__dlygate4sd3_1
*I *655:A2 I *D sky130_fd_sc_hd__a211o_1
*I *750:Q O *D sky130_fd_sc_hd__dfrtp_1
*CAP
1 *653:A2_N 9.55656e-05
2 *675:A1 0
3 *822:A 0.000359176
4 *655:A2 0.000118483
5 *750:Q 6.52939e-05
6 *222:46 0.000175593
7 *222:29 0.000791597
8 *222:6 0.00053617
9 *653:A2_N *653:B1 4.66108e-05
10 *653:B2 *653:A2_N 4.66108e-05
11 *655:A1 *655:A2 4.22232e-05
12 *655:B1 *655:A2 0.00017152
13 *655:C1 *653:A2_N 0.00011822
14 *675:A0 *653:A2_N 3.19654e-05
15 *707:A0 *822:A 0.000277223
16 *707:A1 *655:A2 9.37731e-05
17 *707:S *822:A 0.000204463
18 *707:S *222:46 0.000107634
19 *743:CLK *653:A2_N 0.000193806
20 *750:D *822:A 0.000139582
21 *750:RESET_B *655:A2 1.26548e-05
22 *797:A *822:A 0
23 *797:A *222:46 0
24 *127:44 *222:29 0.000109377
25 *131:47 *655:A2 3.00381e-05
26 *131:57 *655:A2 0.000226928
27 *131:78 *653:A2_N 9.9919e-05
28 *138:81 *655:A2 9.95239e-05
29 *138:81 *222:6 8.23457e-05
30 *138:81 *222:29 0.000154182
31 *197:57 *222:46 9.50342e-06
*RES
1 *750:Q *222:6 2.395 
2 *222:6 *655:A2 10.325 
3 *222:6 *222:29 6.245 
4 *222:29 *822:A 10.95 
5 *222:29 *222:46 3.38 
6 *222:46 *675:A1 1.6 
7 *222:46 *653:A2_N 4.825 
*END

*D_NET *223 0.00379378
*CONN
*I *654:A2 I *D sky130_fd_sc_hd__o211ai_1
*I *826:A I *D sky130_fd_sc_hd__dlygate4sd3_1
*I *676:A1 I *D sky130_fd_sc_hd__mux2_1
*I *653:B1 I *D sky130_fd_sc_hd__a2bb2o_1
*I *751:Q O *D sky130_fd_sc_hd__dfrtp_1
*CAP
1 *654:A2 0.000289619
2 *826:A 0
3 *676:A1 4.17432e-05
4 *653:B1 0.000295696
5 *751:Q 7.56177e-05
6 *223:18 0.0005077
7 *223:10 0.000260508
8 *223:6 0.000455483
9 *653:A2_N *653:B1 4.66108e-05
10 *654:A1 *654:A2 2.16389e-05
11 *654:A1 *223:10 0
12 *654:C1 *654:A2 6.67762e-05
13 *655:C1 *653:B1 4.82919e-05
14 *664:C1 *653:B1 8.23457e-05
15 *664:C1 *676:A1 8.40269e-05
16 *670:D *653:B1 0.0001249
17 *707:S *653:B1 4.43871e-06
18 *735:S *654:A2 1.4399e-05
19 *742:D *223:18 0.000157602
20 *797:A *654:A2 0
21 *797:A *223:10 0.000242786
22 *797:A *223:18 0.000159755
23 *815:A *223:18 0.000203762
24 *132:22 *654:A2 7.58604e-05
25 *197:45 *653:B1 0.00010491
26 *197:57 *653:B1 1.61696e-05
27 *197:81 *653:B1 4.21973e-05
28 *197:94 *223:10 6.4422e-05
29 *197:94 *223:18 9.57622e-05
30 *197:98 *654:A2 3.54025e-05
31 *197:98 *223:6 2.01259e-05
32 *199:57 *653:B1 0.000155234
*RES
1 *751:Q *223:6 2.395 
2 *223:6 *223:10 4.91 
3 *223:10 *223:18 6.995 
4 *223:18 *653:B1 11.84 
5 *223:18 *676:A1 2.395 
6 *223:10 *826:A 3.6 
7 *223:6 *654:A2 10.055 
*END

*D_NET *224 0.00242393
*CONN
*I *677:A1 I *D sky130_fd_sc_hd__mux2_1
*I *828:A I *D sky130_fd_sc_hd__dlygate4sd3_1
*I *652:B I *D sky130_fd_sc_hd__xnor2_1
*I *752:Q O *D sky130_fd_sc_hd__dfrtp_1
*CAP
1 *677:A1 9.71016e-05
2 *828:A 0
3 *652:B 0.000101641
4 *752:Q 3.98087e-05
5 *224:25 0.000364089
6 *224:8 0.000408437
7 *652:B *646:B1 0
8 *224:25 *646:B1 0
9 *677:A0 *677:A1 4.99619e-05
10 *677:S *652:B 0.000238137
11 *677:S *677:A1 0.000239813
12 *677:S *224:25 0
13 *709:A0 *224:25 6.11019e-05
14 *709:S *224:8 2.49909e-05
15 *709:S *224:25 0.000202095
16 *744:CLK *224:25 0.000105266
17 *744:D *224:25 0
18 *127:123 *652:B 0.000112123
19 *127:123 *224:25 0.000119221
20 *132:22 *652:B 0.000239813
21 *137:10 *224:25 2.03321e-05
*RES
1 *752:Q *224:8 4.05 
2 *224:8 *652:B 7.155 
3 *224:8 *224:25 8.18 
4 *224:25 *828:A 1.6 
5 *224:25 *677:A1 4.12 
*END

*D_NET *225 0.0036756
*CONN
*I *663:A2 I *D sky130_fd_sc_hd__o211ai_1
*I *664:A2 I *D sky130_fd_sc_hd__a211o_1
*I *814:A I *D sky130_fd_sc_hd__dlygate4sd3_1
*I *742:Q O *D sky130_fd_sc_hd__dfrtp_1
*CAP
1 *663:A2 7.66453e-05
2 *664:A2 0.000616312
3 *814:A 0.000213415
4 *742:Q 0.000121279
5 *225:23 0.000838579
6 *225:10 0.000480315
7 *663:A2 *662:B 7.06865e-05
8 *225:23 *662:B 4.44927e-05
9 *225:23 *226:10 0.000138551
10 *655:C1 *663:A2 0
11 *655:C1 *225:10 0
12 *655:C1 *225:23 0
13 *663:A1 *664:A2 6.52111e-05
14 *663:C1 *663:A2 4.66108e-05
15 *664:C1 *664:A2 8.94407e-05
16 *675:A0 *814:A 0.000160635
17 *742:RESET_B *225:10 2.61299e-05
18 *857:A *664:A2 0.000191914
19 *131:78 *664:A2 9.50342e-06
20 *136:16 *225:23 0
21 *138:81 *814:A 0.000135652
22 *138:81 *225:10 9.37731e-05
23 *138:81 *225:23 5.16418e-05
24 *197:45 *664:A2 8.40269e-05
25 *197:81 *664:A2 9.57985e-05
26 *197:94 *664:A2 2.49909e-05
27 *199:57 *664:A2 0
*RES
1 *742:Q *225:10 5.52 
2 *225:10 *814:A 7.515 
3 *225:10 *225:23 3.165 
4 *225:23 *664:A2 15.82 
5 *225:23 *663:A2 4.92 
*END

*D_NET *226 0.00152788
*CONN
*I *662:B I *D sky130_fd_sc_hd__xnor2_1
*I *856:A I *D sky130_fd_sc_hd__dlygate4sd3_1
*I *743:Q O *D sky130_fd_sc_hd__dfrtp_1
*CAP
1 *662:B 0.000137101
2 *856:A 0.00014156
3 *743:Q 0.000125067
4 *226:10 0.000403728
5 *655:C1 *662:B 0
6 *663:A1 *662:B 9.91257e-05
7 *663:A2 *662:B 7.06865e-05
8 *663:C1 *662:B 8.65905e-05
9 *664:C1 *662:B 0.000116853
10 *664:C1 *856:A 4.66108e-05
11 *664:C1 *226:10 2.92496e-05
12 *743:RESET_B *226:10 8.8266e-05
13 *225:23 *662:B 4.44927e-05
14 *225:23 *226:10 0.000138551
*RES
1 *743:Q *226:10 6.03 
2 *226:10 *856:A 5.775 
3 *226:10 *662:B 7.32 
*END

*D_NET *227 0.00146598
*CONN
*I *854:A I *D sky130_fd_sc_hd__dlygate4sd3_1
*I *661:B I *D sky130_fd_sc_hd__xor2_1
*I *744:Q O *D sky130_fd_sc_hd__dfrtp_1
*CAP
1 *854:A 0.000279559
2 *661:B 0.000190517
3 *744:Q 0
4 *227:6 0.000470076
5 *661:A *661:B 0.000287651
6 *664:B1 *661:B 0.000109845
7 *797:A *661:B 6.55406e-05
8 *797:A *854:A 1.1561e-05
9 *132:8 *661:B 3.47668e-05
10 *132:8 *854:A 4.18603e-06
11 *132:22 *661:B 1.22762e-05
*RES
1 *744:Q *227:6 3.6 
2 *227:6 *661:B 8.895 
3 *227:6 *854:A 8.085 
*END

*D_NET *228 0.00212552
*CONN
*I *633:A I *D sky130_fd_sc_hd__inv_2
*I *812:A I *D sky130_fd_sc_hd__dlygate4sd3_1
*I *773:Q O *D sky130_fd_sc_hd__dfrtp_1
*CAP
1 *633:A 0.000342064
2 *812:A 5.32455e-05
3 *773:Q 0.000240072
4 *228:10 0.000635381
5 *659:C1 *633:A 7.00889e-06
6 *728:A *633:A 0
7 *729:A1 *812:A 0.000163199
8 *774:D *812:A 3.00381e-05
9 *774:D *228:10 0
10 *124:57 *228:10 7.22354e-05
11 *133:22 *633:A 0.000204456
12 *133:22 *228:10 0.000131408
13 *133:24 *228:10 0.000160658
14 *158:12 *633:A 1.83756e-05
15 *194:37 *633:A 6.73751e-05
*RES
1 *773:Q *228:10 8.16 
2 *228:10 *812:A 5.085 
3 *228:10 *633:A 9.9 
*END

*D_NET *229 0.00347259
*CONN
*I *667:B1 I *D sky130_fd_sc_hd__o211ai_1
*I *816:A I *D sky130_fd_sc_hd__dlygate4sd3_1
*I *774:Q O *D sky130_fd_sc_hd__dfrtp_1
*CAP
1 *667:B1 0.000815314
2 *816:A 0
3 *774:Q 0.000391972
4 *229:10 0.00120729
5 *667:B1 *642:B1 0
6 *229:10 *642:B1 0
7 *229:10 *230:10 0
8 *659:C1 *667:B1 7.23533e-05
9 *666:A *667:B1 0.000196376
10 *666:B *667:B1 7.35729e-05
11 *667:C1 *667:B1 1.61831e-05
12 *771:RESET_B *667:B1 0.000265365
13 *775:D *229:10 2.46089e-05
14 *775:RESET_B *229:10 0.000277223
15 *124:14 *667:B1 4.57407e-05
16 *133:22 *667:B1 0
17 *133:22 *229:10 0
18 *158:12 *229:10 0
19 *172:8 *667:B1 8.65905e-05
*RES
1 *774:Q *229:10 9.54 
2 *229:10 *816:A 3.6 
3 *229:10 *667:B1 15.825 
*END

*D_NET *230 0.00338444
*CONN
*I *642:B1 I *D sky130_fd_sc_hd__o211ai_1
*I *817:A I *D sky130_fd_sc_hd__dlygate4sd3_1
*I *775:Q O *D sky130_fd_sc_hd__dfrtp_1
*CAP
1 *642:B1 0.000855487
2 *817:A 1.87513e-05
3 *775:Q 0.000256083
4 *230:10 0.00113032
5 *230:10 *818:A 0.000153724
6 *642:A1 *642:B1 1.19206e-05
7 *642:C1 *642:B1 5.53249e-06
8 *659:A1 *642:B1 0.000160658
9 *659:C1 *642:B1 0
10 *667:B1 *642:B1 0
11 *717:A1 *642:B1 4.77719e-05
12 *720:A1 *642:B1 0
13 *720:S *642:B1 0.000118527
14 *730:A0 *642:B1 0
15 *730:A0 *817:A 4.8854e-05
16 *730:A0 *230:10 0
17 *764:CLK *642:B1 0.000107627
18 *798:A *642:B1 4.77719e-05
19 *845:A *642:B1 0.00010622
20 *124:14 *642:B1 0.000229904
21 *194:22 *817:A 8.52883e-05
22 *211:24 *642:B1 0
23 *229:10 *642:B1 0
24 *229:10 *230:10 0
*RES
1 *775:Q *230:10 7.74 
2 *230:10 *817:A 4.395 
3 *230:10 *642:B1 19.545 
*END

*D_NET *231 0.00408406
*CONN
*I *650:B1 I *D sky130_fd_sc_hd__o211ai_1
*I *732:A1 I *D sky130_fd_sc_hd__mux2_1
*I *819:A I *D sky130_fd_sc_hd__dlygate4sd3_1
*I *776:Q O *D sky130_fd_sc_hd__dfrtp_1
*CAP
1 *650:B1 0.000157136
2 *732:A1 0.000710256
3 *819:A 0.000104487
4 *776:Q 4.97168e-05
5 *231:12 0.000869212
6 *231:6 0.000261322
7 *638:C1 *732:A1 0
8 *643:C1 *819:A 4.92062e-05
9 *650:C1 *650:B1 4.82919e-05
10 *651:B1 *732:A1 0
11 *670:A *650:B1 0.000121437
12 *670:C *732:A1 7.47215e-05
13 *670:C *819:A 0.000289698
14 *670:D *650:B1 0.000181568
15 *670:D *231:12 2.04101e-05
16 *714:A1 *732:A1 6.65887e-05
17 *732:A0 *732:A1 3.09233e-05
18 *760:RESET_B *819:A 8.40213e-05
19 *776:D *231:6 4.66108e-05
20 *788:A *732:A1 0.000193564
21 *788:A *819:A 0.000289698
22 *81:18 *650:B1 0.00015896
23 *81:18 *732:A1 1.52945e-05
24 *81:18 *231:6 6.07575e-06
25 *178:10 *732:A1 9.54469e-05
26 *196:73 *732:A1 0
27 *214:8 *732:A1 7.96996e-05
28 *214:19 *732:A1 7.97165e-05
*RES
1 *776:Q *231:6 2.395 
2 *231:6 *231:12 2.81 
3 *231:12 *819:A 7.815 
4 *231:12 *732:A1 17.01 
5 *231:6 *650:B1 6.145 
*END

*D_NET *232 0.0015206
*CONN
*I *808:A I *D sky130_fd_sc_hd__dlygate4sd3_1
*I *638:B1 I *D sky130_fd_sc_hd__o211ai_1
*I *777:Q O *D sky130_fd_sc_hd__dfrtp_1
*CAP
1 *808:A 0.000214662
2 *638:B1 0.000156092
3 *777:Q 0.000172568
4 *232:8 0.000543323
5 *637:B1 *638:B1 5.53249e-06
6 *638:C1 *638:B1 0.00021917
7 *732:A0 *638:B1 0
8 *778:CLK *232:8 2.11084e-05
9 *778:D *638:B1 3.67779e-05
10 *778:D *808:A 1.26626e-05
11 *778:RESET_B *232:8 6.62652e-05
12 *786:A *638:B1 7.24358e-05
13 *149:8 *808:A 0
*RES
1 *777:Q *232:8 5.775 
2 *232:8 *638:B1 7.275 
3 *232:8 *808:A 7.05 
*END

*D_NET *233 0.0021177
*CONN
*I *646:B1 I *D sky130_fd_sc_hd__o211ai_1
*I *810:A I *D sky130_fd_sc_hd__dlygate4sd3_1
*I *778:Q O *D sky130_fd_sc_hd__dfrtp_1
*CAP
1 *646:B1 0.00051029
2 *810:A 0
3 *778:Q 0.000136139
4 *233:8 0.000646429
5 *652:B *646:B1 0
6 *677:S *646:B1 0
7 *709:A1 *646:B1 7.63204e-05
8 *734:A1 *646:B1 0.000227261
9 *734:A1 *233:8 0.000110365
10 *751:D *646:B1 0
11 *752:D *646:B1 0
12 *778:RESET_B *233:8 1.37328e-05
13 *802:A *233:8 0.000163199
14 *827:A *646:B1 0
15 *830:A *646:B1 5.07419e-05
16 *137:10 *646:B1 1.52945e-05
17 *137:43 *646:B1 0
18 *199:67 *646:B1 0
19 *220:10 *646:B1 7.89611e-05
20 *220:14 *646:B1 8.89673e-05
21 *224:25 *646:B1 0
*RES
1 *778:Q *233:8 4.825 
2 *233:8 *810:A 1.6 
3 *233:8 *646:B1 15.785 
*END

*D_NET *234 0.00110721
*CONN
*I *654:B1 I *D sky130_fd_sc_hd__o211ai_1
*I *735:A1 I *D sky130_fd_sc_hd__mux2_1
*I *813:A I *D sky130_fd_sc_hd__dlygate4sd3_1
*I *779:Q O *D sky130_fd_sc_hd__dfrtp_1
*CAP
1 *654:B1 0
2 *735:A1 0.000142847
3 *813:A 6.56352e-05
4 *779:Q 0
5 *234:21 0.000299281
6 *234:4 0.00022207
7 *654:A1 *735:A1 3.18137e-05
8 *654:C1 *735:A1 1.71013e-05
9 *654:C1 *234:21 0.000125977
10 *655:C1 *735:A1 7.23602e-05
11 *735:A0 *735:A1 4.96443e-05
12 *780:D *735:A1 1.03423e-05
13 *132:22 *813:A 7.01407e-05
14 *132:22 *234:21 0
*RES
1 *779:Q *234:4 1.6 
2 *234:4 *813:A 6.98 
3 *234:4 *234:21 4.355 
4 *234:21 *735:A1 6.12 
5 *234:21 *654:B1 3.6 
*END

*D_NET *235 0.00090912
*CONN
*I *840:A I *D sky130_fd_sc_hd__dlygate4sd3_1
*I *663:B1 I *D sky130_fd_sc_hd__o211ai_1
*I *780:Q O *D sky130_fd_sc_hd__dfrtp_1
*CAP
1 *840:A 0.000213667
2 *663:B1 0.000225873
3 *780:Q 0
4 *235:6 0.000439541
5 *663:C1 *663:B1 3.00381e-05
*RES
1 *780:Q *235:6 3.6 
2 *235:6 *663:B1 7.395 
3 *235:6 *840:A 6.81 
*END

*D_NET *236 0.000594443
*CONN
*I *807:A I *D sky130_fd_sc_hd__dlygate4sd3_1
*I *759:Q O *D sky130_fd_sc_hd__dfrtp_1
*CAP
1 *807:A 0.000236144
2 *759:Q 0.000236144
3 *769:D *807:A 0.000122155
*RES
1 *759:Q *807:A 7.445 
*END

*D_NET *237 0.000739807
*CONN
*I *818:A I *D sky130_fd_sc_hd__dlygate4sd3_1
*I *769:Q O *D sky130_fd_sc_hd__dfrtp_1
*CAP
1 *818:A 0.000293041
2 *769:Q 0.000293041
3 *230:10 *818:A 0.000153724
*RES
1 *769:Q *818:A 12.105 
*END

*D_NET *238 0.000417484
*CONN
*I *829:A I *D sky130_fd_sc_hd__dlygate4sd3_1
*I *781:Q O *D sky130_fd_sc_hd__dfrtp_1
*CAP
1 *829:A 0.00014605
2 *781:Q 0.00014605
3 *672:B *829:A 0.000116853
4 *785:D *829:A 0
5 *141:8 *829:A 8.53113e-06
*RES
1 *781:Q *829:A 9.72 
*END

*D_NET *239 0.00121723
*CONN
*I *674:A I *D sky130_fd_sc_hd__and3_1
*I *785:Q O *D sky130_fd_sc_hd__dfrtp_1
*CAP
1 *674:A 0.000416455
2 *785:Q 0.000416455
3 *634:B *674:A 3.90266e-05
4 *692:A2 *674:A 0
5 *725:A1 *674:A 6.73751e-05
6 *117:19 *674:A 0.000187381
7 *198:10 *674:A 9.05377e-05
*RES
1 *785:Q *674:A 13.92 
*END
